NAME: Isoformosanine
PRECURSORMZ: 367.16633084783
PRECURSORTYPE: [M-H]-
INSTRUMENTTYPE: LC-ESI-QTOF
SMILES: COC(=O)C1=COC(C)C2CN3CCC4(C3CC12)C(O)=NC1=CC=CC=C41
INCHIKEY: JMIAZDVHNCCPDM-UHFFFAOYNA-N
Ontology: Indolizidines
COLLISIONENERGY: 10
FORMULA: C21H24N2O4
RETENTIONTIME: 4.420383
IONMODE: Negative
Comment: registered in RIKEN PlaSMA
Num Peaks: 6
68.02431	50
127.03831	252
148.95116	50
168.06439	43
209.09654	50
367.1702	1000

NAME: 19S-Methoxytubotaiwine
PRECURSORMZ: 353.18706624783
PRECURSORTYPE: [M-H]-
INSTRUMENTTYPE: LC-ESI-QTOF
SMILES: COC(C)C1C2N3CCC22C(NC4=CC=CC=C24)=C(C1CC3)C(=O)OC
INCHIKEY: LTOOPESWVADEAE-UHFFFAOYNA-N
Ontology: Strychnos alkaloids
COLLISIONENERGY: 10
FORMULA: C21H26N2O3
RETENTIONTIME: 4.518883
IONMODE: Negative
Comment: registered in RIKEN PlaSMA
Num Peaks: 4
179.0773	455
193.08321	288
262.1413	303
353.18967	1000

NAME: Voacristine
PRECURSORMZ: 383.19763094783
PRECURSORTYPE: [M-H]-
INSTRUMENTTYPE: LC-ESI-QTOF
SMILES: COC(=O)C12CC3CC(C(C)O)C1N(C3)CCC1=C2NC2=C1C=C(OC)C=C2
INCHIKEY: OYMQKBZMKFJPMH-UHFFFAOYNA-N
Ontology: Ibogan-type alkaloids
COLLISIONENERGY: 10
FORMULA: C22H28N2O4
RETENTIONTIME: 4.609633
IONMODE: Negative
Comment: registered in RIKEN PlaSMA
Num Peaks: 24
170.04617	35
174.07654	23
184.0549	27
211.04765	27
222.08545	32
222.0999	23
224.0695	21
224.09805	23
265.13046	32
280.12979	24
292.15936	34
293.12125	28
294.12073	24
296.1145	39
299.95224	25
309.1434	28
309.15707	21
326.13721	28
337.15857	39
368.16885	528
368.19162	49
369.17728	98
370.18179	53
383.19733	1000

NAME: Sempervirine
PRECURSORMZ: 271.12407204783
PRECURSORTYPE: [M-H]-
INSTRUMENTTYPE: LC-ESI-QTOF
SMILES: C1CCC2=CC3=C4N=C5C=CC=CC5=C4C=CN3C=C2C1
INCHIKEY: UQVUEULZDJRMJR-UHFFFAOYSA-N
Ontology: Beta carbolines
COLLISIONENERGY: 10
FORMULA: C19H16N2
RETENTIONTIME: 5.224417
IONMODE: Negative
Comment: registered in RIKEN PlaSMA
Num Peaks: 4
128.93382	133
193.06613	121
271.10709	301
271.12634	1000

NAME: Isoformosanine
PRECURSORMZ: 367.16633084783
PRECURSORTYPE: [M-H]-
INSTRUMENTTYPE: LC-ESI-QTOF
SMILES: COC(=O)C1=COC(C)C2CN3CCC4(C3CC12)C(O)=NC1=CC=CC=C41
INCHIKEY: JMIAZDVHNCCPDM-UHFFFAOYNA-N
Ontology: Indolizidines
COLLISIONENERGY: 10
FORMULA: C21H24N2O4
RETENTIONTIME: 4.420383
IONMODE: Negative
Comment: registered in RIKEN PlaSMA
Num Peaks: 5
127.03763	32
127.04257	50
209.10039	32
367.1665	1000
367.36349	38

NAME: 19S-Methoxytubotaiwine
PRECURSORMZ: 353.18706624783
PRECURSORTYPE: [M-H]-
INSTRUMENTTYPE: LC-ESI-QTOF
SMILES: COC(C)C1C2N3CCC22C(NC4=CC=CC=C24)=C(C1CC3)C(=O)OC
INCHIKEY: LTOOPESWVADEAE-UHFFFAOYNA-N
Ontology: Strychnos alkaloids
COLLISIONENERGY: 10
FORMULA: C21H26N2O3
RETENTIONTIME: 4.518883
IONMODE: Negative
Comment: registered in RIKEN PlaSMA
Num Peaks: 2
269.09225	68
353.18771	1000

NAME: Voacristine
PRECURSORMZ: 383.19763094783
PRECURSORTYPE: [M-H]-
INSTRUMENTTYPE: LC-ESI-QTOF
SMILES: COC(=O)C12CC3CC(C(C)O)C1N(C3)CCC1=C2NC2=C1C=C(OC)C=C2
INCHIKEY: OYMQKBZMKFJPMH-UHFFFAOYNA-N
Ontology: Ibogan-type alkaloids
COLLISIONENERGY: 10
FORMULA: C22H28N2O4
RETENTIONTIME: 4.609633
IONMODE: Negative
Comment: registered in RIKEN PlaSMA
Num Peaks: 6
213.18803	10
313.18765	9
366.40649	14
368.16946	36
382.19501	15
383.19858	1000

NAME: Sempervirine
PRECURSORMZ: 271.12407204783
PRECURSORTYPE: [M-H]-
INSTRUMENTTYPE: LC-ESI-QTOF
SMILES: C1CCC2=CC3=C4N=C5C=CC=CC5=C4C=CN3C=C2C1
INCHIKEY: UQVUEULZDJRMJR-UHFFFAOYSA-N
Ontology: Beta carbolines
COLLISIONENERGY: 10
FORMULA: C19H16N2
RETENTIONTIME: 5.224417
IONMODE: Negative
Comment: registered in RIKEN PlaSMA
Num Peaks: 2
271.112	336
271.12753	1000

NAME: Isoformosanine
PRECURSORMZ: 367.16633084783
PRECURSORTYPE: [M-H]-
INSTRUMENTTYPE: LC-ESI-QTOF
SMILES: COC(=O)C1=COC(C)C2CN3CCC4(C3CC12)C(O)=NC1=CC=CC=C41
INCHIKEY: JMIAZDVHNCCPDM-UHFFFAOYNA-N
Ontology: Indolizidines
COLLISIONENERGY: 30
FORMULA: C21H24N2O4
RETENTIONTIME: 4.420383
IONMODE: Negative
Comment: registered in RIKEN PlaSMA
Num Peaks: 7
68.02666	115
112.01559	115
127.04005	1000
144.03818	110
170.05226	152
176.069	126
209.09573	131

NAME: 19S-Methoxytubotaiwine
PRECURSORMZ: 353.18706624783
PRECURSORTYPE: [M-H]-
INSTRUMENTTYPE: LC-ESI-QTOF
SMILES: COC(C)C1C2N3CCC22C(NC4=CC=CC=C24)=C(C1CC3)C(=O)OC
INCHIKEY: LTOOPESWVADEAE-UHFFFAOYNA-N
Ontology: Strychnos alkaloids
COLLISIONENERGY: 30
FORMULA: C21H26N2O3
RETENTIONTIME: 4.518883
IONMODE: Negative
Comment: registered in RIKEN PlaSMA
Num Peaks: 10
180.11163	878
181.04712	469
182.05531	980
182.09134	673
194.05058	551
196.08791	735
208.07693	1000
225.07495	612
260.0983	551
265.14291	571

NAME: Voacristine
PRECURSORMZ: 383.19763094783
PRECURSORTYPE: [M-H]-
INSTRUMENTTYPE: LC-ESI-QTOF
SMILES: COC(=O)C12CC3CC(C(C)O)C1N(C3)CCC1=C2NC2=C1C=C(OC)C=C2
INCHIKEY: OYMQKBZMKFJPMH-UHFFFAOYNA-N
Ontology: Ibogan-type alkaloids
COLLISIONENERGY: 30
FORMULA: C22H28N2O4
RETENTIONTIME: 4.609633
IONMODE: Negative
Comment: registered in RIKEN PlaSMA
Num Peaks: 34
86.63587	18
157.05313	17
158.06006	20
159.06796	19
174.07603	23
184.06148	28
184.07558	32
185.06613	19
185.0816	19
202.36678	23
211.08701	19
213.04794	35
215.06291	27
222.08218	22
222.10124	39
223.0849	40
224.09578	22
250.08878	23
250.14761	34
264.12177	19
281.17944	19
282.16144	57
292.13971	18
295.09793	24
297.12466	22
308.15503	23
309.16055	75
310.16644	18
324.18683	24
336.14008	28
368.17212	1000
369.16544	85
369.18076	182
370.17441	17

NAME: Sempervirine
PRECURSORMZ: 271.12407204783
PRECURSORTYPE: [M-H]-
INSTRUMENTTYPE: LC-ESI-QTOF
SMILES: C1CCC2=CC3=C4N=C5C=CC=CC5=C4C=CN3C=C2C1
INCHIKEY: UQVUEULZDJRMJR-UHFFFAOYSA-N
Ontology: Beta carbolines
COLLISIONENERGY: 30
FORMULA: C19H16N2
RETENTIONTIME: 5.224417
IONMODE: Negative
Comment: registered in RIKEN PlaSMA
Num Peaks: 3
84.94025	435
181.07259	387
268.11841	1000

NAME: Isoformosanine
PRECURSORMZ: 367.16633084783
PRECURSORTYPE: [M-H]-
INSTRUMENTTYPE: LC-ESI-QTOF
SMILES: COC(=O)C1=COC(C)C2CN3CCC4(C3CC12)C(O)=NC1=CC=CC=C41
INCHIKEY: JMIAZDVHNCCPDM-UHFFFAOYNA-N
Ontology: Indolizidines
COLLISIONENERGY: 50
FORMULA: C21H24N2O4
RETENTIONTIME: 4.420383
IONMODE: Negative
Comment: registered in RIKEN PlaSMA
Num Peaks: 3
69.02513	737
127.03959	1000
144.0459	561

NAME: 19S-Methoxytubotaiwine
PRECURSORMZ: 353.18706624783
PRECURSORTYPE: [M-H]-
INSTRUMENTTYPE: LC-ESI-QTOF
SMILES: COC(C)C1C2N3CCC22C(NC4=CC=CC=C24)=C(C1CC3)C(=O)OC
INCHIKEY: LTOOPESWVADEAE-UHFFFAOYNA-N
Ontology: Strychnos alkaloids
COLLISIONENERGY: 50
FORMULA: C21H26N2O3
RETENTIONTIME: 4.518883
IONMODE: Negative
Comment: registered in RIKEN PlaSMA
Num Peaks: 6
114.51056	706
165.05031	529
166.07112	1000
167.0576	706
192.08031	559
216.06981	588

NAME: Voacristine
PRECURSORMZ: 383.19763094783
PRECURSORTYPE: [M-H]-
INSTRUMENTTYPE: LC-ESI-QTOF
SMILES: COC(=O)C12CC3CC(C(C)O)C1N(C3)CCC1=C2NC2=C1C=C(OC)C=C2
INCHIKEY: OYMQKBZMKFJPMH-UHFFFAOYNA-N
Ontology: Ibogan-type alkaloids
COLLISIONENERGY: 50
FORMULA: C22H28N2O4
RETENTIONTIME: 4.609633
IONMODE: Negative
Comment: registered in RIKEN PlaSMA
Num Peaks: 30
129.06151	81
144.04041	77
144.04704	77
146.05774	98
157.04762	85
157.05533	107
158.01431	137
158.05299	141
158.05814	299
171.04637	98
171.05385	98
182.05707	85
182.0654	98
183.05222	218
184.06328	81
195.06116	81
196.04765	85
207.06973	107
220.07756	128
221.07578	115
221.08801	419
222.09366	1000
235.10324	94
248.07584	115
265.07886	94
291.12067	85
292.12402	115
309.15393	77
368.17429	85
369.18674	145

NAME: Isoformosanine
PRECURSORMZ: 367.16633084783
PRECURSORTYPE: [M-H]-
INSTRUMENTTYPE: LC-ESI-QTOF
SMILES: COC(=O)C1=COC(C)C2CN3CCC4(C3CC12)C(O)=NC1=CC=CC=C41
INCHIKEY: JMIAZDVHNCCPDM-UHFFFAOYNA-N
Ontology: Indolizidines
COLLISIONENERGY: 10
FORMULA: C21H24N2O4
RETENTIONTIME: 4.420383
IONMODE: Negative
Comment: registered in RIKEN PlaSMA
Num Peaks: 5
127.04108	188
128.04163	296
208.09311	88
238.11844	67
367.16675	1000

NAME: 19S-Methoxytubotaiwine
PRECURSORMZ: 353.18706624783
PRECURSORTYPE: [M-H]-
INSTRUMENTTYPE: LC-ESI-QTOF
SMILES: COC(C)C1C2N3CCC22C(NC4=CC=CC=C24)=C(C1CC3)C(=O)OC
INCHIKEY: LTOOPESWVADEAE-UHFFFAOYNA-N
Ontology: Strychnos alkaloids
COLLISIONENERGY: 10
FORMULA: C21H26N2O3
RETENTIONTIME: 4.518883
IONMODE: Negative
Comment: registered in RIKEN PlaSMA
Num Peaks: 6
166.06441	118
221.10568	94
235.11171	153
293.16824	108
321.16913	138
353.18494	1000

NAME: Voacristine
PRECURSORMZ: 383.19763094783
PRECURSORTYPE: [M-H]-
INSTRUMENTTYPE: LC-ESI-QTOF
SMILES: COC(=O)C12CC3CC(C(C)O)C1N(C3)CCC1=C2NC2=C1C=C(OC)C=C2
INCHIKEY: OYMQKBZMKFJPMH-UHFFFAOYNA-N
Ontology: Ibogan-type alkaloids
COLLISIONENERGY: 10
FORMULA: C22H28N2O4
RETENTIONTIME: 4.609633
IONMODE: Negative
Comment: registered in RIKEN PlaSMA
Num Peaks: 32
94.27563	28
140.0657	28
145.04909	38
158.05591	31
171.05713	53
184.06091	31
184.07274	59
186.07501	25
194.11989	22
197.0713	32
211.06737	20
221.08479	23
223.08334	21
223.09377	27
251.08293	41
264.1283	29
281.15466	24
291.14761	26
309.16318	118
337.15909	26
339.16315	35
340.14038	23
367.9501	21
368.17575	498
369.17319	43
369.18909	82
370.17651	44
370.22458	19
382.17957	22
383.14526	28
383.16296	31
383.19904	1000

NAME: Sempervirine
PRECURSORMZ: 271.12407204783
PRECURSORTYPE: [M-H]-
INSTRUMENTTYPE: LC-ESI-QTOF
SMILES: C1CCC2=CC3=C4N=C5C=CC=CC5=C4C=CN3C=C2C1
INCHIKEY: UQVUEULZDJRMJR-UHFFFAOYSA-N
Ontology: Beta carbolines
COLLISIONENERGY: 10
FORMULA: C19H16N2
RETENTIONTIME: 5.224417
IONMODE: Negative
Comment: registered in RIKEN PlaSMA
Num Peaks: 4
268.09305	180
271.10895	180
271.12439	1000
271.15134	83

NAME: Isoformosanine
PRECURSORMZ: 367.16633084783
PRECURSORTYPE: [M-H]-
INSTRUMENTTYPE: LC-ESI-QTOF
SMILES: COC(=O)C1=COC(C)C2CN3CCC4(C3CC12)C(O)=NC1=CC=CC=C41
INCHIKEY: JMIAZDVHNCCPDM-UHFFFAOYNA-N
Ontology: Indolizidines
COLLISIONENERGY: 10
FORMULA: C21H24N2O4
RETENTIONTIME: 4.420383
IONMODE: Negative
Comment: registered in RIKEN PlaSMA
Num Peaks: 5
152.98947	19
198.8862	20
232.99863	22
280.09235	20
367.16547	1000

NAME: 19S-Methoxytubotaiwine
PRECURSORMZ: 353.18706624783
PRECURSORTYPE: [M-H]-
INSTRUMENTTYPE: LC-ESI-QTOF
SMILES: COC(C)C1C2N3CCC22C(NC4=CC=CC=C24)=C(C1CC3)C(=O)OC
INCHIKEY: LTOOPESWVADEAE-UHFFFAOYNA-N
Ontology: Strychnos alkaloids
COLLISIONENERGY: 10
FORMULA: C21H26N2O3
RETENTIONTIME: 4.518883
IONMODE: Negative
Comment: registered in RIKEN PlaSMA
Num Peaks: 3
213.0789	98
353.18344	1000
353.20044	316

NAME: Voacristine
PRECURSORMZ: 383.19763094783
PRECURSORTYPE: [M-H]-
INSTRUMENTTYPE: LC-ESI-QTOF
SMILES: COC(=O)C12CC3CC(C(C)O)C1N(C3)CCC1=C2NC2=C1C=C(OC)C=C2
INCHIKEY: OYMQKBZMKFJPMH-UHFFFAOYNA-N
Ontology: Ibogan-type alkaloids
COLLISIONENERGY: 10
FORMULA: C22H28N2O4
RETENTIONTIME: 4.609633
IONMODE: Negative
Comment: registered in RIKEN PlaSMA
Num Peaks: 6
249.94073	11
329.99002	10
369.16129	10
379.4801	11
383.19528	1000
383.23569	17

NAME: Sempervirine
PRECURSORMZ: 271.12407204783
PRECURSORTYPE: [M-H]-
INSTRUMENTTYPE: LC-ESI-QTOF
SMILES: C1CCC2=CC3=C4N=C5C=CC=CC5=C4C=CN3C=C2C1
INCHIKEY: UQVUEULZDJRMJR-UHFFFAOYSA-N
Ontology: Beta carbolines
COLLISIONENERGY: 10
FORMULA: C19H16N2
RETENTIONTIME: 5.224417
IONMODE: Negative
Comment: registered in RIKEN PlaSMA
Num Peaks: 2
257.10687	52
271.12225	1000

NAME: Isoformosanine
PRECURSORMZ: 367.16633084783
PRECURSORTYPE: [M-H]-
INSTRUMENTTYPE: LC-ESI-QTOF
SMILES: COC(=O)C1=COC(C)C2CN3CCC4(C3CC12)C(O)=NC1=CC=CC=C41
INCHIKEY: JMIAZDVHNCCPDM-UHFFFAOYNA-N
Ontology: Indolizidines
COLLISIONENERGY: 30
FORMULA: C21H24N2O4
RETENTIONTIME: 4.420383
IONMODE: Negative
Comment: registered in RIKEN PlaSMA
Num Peaks: 7
67.0202	150
127.03846	1000
128.04648	260
144.04359	84
152.02934	88
279.07724	77
305.74228	103

NAME: 19S-Methoxytubotaiwine
PRECURSORMZ: 353.18706624783
PRECURSORTYPE: [M-H]-
INSTRUMENTTYPE: LC-ESI-QTOF
SMILES: COC(C)C1C2N3CCC22C(NC4=CC=CC=C24)=C(C1CC3)C(=O)OC
INCHIKEY: LTOOPESWVADEAE-UHFFFAOYNA-N
Ontology: Strychnos alkaloids
COLLISIONENERGY: 30
FORMULA: C21H26N2O3
RETENTIONTIME: 4.518883
IONMODE: Negative
Comment: registered in RIKEN PlaSMA
Num Peaks: 8
167.07442	368
169.0658	441
181.05382	294
211.08162	309
212.05136	324
225.07863	1000
273.1138	294
292.96906	353

NAME: Voacristine
PRECURSORMZ: 383.19763094783
PRECURSORTYPE: [M-H]-
INSTRUMENTTYPE: LC-ESI-QTOF
SMILES: COC(=O)C12CC3CC(C(C)O)C1N(C3)CCC1=C2NC2=C1C=C(OC)C=C2
INCHIKEY: OYMQKBZMKFJPMH-UHFFFAOYNA-N
Ontology: Ibogan-type alkaloids
COLLISIONENERGY: 30
FORMULA: C22H28N2O4
RETENTIONTIME: 4.609633
IONMODE: Negative
Comment: registered in RIKEN PlaSMA
Num Peaks: 50
137.06197	16
138.01114	14
144.04153	14
146.06042	36
147.39943	21
148.94348	17
157.05099	19
158.05251	15
158.06279	37
159.06487	19
171.05618	16
172.0571	16
183.05247	17
184.0703	22
185.0699	16
186.07751	46
186.08568	31
223.08789	53
223.10382	14
224.10019	24
224.97318	20
229.07715	22
238.09676	19
238.12639	18
242.08069	21
249.07083	35
263.08154	14
263.1163	17
264.12186	30
265.12021	21
265.13812	22
266.09842	17
266.11414	24
266.14175	26
292.13992	20
295.12631	20
295.14673	14
309.15311	42
309.16803	31
321.15918	14
323.1427	14
324.14786	19
336.14456	15
341.13605	17
347.40561	24
368.14554	22
368.17252	1000
369.17764	146
383.15292	15
383.19415	46

NAME: Sempervirine
PRECURSORMZ: 271.12407204783
PRECURSORTYPE: [M-H]-
INSTRUMENTTYPE: LC-ESI-QTOF
SMILES: C1CCC2=CC3=C4N=C5C=CC=CC5=C4C=CN3C=C2C1
INCHIKEY: UQVUEULZDJRMJR-UHFFFAOYSA-N
Ontology: Beta carbolines
COLLISIONENERGY: 30
FORMULA: C19H16N2
RETENTIONTIME: 5.224417
IONMODE: Negative
Comment: registered in RIKEN PlaSMA
Num Peaks: 2
255.09447	400
271.12692	1000

NAME: Isoformosanine
PRECURSORMZ: 367.16633084783
PRECURSORTYPE: [M-H]-
INSTRUMENTTYPE: LC-ESI-QTOF
SMILES: COC(=O)C1=COC(C)C2CN3CCC4(C3CC12)C(O)=NC1=CC=CC=C41
INCHIKEY: JMIAZDVHNCCPDM-UHFFFAOYNA-N
Ontology: Indolizidines
COLLISIONENERGY: 50
FORMULA: C21H24N2O4
RETENTIONTIME: 4.420383
IONMODE: Negative
Comment: registered in RIKEN PlaSMA
Num Peaks: 5
79.1046	242
106.04483	200
144.04257	1000
152.03133	632
152.03862	189

NAME: 19S-Methoxytubotaiwine
PRECURSORMZ: 353.18706624783
PRECURSORTYPE: [M-H]-
INSTRUMENTTYPE: LC-ESI-QTOF
SMILES: COC(C)C1C2N3CCC22C(NC4=CC=CC=C24)=C(C1CC3)C(=O)OC
INCHIKEY: LTOOPESWVADEAE-UHFFFAOYNA-N
Ontology: Strychnos alkaloids
COLLISIONENERGY: 50
FORMULA: C21H26N2O3
RETENTIONTIME: 4.518883
IONMODE: Negative
Comment: registered in RIKEN PlaSMA
Num Peaks: 5
166.06825	741
181.05646	963
207.08794	667
218.05998	815
232.11464	1000

NAME: Voacristine
PRECURSORMZ: 383.19763094783
PRECURSORTYPE: [M-H]-
INSTRUMENTTYPE: LC-ESI-QTOF
SMILES: COC(=O)C12CC3CC(C(C)O)C1N(C3)CCC1=C2NC2=C1C=C(OC)C=C2
INCHIKEY: OYMQKBZMKFJPMH-UHFFFAOYNA-N
Ontology: Ibogan-type alkaloids
COLLISIONENERGY: 50
FORMULA: C22H28N2O4
RETENTIONTIME: 4.609633
IONMODE: Negative
Comment: registered in RIKEN PlaSMA
Num Peaks: 26
131.033	142
144.04027	113
156.03912	98
157.04141	147
157.05547	377
158.05299	353
169.05345	230
170.04706	123
171.05202	348
175.33327	118
181.05319	88
194.11572	98
196.06866	98
196.12228	176
206.95308	152
221.08075	1000
221.20512	88
222.09132	250
222.09911	206
253.09763	123
265.09631	113
265.13199	191
266.1478	103
273.10651	103
293.10431	98
310.15921	142

NAME: Sempervirine
PRECURSORMZ: 271.12407204783
PRECURSORTYPE: [M-H]-
INSTRUMENTTYPE: LC-ESI-QTOF
SMILES: C1CCC2=CC3=C4N=C5C=CC=CC5=C4C=CN3C=C2C1
INCHIKEY: UQVUEULZDJRMJR-UHFFFAOYSA-N
Ontology: Beta carbolines
COLLISIONENERGY: 50
FORMULA: C19H16N2
RETENTIONTIME: 5.224417
IONMODE: Negative
Comment: registered in RIKEN PlaSMA
Num Peaks: 1
165.05338	1000

NAME: Isoformosanine
PRECURSORMZ: 367.16633084783
PRECURSORTYPE: [M-H]-
INSTRUMENTTYPE: LC-ESI-QTOF
SMILES: COC(=O)C1=COC(C)C2CN3CCC4(C3CC12)C(O)=NC1=CC=CC=C41
INCHIKEY: JMIAZDVHNCCPDM-UHFFFAOYNA-N
Ontology: Indolizidines
COLLISIONENERGY: 10
FORMULA: C21H24N2O4
RETENTIONTIME: 4.420383
IONMODE: Negative
Comment: registered in RIKEN PlaSMA
Num Peaks: 11
67.01645	54
109.02195	62
127.03649	345
144.04976	85
148.06851	71
148.08318	51
153.03362	54
176.07294	76
208.0957	51
367.16592	1000
367.18802	85

NAME: 19S-Methoxytubotaiwine
PRECURSORMZ: 353.18706624783
PRECURSORTYPE: [M-H]-
INSTRUMENTTYPE: LC-ESI-QTOF
SMILES: COC(C)C1C2N3CCC22C(NC4=CC=CC=C24)=C(C1CC3)C(=O)OC
INCHIKEY: LTOOPESWVADEAE-UHFFFAOYNA-N
Ontology: Strychnos alkaloids
COLLISIONENERGY: 10
FORMULA: C21H26N2O3
RETENTIONTIME: 4.518883
IONMODE: Negative
Comment: registered in RIKEN PlaSMA
Num Peaks: 7
147.0748	155
167.0542	171
185.0634	194
260.10437	217
261.11258	194
353.17148	178
353.19162	1000

NAME: Voacristine
PRECURSORMZ: 383.19763094783
PRECURSORTYPE: [M-H]-
INSTRUMENTTYPE: LC-ESI-QTOF
SMILES: COC(=O)C12CC3CC(C(C)O)C1N(C3)CCC1=C2NC2=C1C=C(OC)C=C2
INCHIKEY: OYMQKBZMKFJPMH-UHFFFAOYNA-N
Ontology: Ibogan-type alkaloids
COLLISIONENERGY: 10
FORMULA: C22H28N2O4
RETENTIONTIME: 4.609633
IONMODE: Negative
Comment: registered in RIKEN PlaSMA
Num Peaks: 30
157.04807	44
158.06036	76
169.03952	20
171.05255	46
171.06035	75
199.0652	17
212.02831	53
215.05904	33
220.06056	26
221.06898	19
222.07678	80
223.076	28
228.06636	26
235.10658	24
237.09993	20
264.10797	18
282.11084	29
309.14789	21
309.17212	35
337.75775	17
337.84802	22
367.16425	35
368.17151	377
368.19495	81
368.93512	24
369.15317	19
369.17398	97
370.16315	24
383.19379	1000
383.22083	60

NAME: Sempervirine
PRECURSORMZ: 271.12407204783
PRECURSORTYPE: [M-H]-
INSTRUMENTTYPE: LC-ESI-QTOF
SMILES: C1CCC2=CC3=C4N=C5C=CC=CC5=C4C=CN3C=C2C1
INCHIKEY: UQVUEULZDJRMJR-UHFFFAOYSA-N
Ontology: Beta carbolines
COLLISIONENERGY: 10
FORMULA: C19H16N2
RETENTIONTIME: 5.224417
IONMODE: Negative
Comment: registered in RIKEN PlaSMA
Num Peaks: 4
255.08185	116
269.11249	136
271.10416	162
271.12448	1000

NAME: Isoformosanine
PRECURSORMZ: 367.16633084783
PRECURSORTYPE: [M-H]-
INSTRUMENTTYPE: LC-ESI-QTOF
SMILES: COC(=O)C1=COC(C)C2CN3CCC4(C3CC12)C(O)=NC1=CC=CC=C41
INCHIKEY: JMIAZDVHNCCPDM-UHFFFAOYNA-N
Ontology: Indolizidines
COLLISIONENERGY: 10
FORMULA: C21H24N2O4
RETENTIONTIME: 4.420383
IONMODE: Negative
Comment: registered in RIKEN PlaSMA
Num Peaks: 3
127.03831	75
366.92706	33
367.16571	1000

NAME: 19S-Methoxytubotaiwine
PRECURSORMZ: 353.18706624783
PRECURSORTYPE: [M-H]-
INSTRUMENTTYPE: LC-ESI-QTOF
SMILES: COC(C)C1C2N3CCC22C(NC4=CC=CC=C24)=C(C1CC3)C(=O)OC
INCHIKEY: LTOOPESWVADEAE-UHFFFAOYNA-N
Ontology: Strychnos alkaloids
COLLISIONENERGY: 10
FORMULA: C21H26N2O3
RETENTIONTIME: 4.518883
IONMODE: Negative
Comment: registered in RIKEN PlaSMA
Num Peaks: 6
218.86133	59
262.85614	69
294.17581	65
308.80005	141
353.18884	1000
353.20282	186

NAME: Voacristine
PRECURSORMZ: 383.19763094783
PRECURSORTYPE: [M-H]-
INSTRUMENTTYPE: LC-ESI-QTOF
SMILES: COC(=O)C12CC3CC(C(C)O)C1N(C3)CCC1=C2NC2=C1C=C(OC)C=C2
INCHIKEY: OYMQKBZMKFJPMH-UHFFFAOYNA-N
Ontology: Ibogan-type alkaloids
COLLISIONENERGY: 10
FORMULA: C22H28N2O4
RETENTIONTIME: 4.609633
IONMODE: Negative
Comment: registered in RIKEN PlaSMA
Num Peaks: 5
203.15105	16
292.121	16
368.16992	38
369.18649	34
383.1962	1000

NAME: Isoformosanine
PRECURSORMZ: 367.16633084783
PRECURSORTYPE: [M-H]-
INSTRUMENTTYPE: LC-ESI-QTOF
SMILES: COC(=O)C1=COC(C)C2CN3CCC4(C3CC12)C(O)=NC1=CC=CC=C41
INCHIKEY: JMIAZDVHNCCPDM-UHFFFAOYNA-N
Ontology: Indolizidines
COLLISIONENERGY: 30
FORMULA: C21H24N2O4
RETENTIONTIME: 4.420383
IONMODE: Negative
Comment: registered in RIKEN PlaSMA
Num Peaks: 10
56.99872	92
67.0189	50
108.01846	103
127.03925	1000
128.04242	69
161.04115	61
174.05467	69
176.06895	72
208.09196	50
211.56467	56

NAME: 19S-Methoxytubotaiwine
PRECURSORMZ: 353.18706624783
PRECURSORTYPE: [M-H]-
INSTRUMENTTYPE: LC-ESI-QTOF
SMILES: COC(C)C1C2N3CCC22C(NC4=CC=CC=C24)=C(C1CC3)C(=O)OC
INCHIKEY: LTOOPESWVADEAE-UHFFFAOYNA-N
Ontology: Strychnos alkaloids
COLLISIONENERGY: 30
FORMULA: C21H26N2O3
RETENTIONTIME: 4.518883
IONMODE: Negative
Comment: registered in RIKEN PlaSMA
Num Peaks: 3
233.06255	583
277.12634	389
353.19028	1000

NAME: Voacristine
PRECURSORMZ: 383.19763094783
PRECURSORTYPE: [M-H]-
INSTRUMENTTYPE: LC-ESI-QTOF
SMILES: COC(=O)C12CC3CC(C(C)O)C1N(C3)CCC1=C2NC2=C1C=C(OC)C=C2
INCHIKEY: OYMQKBZMKFJPMH-UHFFFAOYNA-N
Ontology: Ibogan-type alkaloids
COLLISIONENERGY: 30
FORMULA: C22H28N2O4
RETENTIONTIME: 4.609633
IONMODE: Negative
Comment: registered in RIKEN PlaSMA
Num Peaks: 40
107.92661	20
144.04735	22
158.062	99
159.0648	21
169.05315	17
172.05959	18
179.06175	27
186.07863	42
196.03735	20
197.06857	16
211.05365	21
216.36795	24
221.08372	19
222.08649	44
225.05757	23
236.10168	20
244.09024	31
251.08255	21
264.11469	27
265.12933	18
267.13925	20
274.10501	16
281.16992	16
292.11856	27
292.15619	16
294.10873	17
294.12781	18
296.12888	20
308.1423	21
309.1586	20
309.17032	44
310.1517	45
322.91635	16
324.13495	42
324.16068	17
336.13675	21
340.12912	20
362.69559	26
368.17035	1000
369.17548	259

NAME: Sempervirine
PRECURSORMZ: 271.12407204783
PRECURSORTYPE: [M-H]-
INSTRUMENTTYPE: LC-ESI-QTOF
SMILES: C1CCC2=CC3=C4N=C5C=CC=CC5=C4C=CN3C=C2C1
INCHIKEY: UQVUEULZDJRMJR-UHFFFAOYSA-N
Ontology: Beta carbolines
COLLISIONENERGY: 30
FORMULA: C19H16N2
RETENTIONTIME: 5.224417
IONMODE: Negative
Comment: registered in RIKEN PlaSMA
Num Peaks: 7
193.07336	300
244.11572	443
245.09952	271
255.09248	1000
268.09445	286
269.10223	300
269.11203	314

NAME: Isoformosanine
PRECURSORMZ: 367.16633084783
PRECURSORTYPE: [M-H]-
INSTRUMENTTYPE: LC-ESI-QTOF
SMILES: COC(=O)C1=COC(C)C2CN3CCC4(C3CC12)C(O)=NC1=CC=CC=C41
INCHIKEY: JMIAZDVHNCCPDM-UHFFFAOYNA-N
Ontology: Indolizidines
COLLISIONENERGY: 50
FORMULA: C21H24N2O4
RETENTIONTIME: 4.420383
IONMODE: Negative
Comment: registered in RIKEN PlaSMA
Num Peaks: 4
67.01677	585
106.04013	323
127.03776	308
130.06197	1000

NAME: 19S-Methoxytubotaiwine
PRECURSORMZ: 353.18706624783
PRECURSORTYPE: [M-H]-
INSTRUMENTTYPE: LC-ESI-QTOF
SMILES: COC(C)C1C2N3CCC22C(NC4=CC=CC=C24)=C(C1CC3)C(=O)OC
INCHIKEY: LTOOPESWVADEAE-UHFFFAOYNA-N
Ontology: Strychnos alkaloids
COLLISIONENERGY: 50
FORMULA: C21H26N2O3
RETENTIONTIME: 4.518883
IONMODE: Negative
Comment: registered in RIKEN PlaSMA
Num Peaks: 2
153.05951	293
166.06293	1000

NAME: Voacristine
PRECURSORMZ: 383.19763094783
PRECURSORTYPE: [M-H]-
INSTRUMENTTYPE: LC-ESI-QTOF
SMILES: COC(=O)C12CC3CC(C(C)O)C1N(C3)CCC1=C2NC2=C1C=C(OC)C=C2
INCHIKEY: OYMQKBZMKFJPMH-UHFFFAOYNA-N
Ontology: Ibogan-type alkaloids
COLLISIONENERGY: 50
FORMULA: C22H28N2O4
RETENTIONTIME: 4.609633
IONMODE: Negative
Comment: registered in RIKEN PlaSMA
Num Peaks: 38
91.72381	84
118.06386	61
131.03249	64
144.03958	235
145.04779	195
156.04794	70
157.04721	215
158.0565	227
168.03223	81
170.04512	73
171.05661	172
171.0629	64
172.07523	84
182.0535	128
184.08374	76
185.08789	90
186.07466	58
195.12347	70
197.06647	67
206.09213	52
209.06853	52
215.06293	58
221.08366	1000
222.09703	442
223.07185	84
223.08905	84
236.07335	73
236.11551	113
237.0601	58
255.09946	52
263.12201	163
264.10489	58
265.12915	58
291.11755	58
309.12991	58
309.1568	67
309.19067	84
309.90472	58

NAME: Sempervirine
PRECURSORMZ: 271.12407204783
PRECURSORTYPE: [M-H]-
INSTRUMENTTYPE: LC-ESI-QTOF
SMILES: C1CCC2=CC3=C4N=C5C=CC=CC5=C4C=CN3C=C2C1
INCHIKEY: UQVUEULZDJRMJR-UHFFFAOYSA-N
Ontology: Beta carbolines
COLLISIONENERGY: 50
FORMULA: C19H16N2
RETENTIONTIME: 5.224417
IONMODE: Negative
Comment: registered in RIKEN PlaSMA
Num Peaks: 1
91.00184	1000

NAME: Koumidine
PRECURSORMZ: 293.16593684783
PRECURSORTYPE: [M-H]-
INSTRUMENTTYPE: LC-ESI-QTOF
SMILES: CC=C1CN2C3CC4=C(NC5=CC=CC=C45)C2CC1C3CO
INCHIKEY: VXTDUGOBAOLMED-UHFFFAOYNA-N
Ontology: Macroline alkaloids
COLLISIONENERGY: 10
FORMULA: C19H22N2O
RETENTIONTIME: 3.582667
IONMODE: Negative
Comment: registered in RIKEN PlaSMA
Num Peaks: 8
143.06619	54
156.08725	88
157.09227	68
167.06676	118
180.06886	104
245.10101	57
275.16776	43
293.16525	1000

NAME: Mitraphylline
PRECURSORMZ: 367.16633084783
PRECURSORTYPE: [M-H]-
INSTRUMENTTYPE: LC-ESI-QTOF
SMILES: COC(=O)C1=COC(C)C2CN3CCC4(C3CC12)C(O)=NC1=CC=CC=C41
INCHIKEY: JMIAZDVHNCCPDM-UHFFFAOYNA-N
Ontology: Indolizidines
COLLISIONENERGY: 10
FORMULA: C21H24N2O4
RETENTIONTIME: 4.387967
IONMODE: Negative
Comment: registered in RIKEN PlaSMA
Num Peaks: 7
122.02415	169
176.08199	92
180.07861	96
208.10205	230
229.13347	84
367.14276	84
367.16299	1000

NAME: Koumidine
PRECURSORMZ: 293.16593684783
PRECURSORTYPE: [M-H]-
INSTRUMENTTYPE: LC-ESI-QTOF
SMILES: CC=C1CN2C3CC4=C(NC5=CC=CC=C45)C2CC1C3CO
INCHIKEY: VXTDUGOBAOLMED-UHFFFAOYNA-N
Ontology: Macroline alkaloids
COLLISIONENERGY: 10
FORMULA: C19H22N2O
RETENTIONTIME: 3.582667
IONMODE: Negative
Comment: registered in RIKEN PlaSMA
Num Peaks: 2
53.54589	16
293.16388	1000

NAME: Mitraphylline
PRECURSORMZ: 367.16633084783
PRECURSORTYPE: [M-H]-
INSTRUMENTTYPE: LC-ESI-QTOF
SMILES: COC(=O)C1=COC(C)C2CN3CCC4(C3CC12)C(O)=NC1=CC=CC=C41
INCHIKEY: JMIAZDVHNCCPDM-UHFFFAOYNA-N
Ontology: Indolizidines
COLLISIONENERGY: 10
FORMULA: C21H24N2O4
RETENTIONTIME: 4.387967
IONMODE: Negative
Comment: registered in RIKEN PlaSMA
Num Peaks: 8
127.03356	46
196.05257	46
208.09401	89
263.15652	40
327.13571	40
335.14072	40
367.16541	1000
367.19229	127

NAME: Koumidine
PRECURSORMZ: 293.16593684783
PRECURSORTYPE: [M-H]-
INSTRUMENTTYPE: LC-ESI-QTOF
SMILES: CC=C1CN2C3CC4=C(NC5=CC=CC=C45)C2CC1C3CO
INCHIKEY: VXTDUGOBAOLMED-UHFFFAOYNA-N
Ontology: Macroline alkaloids
COLLISIONENERGY: 30
FORMULA: C19H22N2O
RETENTIONTIME: 3.582667
IONMODE: Negative
Comment: registered in RIKEN PlaSMA
Num Peaks: 13
91.05936	325
120.07475	300
134.10309	288
142.06955	475
155.07146	288
156.08231	488
168.0773	312
180.06102	250
180.07487	425
181.79097	250
260.12567	300
263.14847	1000
293.16333	925

NAME: Mitraphylline
PRECURSORMZ: 367.16633084783
PRECURSORTYPE: [M-H]-
INSTRUMENTTYPE: LC-ESI-QTOF
SMILES: COC(=O)C1=COC(C)C2CN3CCC4(C3CC12)C(O)=NC1=CC=CC=C41
INCHIKEY: JMIAZDVHNCCPDM-UHFFFAOYNA-N
Ontology: Indolizidines
COLLISIONENERGY: 30
FORMULA: C21H24N2O4
RETENTIONTIME: 4.387967
IONMODE: Negative
Comment: registered in RIKEN PlaSMA
Num Peaks: 18
117.04765	226
122.02129	925
127.03925	1000
128.04399	151
133.06699	123
148.04582	315
148.07323	740
154.04898	144
175.08743	336
176.07445	315
177.07932	240
180.0766	171
208.09505	890
209.10799	130
217.07179	164
222.12912	171
235.08708	240
238.11063	185

NAME: Koumidine
PRECURSORMZ: 293.16593684783
PRECURSORTYPE: [M-H]-
INSTRUMENTTYPE: LC-ESI-QTOF
SMILES: CC=C1CN2C3CC4=C(NC5=CC=CC=C45)C2CC1C3CO
INCHIKEY: VXTDUGOBAOLMED-UHFFFAOYNA-N
Ontology: Macroline alkaloids
COLLISIONENERGY: 50
FORMULA: C19H22N2O
RETENTIONTIME: 3.582667
IONMODE: Negative
Comment: registered in RIKEN PlaSMA
Num Peaks: 4
131.06277	391
153.05145	297
167.06541	1000
168.056	516

NAME: Mitraphylline
PRECURSORMZ: 367.16633084783
PRECURSORTYPE: [M-H]-
INSTRUMENTTYPE: LC-ESI-QTOF
SMILES: COC(=O)C1=COC(C)C2CN3CCC4(C3CC12)C(O)=NC1=CC=CC=C41
INCHIKEY: JMIAZDVHNCCPDM-UHFFFAOYNA-N
Ontology: Indolizidines
COLLISIONENERGY: 50
FORMULA: C21H24N2O4
RETENTIONTIME: 4.387967
IONMODE: Negative
Comment: registered in RIKEN PlaSMA
Num Peaks: 4
92.01098	333
94.02398	444
122.02293	1000
152.03697	352

NAME: Koumidine
PRECURSORMZ: 293.16593684783
PRECURSORTYPE: [M-H]-
INSTRUMENTTYPE: LC-ESI-QTOF
SMILES: CC=C1CN2C3CC4=C(NC5=CC=CC=C45)C2CC1C3CO
INCHIKEY: VXTDUGOBAOLMED-UHFFFAOYNA-N
Ontology: Macroline alkaloids
COLLISIONENERGY: 10
FORMULA: C19H22N2O
RETENTIONTIME: 3.582667
IONMODE: Negative
Comment: registered in RIKEN PlaSMA
Num Peaks: 6
166.0639	53
167.05609	80
232.10718	34
263.15875	72
264.69925	65
293.16284	1000

NAME: Mitraphylline
PRECURSORMZ: 367.16633084783
PRECURSORTYPE: [M-H]-
INSTRUMENTTYPE: LC-ESI-QTOF
SMILES: COC(=O)C1=COC(C)C2CN3CCC4(C3CC12)C(O)=NC1=CC=CC=C41
INCHIKEY: JMIAZDVHNCCPDM-UHFFFAOYNA-N
Ontology: Indolizidines
COLLISIONENERGY: 10
FORMULA: C21H24N2O4
RETENTIONTIME: 4.387967
IONMODE: Negative
Comment: registered in RIKEN PlaSMA
Num Peaks: 12
122.02412	167
123.02314	65
127.03606	53
155.05763	102
176.06754	65
176.07599	49
176.09302	42
208.09488	86
210.05481	62
307.14948	46
335.13959	62
367.16379	1000

NAME: Koumidine
PRECURSORMZ: 293.16593684783
PRECURSORTYPE: [M-H]-
INSTRUMENTTYPE: LC-ESI-QTOF
SMILES: CC=C1CN2C3CC4=C(NC5=CC=CC=C45)C2CC1C3CO
INCHIKEY: VXTDUGOBAOLMED-UHFFFAOYNA-N
Ontology: Macroline alkaloids
COLLISIONENERGY: 10
FORMULA: C19H22N2O
RETENTIONTIME: 3.582667
IONMODE: Negative
Comment: registered in RIKEN PlaSMA
Num Peaks: 3
284.39316	16
293.16418	1000
293.18921	24

NAME: Mitraphylline
PRECURSORMZ: 367.16633084783
PRECURSORTYPE: [M-H]-
INSTRUMENTTYPE: LC-ESI-QTOF
SMILES: COC(=O)C1=COC(C)C2CN3CCC4(C3CC12)C(O)=NC1=CC=CC=C41
INCHIKEY: JMIAZDVHNCCPDM-UHFFFAOYNA-N
Ontology: Indolizidines
COLLISIONENERGY: 10
FORMULA: C21H24N2O4
RETENTIONTIME: 4.387967
IONMODE: Negative
Comment: registered in RIKEN PlaSMA
Num Peaks: 3
209.09946	36
367.14276	35
367.16586	1000

NAME: Koumidine
PRECURSORMZ: 293.16593684783
PRECURSORTYPE: [M-H]-
INSTRUMENTTYPE: LC-ESI-QTOF
SMILES: CC=C1CN2C3CC4=C(NC5=CC=CC=C45)C2CC1C3CO
INCHIKEY: VXTDUGOBAOLMED-UHFFFAOYNA-N
Ontology: Macroline alkaloids
COLLISIONENERGY: 30
FORMULA: C19H22N2O
RETENTIONTIME: 3.582667
IONMODE: Negative
Comment: registered in RIKEN PlaSMA
Num Peaks: 18
92.04782	330
106.06452	275
155.05879	193
156.09657	220
157.08105	211
166.0621	193
167.05556	1000
167.06895	239
169.07387	523
180.06435	679
193.07806	202
194.09358	220
249.14944	239
263.14661	257
263.15671	413
264.14728	183
276.15207	257
293.15128	193

NAME: Mitraphylline
PRECURSORMZ: 367.16633084783
PRECURSORTYPE: [M-H]-
INSTRUMENTTYPE: LC-ESI-QTOF
SMILES: COC(=O)C1=COC(C)C2CN3CCC4(C3CC12)C(O)=NC1=CC=CC=C41
INCHIKEY: JMIAZDVHNCCPDM-UHFFFAOYNA-N
Ontology: Indolizidines
COLLISIONENERGY: 30
FORMULA: C21H24N2O4
RETENTIONTIME: 4.387967
IONMODE: Negative
Comment: registered in RIKEN PlaSMA
Num Peaks: 17
83.04985	109
94.02477	124
94.03262	109
122.0257	1000
123.02747	358
127.03812	114
127.04496	114
133.03947	104
148.07666	269
150.05544	109
176.07228	124
208.08972	104
208.1068	130
209.09061	93
229.13246	140
265.13205	104
279.08096	150

NAME: Koumidine
PRECURSORMZ: 293.16593684783
PRECURSORTYPE: [M-H]-
INSTRUMENTTYPE: LC-ESI-QTOF
SMILES: CC=C1CN2C3CC4=C(NC5=CC=CC=C45)C2CC1C3CO
INCHIKEY: VXTDUGOBAOLMED-UHFFFAOYNA-N
Ontology: Macroline alkaloids
COLLISIONENERGY: 50
FORMULA: C19H22N2O
RETENTIONTIME: 3.582667
IONMODE: Negative
Comment: registered in RIKEN PlaSMA
Num Peaks: 3
167.05742	1000
180.06258	349
230.08858	444

NAME: Mitraphylline
PRECURSORMZ: 367.16633084783
PRECURSORTYPE: [M-H]-
INSTRUMENTTYPE: LC-ESI-QTOF
SMILES: COC(=O)C1=COC(C)C2CN3CCC4(C3CC12)C(O)=NC1=CC=CC=C41
INCHIKEY: JMIAZDVHNCCPDM-UHFFFAOYNA-N
Ontology: Indolizidines
COLLISIONENERGY: 50
FORMULA: C21H24N2O4
RETENTIONTIME: 4.387967
IONMODE: Negative
Comment: registered in RIKEN PlaSMA
Num Peaks: 5
94.02521	797
127.03883	344
146.05472	312
152.03194	1000
154.04308	406

NAME: Koumidine
PRECURSORMZ: 293.16593684783
PRECURSORTYPE: [M-H]-
INSTRUMENTTYPE: LC-ESI-QTOF
SMILES: CC=C1CN2C3CC4=C(NC5=CC=CC=C45)C2CC1C3CO
INCHIKEY: VXTDUGOBAOLMED-UHFFFAOYNA-N
Ontology: Macroline alkaloids
COLLISIONENERGY: 10
FORMULA: C19H22N2O
RETENTIONTIME: 3.582667
IONMODE: Negative
Comment: registered in RIKEN PlaSMA
Num Peaks: 7
155.06819	65
168.06526	68
180.06448	190
247.12245	52
258.31183	70
263.15555	90
293.16571	1000

NAME: Mitraphylline
PRECURSORMZ: 367.16633084783
PRECURSORTYPE: [M-H]-
INSTRUMENTTYPE: LC-ESI-QTOF
SMILES: COC(=O)C1=COC(C)C2CN3CCC4(C3CC12)C(O)=NC1=CC=CC=C41
INCHIKEY: JMIAZDVHNCCPDM-UHFFFAOYNA-N
Ontology: Indolizidines
COLLISIONENERGY: 10
FORMULA: C21H24N2O4
RETENTIONTIME: 4.387967
IONMODE: Negative
Comment: registered in RIKEN PlaSMA
Num Peaks: 9
107.68291	59
122.0211	149
129.04001	50
141.04021	45
154.04858	62
176.08246	173
208.09775	71
208.10687	116
367.16818	1000

NAME: Koumidine
PRECURSORMZ: 293.16593684783
PRECURSORTYPE: [M-H]-
INSTRUMENTTYPE: LC-ESI-QTOF
SMILES: CC=C1CN2C3CC4=C(NC5=CC=CC=C45)C2CC1C3CO
INCHIKEY: VXTDUGOBAOLMED-UHFFFAOYNA-N
Ontology: Macroline alkaloids
COLLISIONENERGY: 10
FORMULA: C19H22N2O
RETENTIONTIME: 3.582667
IONMODE: Negative
Comment: registered in RIKEN PlaSMA
Num Peaks: 6
124.5901	20
142.06023	17
226.36687	16
263.14819	16
275.15778	16
293.16351	1000

NAME: Mitraphylline
PRECURSORMZ: 367.16633084783
PRECURSORTYPE: [M-H]-
INSTRUMENTTYPE: LC-ESI-QTOF
SMILES: COC(=O)C1=COC(C)C2CN3CCC4(C3CC12)C(O)=NC1=CC=CC=C41
INCHIKEY: JMIAZDVHNCCPDM-UHFFFAOYNA-N
Ontology: Indolizidines
COLLISIONENERGY: 10
FORMULA: C21H24N2O4
RETENTIONTIME: 4.387967
IONMODE: Negative
Comment: registered in RIKEN PlaSMA
Num Peaks: 9
154.05902	21
181.75876	20
208.09608	78
209.09686	25
210.09534	28
310.10934	29
335.14154	22
367.16629	1000
367.19443	43

NAME: Koumidine
PRECURSORMZ: 293.16593684783
PRECURSORTYPE: [M-H]-
INSTRUMENTTYPE: LC-ESI-QTOF
SMILES: CC=C1CN2C3CC4=C(NC5=CC=CC=C45)C2CC1C3CO
INCHIKEY: VXTDUGOBAOLMED-UHFFFAOYNA-N
Ontology: Macroline alkaloids
COLLISIONENERGY: 30
FORMULA: C19H22N2O
RETENTIONTIME: 3.582667
IONMODE: Negative
Comment: registered in RIKEN PlaSMA
Num Peaks: 12
121.08437	329
142.06923	228
143.0636	228
156.07893	772
166.07326	278
167.05145	241
167.06189	519
193.08147	316
233.11778	367
248.11665	519
263.15491	253
293.17157	1000

NAME: Mitraphylline
PRECURSORMZ: 367.16633084783
PRECURSORTYPE: [M-H]-
INSTRUMENTTYPE: LC-ESI-QTOF
SMILES: COC(=O)C1=COC(C)C2CN3CCC4(C3CC12)C(O)=NC1=CC=CC=C41
INCHIKEY: JMIAZDVHNCCPDM-UHFFFAOYNA-N
Ontology: Indolizidines
COLLISIONENERGY: 30
FORMULA: C21H24N2O4
RETENTIONTIME: 4.387967
IONMODE: Negative
Comment: registered in RIKEN PlaSMA
Num Peaks: 14
94.029	118
94.03357	61
122.02331	1000
127.03699	98
147.04166	78
152.02879	105
152.03877	68
174.06122	81
176.09142	84
208.09467	135
209.08089	71
209.10254	68
251.08174	68
367.15741	125

NAME: Koumidine
PRECURSORMZ: 293.16593684783
PRECURSORTYPE: [M-H]-
INSTRUMENTTYPE: LC-ESI-QTOF
SMILES: CC=C1CN2C3CC4=C(NC5=CC=CC=C45)C2CC1C3CO
INCHIKEY: VXTDUGOBAOLMED-UHFFFAOYNA-N
Ontology: Macroline alkaloids
COLLISIONENERGY: 50
FORMULA: C19H22N2O
RETENTIONTIME: 3.582667
IONMODE: Negative
Comment: registered in RIKEN PlaSMA
Num Peaks: 4
156.08511	422
166.06964	344
167.05502	1000
217.09435	375

NAME: Mitraphylline
PRECURSORMZ: 367.16633084783
PRECURSORTYPE: [M-H]-
INSTRUMENTTYPE: LC-ESI-QTOF
SMILES: COC(=O)C1=COC(C)C2CN3CCC4(C3CC12)C(O)=NC1=CC=CC=C41
INCHIKEY: JMIAZDVHNCCPDM-UHFFFAOYNA-N
Ontology: Indolizidines
COLLISIONENERGY: 50
FORMULA: C21H24N2O4
RETENTIONTIME: 4.387967
IONMODE: Negative
Comment: registered in RIKEN PlaSMA
Num Peaks: 6
67.01865	209
92.0075	255
94.02893	1000
100.64941	191
152.0311	518
152.04298	200

NAME: Hydroxygardnutine
PRECURSORMZ: 337.15576614783
PRECURSORTYPE: [M-H]-
INSTRUMENTTYPE: LC-ESI-QTOF
SMILES: COC1=CC2=C(C=C1)C1=C(N2)C2CC3C4COC1C4N2CC3=CCO
INCHIKEY: OUONWRIEOZGMSQ-UHFFFAOYNA-N
Ontology: Macroline alkaloids
COLLISIONENERGY: 10
FORMULA: C20H22N2O3
RETENTIONTIME: 3.605183
IONMODE: Negative
Comment: registered in RIKEN PlaSMA
Num Peaks: 93
92.04842	8
104.04639	9
120.05389	7
131.03769	15
157.04652	7
158.05342	10
158.06429	13
168.06833	29
170.06305	30
171.05907	15
171.06688	19
171.078	15
172.04289	7
172.07521	7
172.08171	9
182.03902	27
182.04608	40
182.05385	64
183.04352	12
183.05383	34
184.03476	11
184.062	7
186.05707	11
195.05101	11
195.06197	44
196.0103	7
196.06404	217
196.08693	7
197.07173	135
197.08296	44
198.0489	9
198.05771	7
199.04485	14
199.05461	9
199.07159	8
209.08183	7
210.04977	9
211.08997	14
212.06465	7
220.06857	11
223.06119	8
223.08868	8
235.08656	8
236.09245	10
236.10114	8
236.1599	7
246.07455	9
246.08424	11
247.0882	29
248.09718	20
248.1031	7
249.09866	22
249.10532	9
250.11388	8
255.10455	11
257.1123	7
261.09775	10
262.10391	8
263.12054	9
265.13129	7
266.11017	10
273.09161	11
274.11197	14
275.1048	7
276.12491	8
277.09375	17
278.10593	7
281.1282	11
281.59756	7
286.10245	9
286.92307	10
287.12662	7
291.11694	16
292.12112	7
293.12854	9
294.12949	11
294.14093	9
295.12695	23
295.13834	32
304.12503	15
307.13626	7
308.1424	7
308.15253	15
310.51083	8
319.12775	9
319.1524	10
321.07404	10
322.13168	342
323.12454	35
323.13779	56
323.15747	8
336.98413	7
337.15381	1000

NAME: Hydroxygardnutine
PRECURSORMZ: 383.16124545183
PRECURSORTYPE: [M+FA-H]-
INSTRUMENTTYPE: LC-ESI-QTOF
SMILES: COC1=CC2=C(C=C1)C1=C(N2)C2CC3C4COC1C4N2CC3=CCO
INCHIKEY: OUONWRIEOZGMSQ-UHFFFAOYNA-N
Ontology: Macroline alkaloids
COLLISIONENERGY: 10
FORMULA: C20H22N2O3
RETENTIONTIME: 3.605183
IONMODE: Negative
Comment: registered in RIKEN PlaSMA
Num Peaks: 21
75.54763	23
170.06064	22
181.05722	17
196.05824	19
196.06523	35
197.07176	97
198.0733	23
211.08658	23
248.09204	32
277.09256	22
277.11044	17
292.12659	23
294.14246	50
308.35001	19
309.1615	25
322.13315	172
323.13547	23
337.15616	1000
338.15768	261
338.1817	23
383.14841	26

NAME: Humantenine
PRECURSORMZ: 353.18706624783
PRECURSORTYPE: [M-H]-
INSTRUMENTTYPE: LC-ESI-QTOF
SMILES: CON1C(=O)C2(CC3C4COC2CC4C(CN3C)=CC)C2=CC=CC=C12
INCHIKEY: SJKRPUOXUNOPOP-UHFFFAOYNA-N
Ontology: Gelsemium alkaloids
COLLISIONENERGY: 10
FORMULA: C21H26N2O3
RETENTIONTIME: 5.43535
IONMODE: Negative
Comment: registered in RIKEN PlaSMA
Num Peaks: 16
75.0088	65
154.05769	111
158.60777	55
167.06009	129
167.069	77
169.07103	68
182.08311	80
206.09256	114
220.10664	83
233.11552	89
237.13754	102
261.13901	71
277.17157	1000
277.194	166
278.17975	77
353.18802	948

NAME: Hydroxygardnutine
PRECURSORMZ: 337.15576614783
PRECURSORTYPE: [M-H]-
INSTRUMENTTYPE: LC-ESI-QTOF
SMILES: COC1=CC2=C(C=C1)C1=C(N2)C2CC3C4COC1C4N2CC3=CCO
INCHIKEY: OUONWRIEOZGMSQ-UHFFFAOYNA-N
Ontology: Macroline alkaloids
COLLISIONENERGY: 10
FORMULA: C20H22N2O3
RETENTIONTIME: 3.605183
IONMODE: Negative
Comment: registered in RIKEN PlaSMA
Num Peaks: 9
197.06584	7
197.07469	6
199.06612	11
289.12143	5
291.14902	7
322.13037	33
323.12909	17
328.31699	5
337.15424	1000

NAME: Hydroxygardnutine
PRECURSORMZ: 383.16124545183
PRECURSORTYPE: [M+FA-H]-
INSTRUMENTTYPE: LC-ESI-QTOF
SMILES: COC1=CC2=C(C=C1)C1=C(N2)C2CC3C4COC1C4N2CC3=CCO
INCHIKEY: OUONWRIEOZGMSQ-UHFFFAOYNA-N
Ontology: Macroline alkaloids
COLLISIONENERGY: 10
FORMULA: C20H22N2O3
RETENTIONTIME: 3.605183
IONMODE: Negative
Comment: registered in RIKEN PlaSMA
Num Peaks: 5
266.81992	9
337.15347	1000
337.19208	9
338.15515	248
339.15842	20

NAME: Humantenine
PRECURSORMZ: 353.18706624783
PRECURSORTYPE: [M-H]-
INSTRUMENTTYPE: LC-ESI-QTOF
SMILES: CON1C(=O)C2(CC3C4COC2CC4C(CN3C)=CC)C2=CC=CC=C12
INCHIKEY: SJKRPUOXUNOPOP-UHFFFAOYNA-N
Ontology: Gelsemium alkaloids
COLLISIONENERGY: 10
FORMULA: C21H26N2O3
RETENTIONTIME: 5.43535
IONMODE: Negative
Comment: registered in RIKEN PlaSMA
Num Peaks: 5
234.13374	77
277.17099	576
278.16614	53
279.17755	32
353.18695	1000

NAME: Hydroxygardnutine
PRECURSORMZ: 337.15576614783
PRECURSORTYPE: [M-H]-
INSTRUMENTTYPE: LC-ESI-QTOF
SMILES: COC1=CC2=C(C=C1)C1=C(N2)C2CC3C4COC1C4N2CC3=CCO
INCHIKEY: OUONWRIEOZGMSQ-UHFFFAOYNA-N
Ontology: Macroline alkaloids
COLLISIONENERGY: 30
FORMULA: C20H22N2O3
RETENTIONTIME: 3.605183
IONMODE: Negative
Comment: registered in RIKEN PlaSMA
Num Peaks: 102
94.02929	14
104.05727	14
120.04266	16
121.05991	16
144.04546	11
156.02975	17
157.04521	14
158.0596	50
168.04111	14
168.06392	41
168.07253	13
169.03244	12
169.05354	21
170.05838	346
171.06676	96
171.07938	11
181.04958	38
181.05774	24
182.04666	335
182.06409	15
183.0475	87
183.05441	61
184.06902	16
184.07695	28
185.06259	18
195.0589	39
196.06261	1000
197.02861	12
197.05299	39
197.06816	282
197.31917	17
198.05171	87
198.06575	11
199.06062	199
200.0649	13
209.04605	14
209.07591	13
210.05573	20
210.09296	16
211.06474	23
212.06635	14
213.08144	13
223.08568	28
223.10493	11
224.06775	13
224.09145	14
225.07292	19
235.0854	26
236.09601	37
237.08156	18
246.08327	13
247.08809	66
248.08035	32
248.09485	55
249.0777	23
249.09644	37
249.10851	41
250.06516	16
250.07671	13
250.09636	14
250.2585	14
251.07208	16
251.10544	14
251.12135	13
259.09891	26
262.10291	11
263.09866	17
263.1185	101
265.11066	20
266.10458	90
266.12039	19
267.10641	40
273.10263	19
274.10507	78
275.11798	11
277.07602	16
277.10178	21
277.13821	44
278.09631	15
280.1275	12
289.10043	17
289.12555	16
290.09848	21
291.11823	33
292.12012	96
293.1235	66
293.13782	12
294.13116	141
294.1524	15
295.1293	16
296.14026	14
303.11432	47
305.13635	13
307.14673	13
321.11795	15
321.13156	33
322.12692	270
322.1376	114
322.17023	20
323.12335	16
323.13788	49
323.15616	20

NAME: Hydroxygardnutine
PRECURSORMZ: 383.16124545183
PRECURSORTYPE: [M+FA-H]-
INSTRUMENTTYPE: LC-ESI-QTOF
SMILES: COC1=CC2=C(C=C1)C1=C(N2)C2CC3C4COC1C4N2CC3=CCO
INCHIKEY: OUONWRIEOZGMSQ-UHFFFAOYNA-N
Ontology: Macroline alkaloids
COLLISIONENERGY: 30
FORMULA: C20H22N2O3
RETENTIONTIME: 3.605183
IONMODE: Negative
Comment: registered in RIKEN PlaSMA
Num Peaks: 39
104.04877	40
132.95169	36
171.06453	36
171.07178	71
183.1367	72
196.05945	83
196.06783	43
197.06953	162
198.05614	60
198.06779	74
199.06059	72
199.07462	50
211.08261	48
214.08755	33
216.09258	55
222.08514	36
234.06824	34
236.10426	55
248.09618	57
249.09007	53
249.0994	36
252.09042	60
263.11853	43
266.09369	45
267.10886	48
277.09033	31
279.0993	43
279.11816	93
290.10443	40
291.1564	36
294.13837	31
295.12958	43
322.13242	1000
322.16998	43
323.12546	74
323.1452	81
337.1384	45
337.15695	408
338.15933	151

NAME: Humantenine
PRECURSORMZ: 353.18706624783
PRECURSORTYPE: [M-H]-
INSTRUMENTTYPE: LC-ESI-QTOF
SMILES: CON1C(=O)C2(CC3C4COC2CC4C(CN3C)=CC)C2=CC=CC=C12
INCHIKEY: SJKRPUOXUNOPOP-UHFFFAOYNA-N
Ontology: Gelsemium alkaloids
COLLISIONENERGY: 30
FORMULA: C21H26N2O3
RETENTIONTIME: 5.43535
IONMODE: Negative
Comment: registered in RIKEN PlaSMA
Num Peaks: 8
167.05728	400
169.07529	379
182.08693	108
217.07202	262
220.10568	123
263.13461	92
277.1694	1000
277.1915	108

NAME: Hydroxygardnutine
PRECURSORMZ: 337.15576614783
PRECURSORTYPE: [M-H]-
INSTRUMENTTYPE: LC-ESI-QTOF
SMILES: COC1=CC2=C(C=C1)C1=C(N2)C2CC3C4COC1C4N2CC3=CCO
INCHIKEY: OUONWRIEOZGMSQ-UHFFFAOYNA-N
Ontology: Macroline alkaloids
COLLISIONENERGY: 50
FORMULA: C20H22N2O3
RETENTIONTIME: 3.605183
IONMODE: Negative
Comment: registered in RIKEN PlaSMA
Num Peaks: 54
128.04788	72
129.03632	94
143.04649	134
144.04604	108
145.04106	101
154.05527	76
155.05354	69
166.06706	69
168.06178	242
168.07069	264
169.04132	155
169.05005	76
169.07642	76
170.0441	65
170.06122	390
170.94083	72
171.06955	173
172.05734	76
182.04823	1000
182.06841	87
183.04216	159
183.05431	563
183.06299	119
186.04608	79
194.0591	170
195.05037	137
195.05986	79
196.05753	347
196.06924	361
197.05811	166
198.06035	227
205.07796	101
206.04752	87
210.05312	72
220.07684	79
221.05862	72
221.07419	116
222.05281	69
232.05629	76
232.07355	83
234.07292	267
235.08264	76
236.07068	97
245.06413	130
246.07457	69
248.09003	72
248.09961	112
260.09085	76
261.06372	97
261.10434	87
272.09302	76
279.11124	76
286.11331	72
291.12131	90

NAME: Hydroxygardnutine
PRECURSORMZ: 383.16124545183
PRECURSORTYPE: [M+FA-H]-
INSTRUMENTTYPE: LC-ESI-QTOF
SMILES: COC1=CC2=C(C=C1)C1=C(N2)C2CC3C4COC1C4N2CC3=CCO
INCHIKEY: OUONWRIEOZGMSQ-UHFFFAOYNA-N
Ontology: Macroline alkaloids
COLLISIONENERGY: 50
FORMULA: C20H22N2O3
RETENTIONTIME: 3.605183
IONMODE: Negative
Comment: registered in RIKEN PlaSMA
Num Peaks: 17
130.03111	117
142.02905	292
168.06851	156
169.06917	156
181.05449	136
182.04161	487
183.05244	149
195.06328	175
196.06175	1000
198.04695	117
218.05426	136
233.07079	136
247.08452	409
250.08852	149
266.12045	156
290.09937	149
294.1062	156

NAME: Humantenine
PRECURSORMZ: 353.18706624783
PRECURSORTYPE: [M-H]-
INSTRUMENTTYPE: LC-ESI-QTOF
SMILES: CON1C(=O)C2(CC3C4COC2CC4C(CN3C)=CC)C2=CC=CC=C12
INCHIKEY: SJKRPUOXUNOPOP-UHFFFAOYNA-N
Ontology: Gelsemium alkaloids
COLLISIONENERGY: 50
FORMULA: C21H26N2O3
RETENTIONTIME: 5.43535
IONMODE: Negative
Comment: registered in RIKEN PlaSMA
Num Peaks: 10
125.05795	143
140.056	254
142.06586	1000
180.07133	159
193.07465	143
221.10266	143
231.08104	143
232.10271	151
232.12263	262
235.11775	262

NAME: Hydroxygardnutine
PRECURSORMZ: 337.15576614783
PRECURSORTYPE: [M-H]-
INSTRUMENTTYPE: LC-ESI-QTOF
SMILES: COC1=CC2=C(C=C1)C1=C(N2)C2CC3C4COC1C4N2CC3=CCO
INCHIKEY: OUONWRIEOZGMSQ-UHFFFAOYNA-N
Ontology: Macroline alkaloids
COLLISIONENERGY: 10
FORMULA: C20H22N2O3
RETENTIONTIME: 3.605183
IONMODE: Negative
Comment: registered in RIKEN PlaSMA
Num Peaks: 96
83.04696	9
145.05118	17
153.06316	14
168.06984	37
169.04659	9
169.056	9
169.08037	11
170.06435	58
171.07373	9
181.07072	15
182.04918	46
183.04503	15
183.05182	35
184.06902	6
189.97952	13
195.05205	15
196.06189	181
196.07558	24
197.05769	50
197.0721	16
198.05432	42
198.07767	31
199.05829	26
200.06136	16
205.0705	12
209.05161	7
210.04747	9
210.06552	11
211.07687	6
211.09555	9
220.06369	11
220.07234	9
222.09935	12
224.07787	6
225.07765	9
233.06628	9
235.06529	10
236.06157	8
236.08624	10
236.1032	24
237.06535	15
237.07318	6
237.10477	6
246.07544	7
248.09579	11
249.10025	16
249.10995	25
250.10191	8
251.07428	7
258.1265	7
259.08258	8
261.10825	16
263.11768	11
263.12839	9
264.12332	9
264.13727	6
265.13773	10
266.1069	6
267.11151	15
274.10226	28
275.11429	16
276.10892	10
276.12857	8
278.09225	7
279.15329	7
280.10889	14
281.12424	13
282.14191	7
286.11566	8
289.12814	13
289.14465	9
290.12894	9
291.11472	7
292.10568	12
292.12384	40
292.14142	7
293.08017	10
294.1384	28
295.13782	6
296.14612	8
299.81378	14
304.11041	9
307.1362	17
308.15439	8
319.13922	19
319.14688	10
322.12897	353
322.15756	9
323.12704	81
323.14899	18
324.13556	16
326.01361	6
337.10083	10
337.15442	1000
337.18362	9
337.21014	13

NAME: Hydroxygardnutine
PRECURSORMZ: 383.16124545183
PRECURSORTYPE: [M+FA-H]-
INSTRUMENTTYPE: LC-ESI-QTOF
SMILES: COC1=CC2=C(C=C1)C1=C(N2)C2CC3C4COC1C4N2CC3=CCO
INCHIKEY: OUONWRIEOZGMSQ-UHFFFAOYNA-N
Ontology: Macroline alkaloids
COLLISIONENERGY: 10
FORMULA: C20H22N2O3
RETENTIONTIME: 3.605183
IONMODE: Negative
Comment: registered in RIKEN PlaSMA
Num Peaks: 22
169.0585	20
181.05779	17
184.06099	23
196.05586	30
196.06596	40
197.06883	69
205.73129	22
246.6124	23
249.09871	19
259.08258	21
266.09427	19
278.11636	21
291.1058	18
294.13696	19
322.12396	83
322.1347	75
335.80283	21
337.15646	1000
338.13861	16
338.15991	105
338.18585	20
339.15881	21

NAME: Humantenine
PRECURSORMZ: 353.18706624783
PRECURSORTYPE: [M-H]-
INSTRUMENTTYPE: LC-ESI-QTOF
SMILES: CON1C(=O)C2(CC3C4COC2CC4C(CN3C)=CC)C2=CC=CC=C12
INCHIKEY: SJKRPUOXUNOPOP-UHFFFAOYNA-N
Ontology: Gelsemium alkaloids
COLLISIONENERGY: 10
FORMULA: C21H26N2O3
RETENTIONTIME: 5.43535
IONMODE: Negative
Comment: registered in RIKEN PlaSMA
Num Peaks: 10
119.0877	46
142.06258	115
169.07831	61
194.09705	90
221.10454	61
234.1368	73
277.16809	1000
278.17407	322
353.16168	61
353.18927	298

NAME: Hydroxygardnutine
PRECURSORMZ: 337.15576614783
PRECURSORTYPE: [M-H]-
INSTRUMENTTYPE: LC-ESI-QTOF
SMILES: COC1=CC2=C(C=C1)C1=C(N2)C2CC3C4COC1C4N2CC3=CCO
INCHIKEY: OUONWRIEOZGMSQ-UHFFFAOYNA-N
Ontology: Macroline alkaloids
COLLISIONENERGY: 10
FORMULA: C20H22N2O3
RETENTIONTIME: 3.605183
IONMODE: Negative
Comment: registered in RIKEN PlaSMA
Num Peaks: 5
197.06992	23
298.44028	5
322.1333	54
323.13934	18
337.15482	1000

NAME: Hydroxygardnutine
PRECURSORMZ: 383.16124545183
PRECURSORTYPE: [M+FA-H]-
INSTRUMENTTYPE: LC-ESI-QTOF
SMILES: COC1=CC2=C(C=C1)C1=C(N2)C2CC3C4COC1C4N2CC3=CCO
INCHIKEY: OUONWRIEOZGMSQ-UHFFFAOYNA-N
Ontology: Macroline alkaloids
COLLISIONENERGY: 10
FORMULA: C20H22N2O3
RETENTIONTIME: 3.605183
IONMODE: Negative
Comment: registered in RIKEN PlaSMA
Num Peaks: 10
222.02002	8
337.15427	1000
337.18845	16
338.10986	8
338.14865	83
338.16364	108
338.53958	9
339.13437	8
339.15417	30
382.14932	11

NAME: Humantenine
PRECURSORMZ: 353.18706624783
PRECURSORTYPE: [M-H]-
INSTRUMENTTYPE: LC-ESI-QTOF
SMILES: CON1C(=O)C2(CC3C4COC2CC4C(CN3C)=CC)C2=CC=CC=C12
INCHIKEY: SJKRPUOXUNOPOP-UHFFFAOYNA-N
Ontology: Gelsemium alkaloids
COLLISIONENERGY: 10
FORMULA: C21H26N2O3
RETENTIONTIME: 5.43535
IONMODE: Negative
Comment: registered in RIKEN PlaSMA
Num Peaks: 4
277.16971	220
278.16754	68
321.14627	31
353.18121	1000

NAME: Hydroxygardnutine
PRECURSORMZ: 337.15576614783
PRECURSORTYPE: [M-H]-
INSTRUMENTTYPE: LC-ESI-QTOF
SMILES: COC1=CC2=C(C=C1)C1=C(N2)C2CC3C4COC1C4N2CC3=CCO
INCHIKEY: OUONWRIEOZGMSQ-UHFFFAOYNA-N
Ontology: Macroline alkaloids
COLLISIONENERGY: 30
FORMULA: C20H22N2O3
RETENTIONTIME: 3.605183
IONMODE: Negative
Comment: registered in RIKEN PlaSMA
Num Peaks: 130
97.09406	14
103.08514	47
104.04549	22
122.05588	16
122.20367	14
128.36714	20
132.0415	14
136.03644	14
138.05156	14
138.05841	20
144.03526	13
145.05136	16
156.63327	16
157.04614	27
157.05687	20
168.06133	27
168.07082	68
169.07387	20
170.05611	28
170.06563	22
170.07315	14
171.05508	18
171.06346	101
171.07275	30
172.07468	14
173.05675	39
173.07291	14
181.05624	76
181.06398	16
182.02847	17
182.04866	416
182.07068	25
183.05255	169
184.06537	14
184.07596	12
194.06898	16
195.05016	40
195.05809	82
195.07288	29
196.03287	19
196.06323	1000
197.04143	12
197.05862	22
197.06999	173
198.05751	114
198.07381	42
199.06146	200
199.07335	37
200.06532	14
207.06674	14
209.07088	17
210.05354	63
210.0728	18
211.05125	22
211.08385	16
221.06711	14
222.08575	13
223.0773	20
223.08546	21
224.06798	16
224.33951	18
225.0665	25
233.07338	14
234.07483	14
234.09346	14
235.05452	12
235.09125	41
236.09346	48
237.07574	14
237.11191	14
238.09256	16
245.07558	16
246.0827	12
247.06766	14
247.09651	44
248.08791	35
248.0988	82
248.12466	44
249.05756	16
249.08989	34
249.10519	39
250.08565	18
250.1098	13
251.09669	14
251.12497	22
254.11284	20
259.08752	22
259.12082	18
260.08652	24
261.10281	31
262.87921	16
263.11124	33
264.12689	13
265.10541	37
265.1156	18
266.09467	14
266.10526	54
266.75269	16
267.10492	27
273.10175	14
274.11639	14
275.09726	14
275.11102	34
275.12054	49
278.10699	29
279.11322	12
286.11929	20
291.10754	65
292.11447	37
292.12341	95
292.16446	14
293.10364	28
293.11453	27
293.12689	20
294.13123	139
295.14798	13
296.14487	18
296.78299	14
303.11197	14
304.11072	16
305.13382	16
320.14166	13
320.15137	29
321.11642	44
322.12988	438
323.13693	61
323.45554	14
324.1329	44
328.60278	12
337.17355	32

NAME: Hydroxygardnutine
PRECURSORMZ: 383.16124545183
PRECURSORTYPE: [M+FA-H]-
INSTRUMENTTYPE: LC-ESI-QTOF
SMILES: COC1=CC2=C(C=C1)C1=C(N2)C2CC3C4COC1C4N2CC3=CCO
INCHIKEY: OUONWRIEOZGMSQ-UHFFFAOYNA-N
Ontology: Macroline alkaloids
COLLISIONENERGY: 30
FORMULA: C20H22N2O3
RETENTIONTIME: 3.605183
IONMODE: Negative
Comment: registered in RIKEN PlaSMA
Num Peaks: 23
171.06583	92
171.07632	40
194.07344	45
196.06268	252
197.07724	227
199.0582	139
211.09393	45
249.1006	45
263.12262	43
274.11337	54
275.1246	47
276.13107	47
286.10422	83
289.12772	90
291.11127	72
294.14395	117
308.15451	58
322.13315	1000
323.14087	110
325.12994	56
337.14651	209
337.16425	106
338.15329	103

NAME: Humantenine
PRECURSORMZ: 353.18706624783
PRECURSORTYPE: [M-H]-
INSTRUMENTTYPE: LC-ESI-QTOF
SMILES: CON1C(=O)C2(CC3C4COC2CC4C(CN3C)=CC)C2=CC=CC=C12
INCHIKEY: SJKRPUOXUNOPOP-UHFFFAOYNA-N
Ontology: Gelsemium alkaloids
COLLISIONENERGY: 30
FORMULA: C21H26N2O3
RETENTIONTIME: 5.43535
IONMODE: Negative
Comment: registered in RIKEN PlaSMA
Num Peaks: 13
139.88145	98
142.06535	119
155.06752	206
170.07153	103
222.10223	134
222.13104	186
223.12726	119
233.1042	103
234.11603	108
234.1412	108
250.15515	129
277.17169	1000
278.17303	211

NAME: Hydroxygardnutine
PRECURSORMZ: 337.15576614783
PRECURSORTYPE: [M-H]-
INSTRUMENTTYPE: LC-ESI-QTOF
SMILES: COC1=CC2=C(C=C1)C1=C(N2)C2CC3C4COC1C4N2CC3=CCO
INCHIKEY: OUONWRIEOZGMSQ-UHFFFAOYNA-N
Ontology: Macroline alkaloids
COLLISIONENERGY: 50
FORMULA: C20H22N2O3
RETENTIONTIME: 3.605183
IONMODE: Negative
Comment: registered in RIKEN PlaSMA
Num Peaks: 50
103.05131	59
131.03716	71
142.02733	56
144.0468	149
153.05547	51
154.05247	56
154.06374	73
155.05319	44
155.06027	49
168.07072	494
169.04822	127
169.07936	49
170.045	66
170.05957	125
182.04411	1000
182.06348	159
183.05081	230
183.06129	122
183.63972	44
184.07449	44
194.05696	83
195.0558	232
196.06017	345
196.06969	218
197.0719	61
198.05606	122
198.70174	49
199.05345	73
206.05331	56
206.06767	61
208.06339	100
208.07259	78
208.10883	71
218.05794	44
219.06085	44
221.07793	46
222.07158	144
233.07408	232
234.07297	46
234.0885	66
235.08917	49
235.10213	56
243.06413	59
246.07034	49
247.07474	88
247.08818	159
248.08713	132
258.08014	174
259.08414	49
264.12512	49

NAME: Hydroxygardnutine
PRECURSORMZ: 383.16124545183
PRECURSORTYPE: [M+FA-H]-
INSTRUMENTTYPE: LC-ESI-QTOF
SMILES: COC1=CC2=C(C=C1)C1=C(N2)C2CC3C4COC1C4N2CC3=CCO
INCHIKEY: OUONWRIEOZGMSQ-UHFFFAOYNA-N
Ontology: Macroline alkaloids
COLLISIONENERGY: 50
FORMULA: C20H22N2O3
RETENTIONTIME: 3.605183
IONMODE: Negative
Comment: registered in RIKEN PlaSMA
Num Peaks: 10
144.03903	176
168.06975	154
170.06322	390
182.05138	132
196.06146	1000
219.05756	162
221.07516	272
247.07251	154
247.10493	191
248.09695	235

NAME: Humantenine
PRECURSORMZ: 353.18706624783
PRECURSORTYPE: [M-H]-
INSTRUMENTTYPE: LC-ESI-QTOF
SMILES: CON1C(=O)C2(CC3C4COC2CC4C(CN3C)=CC)C2=CC=CC=C12
INCHIKEY: SJKRPUOXUNOPOP-UHFFFAOYNA-N
Ontology: Gelsemium alkaloids
COLLISIONENERGY: 50
FORMULA: C21H26N2O3
RETENTIONTIME: 5.43535
IONMODE: Negative
Comment: registered in RIKEN PlaSMA
Num Peaks: 9
102.90169	231
142.06078	1000
142.06953	198
169.07635	670
170.08026	330
193.09047	308
206.12891	242
218.08417	209
219.10162	253

NAME: Hydroxygardnutine
PRECURSORMZ: 337.15576614783
PRECURSORTYPE: [M-H]-
INSTRUMENTTYPE: LC-ESI-QTOF
SMILES: COC1=CC2=C(C=C1)C1=C(N2)C2CC3C4COC1C4N2CC3=CCO
INCHIKEY: OUONWRIEOZGMSQ-UHFFFAOYNA-N
Ontology: Macroline alkaloids
COLLISIONENERGY: 10
FORMULA: C20H22N2O3
RETENTIONTIME: 3.605183
IONMODE: Negative
Comment: registered in RIKEN PlaSMA
Num Peaks: 114
95.05071	11
99.93448	7
109.07423	10
122.06152	14
123.06197	10
142.80238	7
149.32896	7
154.05385	7
157.05159	18
159.05495	8
168.04617	22
168.07199	7
170.0533	39
171.06645	27
181.05157	22
182.04288	40
182.05367	30
182.06508	27
183.04591	13
183.05705	34
184.05917	13
186.09	10
195.04901	6
195.0647	23
196.06174	218
197.03938	7
197.06995	174
197.08809	8
198.04471	10
198.07689	15
199.06282	37
200.06155	14
200.09326	8
209.05194	8
210.04576	14
210.07388	31
211.0569	8
211.08949	30
212.08646	6
212.53043	6
214.08278	21
219.0817	7
222.0713	7
233.07227	9
234.07893	21
234.09546	6
235.0793	13
236.08507	11
236.09579	11
236.11012	10
246.07085	7
247.08011	9
248.0546	8
248.08237	17
248.10149	8
249.10391	24
250.10347	20
251.11496	8
251.1275	14
253.09265	9
257.05637	7
257.12219	9
260.08722	6
262.10706	8
263.07538	6
263.09433	6
263.10788	14
265.09918	6
266.09979	32
266.11221	7
267.07047	6
267.10831	17
273.11789	7
274.11423	10
275.11856	16
276.11578	7
277.10046	7
278.099	9
279.1185	21
280.11942	7
281.12897	8
282.13275	13
286.10605	10
287.13	6
288.11545	6
289.13974	17
290.12427	7
291.11386	7
291.14142	7
292.12341	14
293.09473	8
293.11438	24
293.13651	31
294.12311	9
294.13647	30
295.14212	10
296.15561	8
301.12921	12
303.1109	6
304.11752	6
307.14087	19
307.15179	9
308.13922	9
308.15302	7
309.06241	9
309.16681	7
321.13327	10
322.01559	7
322.13138	355
322.36032	15
322.45245	7
323.1315	66
337.1109	11
337.15555	1000

NAME: Hydroxygardnutine
PRECURSORMZ: 383.16124545183
PRECURSORTYPE: [M+FA-H]-
INSTRUMENTTYPE: LC-ESI-QTOF
SMILES: COC1=CC2=C(C=C1)C1=C(N2)C2CC3C4COC1C4N2CC3=CCO
INCHIKEY: OUONWRIEOZGMSQ-UHFFFAOYNA-N
Ontology: Macroline alkaloids
COLLISIONENERGY: 10
FORMULA: C20H22N2O3
RETENTIONTIME: 3.605183
IONMODE: Negative
Comment: registered in RIKEN PlaSMA
Num Peaks: 29
139.07286	16
170.05978	44
182.03972	15
196.06381	69
196.07443	21
197.069	13
197.07898	13
198.05211	13
198.07159	17
199.06055	30
211.10278	22
237.07472	18
253.09856	13
263.12106	14
267.12292	25
276.12723	15
295.14548	13
307.13516	19
322.11578	15
322.12997	34
323.12939	16
337.12341	18
337.15634	1000
337.18631	18
338.13916	13
338.1601	119
338.1767	24
339.14453	15
339.15414	48

NAME: Humantenine
PRECURSORMZ: 353.18706624783
PRECURSORTYPE: [M-H]-
INSTRUMENTTYPE: LC-ESI-QTOF
SMILES: CON1C(=O)C2(CC3C4COC2CC4C(CN3C)=CC)C2=CC=CC=C12
INCHIKEY: SJKRPUOXUNOPOP-UHFFFAOYNA-N
Ontology: Gelsemium alkaloids
COLLISIONENERGY: 10
FORMULA: C21H26N2O3
RETENTIONTIME: 5.43535
IONMODE: Negative
Comment: registered in RIKEN PlaSMA
Num Peaks: 18
116.04662	33
143.06599	56
150.0506	30
150.06123	46
167.06088	30
169.08054	30
209.10785	45
220.10622	89
221.10381	43
233.10916	31
247.11761	40
262.14474	38
277.17072	1000
278.17072	175
279.13635	50
279.16718	36
321.17245	35
353.18448	342

NAME: Hydroxygardnutine
PRECURSORMZ: 337.15576614783
PRECURSORTYPE: [M-H]-
INSTRUMENTTYPE: LC-ESI-QTOF
SMILES: COC1=CC2=C(C=C1)C1=C(N2)C2CC3C4COC1C4N2CC3=CCO
INCHIKEY: OUONWRIEOZGMSQ-UHFFFAOYNA-N
Ontology: Macroline alkaloids
COLLISIONENERGY: 10
FORMULA: C20H22N2O3
RETENTIONTIME: 3.605183
IONMODE: Negative
Comment: registered in RIKEN PlaSMA
Num Peaks: 9
197.07173	8
197.08318	9
198.07132	6
198.08438	5
305.13815	7
322.1347	79
323.12732	5
323.14258	6
337.15594	1000

NAME: Hydroxygardnutine
PRECURSORMZ: 383.16124545183
PRECURSORTYPE: [M+FA-H]-
INSTRUMENTTYPE: LC-ESI-QTOF
SMILES: COC1=CC2=C(C=C1)C1=C(N2)C2CC3C4COC1C4N2CC3=CCO
INCHIKEY: OUONWRIEOZGMSQ-UHFFFAOYNA-N
Ontology: Macroline alkaloids
COLLISIONENERGY: 10
FORMULA: C20H22N2O3
RETENTIONTIME: 3.605183
IONMODE: Negative
Comment: registered in RIKEN PlaSMA
Num Peaks: 6
337.15497	1000
338.15714	210
338.18585	12
339.16418	40
382.97986	6
383.15866	17

NAME: Humantenine
PRECURSORMZ: 353.18706624783
PRECURSORTYPE: [M-H]-
INSTRUMENTTYPE: LC-ESI-QTOF
SMILES: CON1C(=O)C2(CC3C4COC2CC4C(CN3C)=CC)C2=CC=CC=C12
INCHIKEY: SJKRPUOXUNOPOP-UHFFFAOYNA-N
Ontology: Gelsemium alkaloids
COLLISIONENERGY: 10
FORMULA: C21H26N2O3
RETENTIONTIME: 5.43535
IONMODE: Negative
Comment: registered in RIKEN PlaSMA
Num Peaks: 7
146.64886	33
277.16989	197
278.16736	40
278.18314	18
312.60327	21
321.16333	53
353.1882	1000

NAME: Hydroxygardnutine
PRECURSORMZ: 337.15576614783
PRECURSORTYPE: [M-H]-
INSTRUMENTTYPE: LC-ESI-QTOF
SMILES: COC1=CC2=C(C=C1)C1=C(N2)C2CC3C4COC1C4N2CC3=CCO
INCHIKEY: OUONWRIEOZGMSQ-UHFFFAOYNA-N
Ontology: Macroline alkaloids
COLLISIONENERGY: 30
FORMULA: C20H22N2O3
RETENTIONTIME: 3.605183
IONMODE: Negative
Comment: registered in RIKEN PlaSMA
Num Peaks: 125
107.04189	21
118.73746	17
122.05614	13
131.03377	27
143.02858	11
144.04805	19
145.04855	16
150.98407	20
153.06012	12
154.04735	11
168.06331	12
168.078	53
169.045	28
170.06227	326
171.05566	29
171.06371	81
172.07278	48
181.05409	88
182.04526	172
182.05441	146
183.04253	37
183.05302	168
183.06665	15
184.06165	52
195.05493	152
196.04514	22
196.06238	1000
196.0851	13
196.09846	12
197.05481	16
197.06927	288
197.07845	72
198.05435	48
198.07755	14
199.05591	165
199.0706	77
199.08922	12
199.92595	16
200.07388	39
209.05788	31
210.05443	14
210.06274	12
211.05965	12
211.08525	20
212.06386	24
212.07883	15
212.0985	27
214.0816	21
221.07812	26
222.07336	13
223.08163	12
223.09045	14
224.07098	14
233.08548	18
234.06857	38
234.07808	33
235.08791	31
235.09848	11
236.07065	24
236.09015	57
237.06801	12
237.1048	11
238.10428	13
247.06779	27
247.09709	16
248.07004	14
248.09123	147
248.10522	58
249.09317	36
249.10008	93
250.07205	11
250.10478	16
251.07658	12
251.11852	20
252.10609	19
253.09285	15
258.0733	17
258.0863	16
259.09311	26
260.08759	13
261.1008	55
261.10999	14
263.11301	85
264.09549	28
264.1217	46
264.13351	13
264.69885	11
265.08667	16
266.095	26
266.10782	80
267.11826	31
273.05606	17
273.10614	43
274.06931	17
274.10172	29
274.11624	50
275.11337	24
276.07343	12
276.08267	11
277.12579	12
278.10229	14
278.13477	30
279.11172	17
280.134	11
289.08029	14
289.09372	21
289.14056	28
291.1283	24
292.12228	63
293.13153	12
294.13553	147
295.11316	12
296.14856	12
302.11499	11
303.10327	39
319.14529	12
320.14496	24
321.11548	17
322.12286	97
322.13321	366
323.12466	84
323.14008	102
323.15381	12
325.13254	12
337.15149	50

NAME: Hydroxygardnutine
PRECURSORMZ: 383.16124545183
PRECURSORTYPE: [M+FA-H]-
INSTRUMENTTYPE: LC-ESI-QTOF
SMILES: COC1=CC2=C(C=C1)C1=C(N2)C2CC3C4COC1C4N2CC3=CCO
INCHIKEY: OUONWRIEOZGMSQ-UHFFFAOYNA-N
Ontology: Macroline alkaloids
COLLISIONENERGY: 30
FORMULA: C20H22N2O3
RETENTIONTIME: 3.605183
IONMODE: Negative
Comment: registered in RIKEN PlaSMA
Num Peaks: 44
120.04081	30
120.05004	43
134.02299	39
182.05344	29
186.08441	51
194.05412	41
196.06213	146
196.07648	26
197.06581	187
197.0753	121
198.05769	57
199.06218	138
215.09651	43
223.08888	39
232.05188	36
238.1033	27
247.10129	41
248.09378	41
248.10818	33
249.10017	27
251.11861	39
263.11462	50
264.11627	33
264.12692	27
265.10327	29
266.11096	37
275.12076	57
278.10577	39
286.10144	44
292.11026	29
294.13455	100
305.12628	30
308.15063	39
308.41998	31
320.10425	34
322.12939	1000
323.13474	137
324.13754	31
337.1431	255
337.16577	81
337.17676	36
338.15662	26
339.15814	31
339.26376	27

NAME: Humantenine
PRECURSORMZ: 353.18706624783
PRECURSORTYPE: [M-H]-
INSTRUMENTTYPE: LC-ESI-QTOF
SMILES: CON1C(=O)C2(CC3C4COC2CC4C(CN3C)=CC)C2=CC=CC=C12
INCHIKEY: SJKRPUOXUNOPOP-UHFFFAOYNA-N
Ontology: Gelsemium alkaloids
COLLISIONENERGY: 30
FORMULA: C21H26N2O3
RETENTIONTIME: 5.43535
IONMODE: Negative
Comment: registered in RIKEN PlaSMA
Num Peaks: 21
116.04271	175
120.3989	95
142.06743	280
150.06039	85
156.0797	137
167.05795	190
169.07893	318
179.06711	152
180.07251	180
182.09358	90
183.09013	128
220.11815	175
221.11084	242
234.10635	118
235.13086	133
248.13326	95
273.13733	90
277.1644	1000
277.17673	190
278.15671	95
278.1774	412

NAME: Hydroxygardnutine
PRECURSORMZ: 337.15576614783
PRECURSORTYPE: [M-H]-
INSTRUMENTTYPE: LC-ESI-QTOF
SMILES: COC1=CC2=C(C=C1)C1=C(N2)C2CC3C4COC1C4N2CC3=CCO
INCHIKEY: OUONWRIEOZGMSQ-UHFFFAOYNA-N
Ontology: Macroline alkaloids
COLLISIONENERGY: 50
FORMULA: C20H22N2O3
RETENTIONTIME: 3.605183
IONMODE: Negative
Comment: registered in RIKEN PlaSMA
Num Peaks: 66
105.02459	52
129.03296	54
131.03291	70
140.04469	46
142.07056	93
143.05693	103
144.05186	183
152.13443	67
154.05276	64
155.05638	139
156.04544	82
158.05978	88
167.06116	54
168.03989	70
168.05286	67
168.06662	271
169.04361	165
169.05414	111
170.06088	742
171.06258	106
178.07019	93
181.04329	70
181.06816	119
182.0491	1000
183.05222	340
183.06258	188
194.06572	131
194.08487	72
195.05368	235
196.06152	536
196.07443	80
197.04625	62
197.07346	57
198.0535	139
199.05115	52
206.06461	54
208.0587	119
209.06812	77
209.07793	77
219.05986	77
219.09705	46
220.07065	98
221.08952	57
232.04947	52
232.06516	85
233.06322	49
233.07132	147
234.07452	265
235.08275	255
246.08424	106
246.09442	52
247.08508	52
248.08717	70
249.06378	64
249.09671	116
257.07748	72
259.09323	113
262.0838	75
262.09784	57
264.10754	111
273.08017	59
275.07483	57
276.08102	54
277.11801	64
291.04312	72
293.12817	46

NAME: Hydroxygardnutine
PRECURSORMZ: 383.16124545183
PRECURSORTYPE: [M+FA-H]-
INSTRUMENTTYPE: LC-ESI-QTOF
SMILES: COC1=CC2=C(C=C1)C1=C(N2)C2CC3C4COC1C4N2CC3=CCO
INCHIKEY: OUONWRIEOZGMSQ-UHFFFAOYNA-N
Ontology: Macroline alkaloids
COLLISIONENERGY: 50
FORMULA: C20H22N2O3
RETENTIONTIME: 3.605183
IONMODE: Negative
Comment: registered in RIKEN PlaSMA
Num Peaks: 27
122.05659	265
132.4986	542
136.6702	265
145.05595	313
168.06549	434
169.04562	253
170.0583	1000
171.0647	699
181.05145	578
182.04541	313
184.03543	217
195.05421	434
196.06117	241
199.08551	229
207.07481	325
220.06152	337
221.08186	301
233.09242	361
246.08153	253
248.08554	313
248.10004	241
257.07477	265
259.08957	602
261.09476	337
262.10449	410
264.12851	446
292.1236	241

NAME: Humantenine
PRECURSORMZ: 353.18706624783
PRECURSORTYPE: [M-H]-
INSTRUMENTTYPE: LC-ESI-QTOF
SMILES: CON1C(=O)C2(CC3C4COC2CC4C(CN3C)=CC)C2=CC=CC=C12
INCHIKEY: SJKRPUOXUNOPOP-UHFFFAOYNA-N
Ontology: Gelsemium alkaloids
COLLISIONENERGY: 50
FORMULA: C21H26N2O3
RETENTIONTIME: 5.43535
IONMODE: Negative
Comment: registered in RIKEN PlaSMA
Num Peaks: 15
93.05018	375
141.04514	295
142.06659	1000
154.06557	239
167.06499	273
169.06992	227
169.08308	364
170.07956	273
170.08856	330
204.07571	250
205.08929	216
206.08243	523
218.09467	227
232.10844	239
234.13203	307

NAME: Lyalosidic acid
PRECURSORMZ: 511.17220404783
PRECURSORTYPE: [M-H]-
INSTRUMENTTYPE: LC-ESI-QTOF
SMILES: OCC1OC(OC2OC=C(C(CC3=NC=CC4=C3NC3=CC=CC=C43)C2C=C)C(O)=O)C(O)C(O)C1O
INCHIKEY: UZLBTLIRYSYTRG-UHFFFAOYNA-N
Ontology: Terpene glycosides
COLLISIONENERGY: 10
FORMULA: C26H28N2O9
RETENTIONTIME: 3.708817
IONMODE: Negative
Comment: registered in RIKEN PlaSMA
Num Peaks: 94
59.01202	6
71.01345	12
85.02753	17
89.02102	16
101.02349	35
113.01784	7
113.0228	7
114.02647	16
119.03425	17
120.03461	7
123.03998	10
142.21883	7
143.02991	14
151.3278	6
161.04774	18
162.04958	8
167.04707	15
167.05722	9
176.54533	7
177.99504	7
179.05038	9
179.6644	8
180.06703	86
181.04411	6
181.07651	257
182.06915	22
205.07051	7
207.09438	72
208.09952	7
209.3363	6
217.07291	12
217.78342	7
218.07591	20
223.48512	7
229.07393	6
233.10869	46
233.11732	26
235.07808	27
235.08717	101
236.07387	7
236.08765	10
243.0871	21
243.09814	14
244.09183	16
246.07275	24
246.08264	6
249.14133	9
249.15346	9
250.13474	6
250.8425	6
251.36743	7
257.10486	9
258.76047	6
259.07858	6
259.11801	63
259.12909	23
260.1265	6
261.09421	15
261.10492	69
262.099	7
267.09262	7
268.10205	6
269.10397	153
269.11377	36
270.10675	12
270.11966	20
271.07568	10
271.09537	6
272.09723	7
273.09912	9
277.12457	6
277.13516	9
285.09695	8
286.66806	10
287.11798	1000
288.11588	145
288.12781	66
289.12085	19
289.13232	7
302.13516	8
303.11426	6
303.13016	7
304.18817	6
305.12741	50
306.12088	6
306.13495	15
312.1376	7
331.10773	257
332.11124	44
332.12341	26
467.18344	18
467.21112	6
468.16388	7
511.17221	538

NAME: Gardnutine
PRECURSORMZ: 321.16085154783
PRECURSORTYPE: [M-H]-
INSTRUMENTTYPE: LC-ESI-QTOF
SMILES: COC1=CC2=C(C=C1)C1=C(N2)C2CC3C4COC1C4N2CC3=CC
INCHIKEY: XJTWLFBHBFSVRS-UHFFFAOYNA-N
Ontology: Macroline alkaloids
COLLISIONENERGY: 10
FORMULA: C20H22N2O2
RETENTIONTIME: 4.428817
IONMODE: Negative
Comment: registered in RIKEN PlaSMA
Num Peaks: 36
55.27604	25
168.06676	22
169.07195	20
169.98778	14
170.05603	38
170.06277	75
178.06593	15
181.04672	16
182.04915	46
183.04819	13
183.05545	19
192.27318	15
195.09483	15
196.06418	261
197.06761	14
198.05952	14
198.07549	26
209.07582	15
211.08929	14
212.09578	16
220.06517	19
222.87215	26
232.0489	19
237.10686	21
248.05945	15
250.11615	40
262.11182	15
264.12271	19
277.13242	14
278.13239	49
279.79724	15
304.16705	15
306.1268	151
306.13757	513
308.14627	37
321.15939	1000

NAME: Gardnutine
PRECURSORMZ: 367.16633085183
PRECURSORTYPE: [M+FA-H]-
INSTRUMENTTYPE: LC-ESI-QTOF
SMILES: COC1=CC2=C(C=C1)C1=C(N2)C2CC3C4COC1C4N2CC3=CC
INCHIKEY: XJTWLFBHBFSVRS-UHFFFAOYNA-N
Ontology: Macroline alkaloids
COLLISIONENERGY: 10
FORMULA: C20H22N2O2
RETENTIONTIME: 4.428817
IONMODE: Negative
Comment: registered in RIKEN PlaSMA
Num Peaks: 6
195.05006	47
196.058	99
250.11444	55
306.13309	120
321.16168	1000
322.16708	84

NAME: Hirsuteine
PRECURSORMZ: 365.18706624783
PRECURSORTYPE: [M-H]-
INSTRUMENTTYPE: LC-ESI-QTOF
SMILES: COC=C(C1CC2N(CCC3=C2NC2=CC=CC=C32)CC1C=C)C(=O)OC
INCHIKEY: TZUGIFAYWNNSAO-UHFFFAOYNA-N
Ontology: Corynanthean-type alkaloids
COLLISIONENERGY: 10
FORMULA: C22H26N2O3
RETENTIONTIME: 5.674817
IONMODE: Negative
Comment: registered in RIKEN PlaSMA
Num Peaks: 20
146.0865	138
155.06967	132
183.07986	118
183.08746	132
197.10854	145
209.0833	164
219.08176	151
251.11653	500
251.15927	171
257.06598	197
259.12149	184
262.08282	270
262.74402	132
276.10678	217
290.17416	217
301.13293	270
333.14957	158
333.16193	151
365.17477	362
365.19104	1000

NAME: Lyalosidic acid
PRECURSORMZ: 511.17220404783
PRECURSORTYPE: [M-H]-
INSTRUMENTTYPE: LC-ESI-QTOF
SMILES: OCC1OC(OC2OC=C(C(CC3=NC=CC4=C3NC3=CC=CC=C43)C2C=C)C(O)=O)C(O)C(O)C1O
INCHIKEY: UZLBTLIRYSYTRG-UHFFFAOYNA-N
Ontology: Terpene glycosides
COLLISIONENERGY: 10
FORMULA: C26H28N2O9
RETENTIONTIME: 3.708817
IONMODE: Negative
Comment: registered in RIKEN PlaSMA
Num Peaks: 24
119.03269	8
149.0213	6
181.0777	9
212.34659	5
261.37494	5
269.10294	14
274.99271	6
287.11768	498
288.12006	87
289.11517	13
305.13342	23
306.13696	5
326.93198	5
329.13547	6
331.10806	565
332.09799	18
332.11414	99
333.09872	11
333.11453	9
467.18253	57
469.18082	11
469.20782	8
511.16986	1000
511.23611	6

NAME: Gardnutine
PRECURSORMZ: 321.16085154783
PRECURSORTYPE: [M-H]-
INSTRUMENTTYPE: LC-ESI-QTOF
SMILES: COC1=CC2=C(C=C1)C1=C(N2)C2CC3C4COC1C4N2CC3=CC
INCHIKEY: XJTWLFBHBFSVRS-UHFFFAOYNA-N
Ontology: Macroline alkaloids
COLLISIONENERGY: 10
FORMULA: C20H22N2O2
RETENTIONTIME: 4.428817
IONMODE: Negative
Comment: registered in RIKEN PlaSMA
Num Peaks: 15
83.70918	9
168.07585	11
196.05978	8
196.06749	10
197.16756	6
211.08475	9
222.50116	7
225.10954	7
249.90967	7
278.13678	7
291.14362	7
306.13168	42
307.13733	32
321.12344	27
321.15851	1000

NAME: Gardnutine
PRECURSORMZ: 367.16633085183
PRECURSORTYPE: [M+FA-H]-
INSTRUMENTTYPE: LC-ESI-QTOF
SMILES: COC1=CC2=C(C=C1)C1=C(N2)C2CC3C4COC1C4N2CC3=CC
INCHIKEY: XJTWLFBHBFSVRS-UHFFFAOYNA-N
Ontology: Macroline alkaloids
COLLISIONENERGY: 10
FORMULA: C20H22N2O2
RETENTIONTIME: 4.428817
IONMODE: Negative
Comment: registered in RIKEN PlaSMA
Num Peaks: 3
321.15793	1000
322.14917	47
322.17493	87

NAME: Hirsuteine
PRECURSORMZ: 365.18706624783
PRECURSORTYPE: [M-H]-
INSTRUMENTTYPE: LC-ESI-QTOF
SMILES: COC=C(C1CC2N(CCC3=C2NC2=CC=CC=C32)CC1C=C)C(=O)OC
INCHIKEY: TZUGIFAYWNNSAO-UHFFFAOYNA-N
Ontology: Corynanthean-type alkaloids
COLLISIONENERGY: 10
FORMULA: C22H26N2O3
RETENTIONTIME: 5.674817
IONMODE: Negative
Comment: registered in RIKEN PlaSMA
Num Peaks: 10
169.08101	32
183.08461	49
251.11557	39
301.134	46
305.11893	28
305.15924	47
333.15759	81
333.1723	33
334.17487	35
365.18527	1000

NAME: Lyalosidic acid
PRECURSORMZ: 511.17220404783
PRECURSORTYPE: [M-H]-
INSTRUMENTTYPE: LC-ESI-QTOF
SMILES: OCC1OC(OC2OC=C(C(CC3=NC=CC4=C3NC3=CC=CC=C43)C2C=C)C(O)=O)C(O)C(O)C1O
INCHIKEY: UZLBTLIRYSYTRG-UHFFFAOYNA-N
Ontology: Terpene glycosides
COLLISIONENERGY: 30
FORMULA: C26H28N2O9
RETENTIONTIME: 3.708817
IONMODE: Negative
Comment: registered in RIKEN PlaSMA
Num Peaks: 80
53.7233	12
69.03306	34
71.01266	12
73.03008	20
89.02194	46
95.00515	15
95.01112	24
95.74177	16
101.02486	117
102.0264	13
107.04694	26
113.02601	42
123.04153	14
123.0488	17
136.22261	11
167.05956	67
167.06966	45
168.06999	12
171.80634	13
180.06769	183
181.07466	798
182.08131	139
183.07799	14
205.0769	24
207.09169	365
208.08824	22
208.10754	20
217.07744	264
217.19705	11
218.07809	28
219.08531	17
229.08009	11
231.09354	11
231.5488	12
232.1035	11
233.09467	29
233.10269	47
233.11295	73
233.50446	12
235.08658	380
236.09276	97
237.09901	13
242.10229	26
243.09013	68
243.10991	12
244.10437	18
245.1011	16
245.11592	20
246.06941	13
246.10214	12
246.11206	14
249.13513	21
249.14394	47
250.13585	22
257.10297	12
258.07968	81
258.10977	32
259.1236	462
260.12701	13
261.09961	308
261.11337	44
262.10315	63
267.0806	17
268.09595	78
268.10754	26
269.10541	578
270.10321	53
270.1153	43
271.09152	46
271.10944	15
272.09921	28
273.10291	34
277.13217	12
278.13776	15
285.09985	39
287.11862	1000
288.10617	25
288.12173	197
289.12238	40
303.10953	15

NAME: Gardnutine
PRECURSORMZ: 321.16085154783
PRECURSORTYPE: [M-H]-
INSTRUMENTTYPE: LC-ESI-QTOF
SMILES: COC1=CC2=C(C=C1)C1=C(N2)C2CC3C4COC1C4N2CC3=CC
INCHIKEY: XJTWLFBHBFSVRS-UHFFFAOYNA-N
Ontology: Macroline alkaloids
COLLISIONENERGY: 30
FORMULA: C20H22N2O2
RETENTIONTIME: 4.428817
IONMODE: Negative
Comment: registered in RIKEN PlaSMA
Num Peaks: 55
73.48944	25
107.03645	30
146.0629	25
170.05345	57
170.06435	29
171.07521	39
181.04816	67
182.04118	74
182.04636	43
183.04985	52
183.09175	23
186.0927	24
195.05292	170
195.06441	29
196.06372	1000
197.02792	32
197.06325	32
197.0722	169
198.06238	23
198.0696	25
209.07047	116
210.04755	33
211.09814	34
212.07401	77
225.06212	25
232.77603	42
233.06972	42
235.08615	33
246.08272	29
248.09041	67
249.10208	32
250.08362	25
251.11487	53
261.10315	29
262.10809	25
263.11768	59
264.11688	42
275.12338	23
277.12903	62
277.1416	33
278.09174	39
278.1322	62
278.14398	69
279.11569	30
288.09793	35
288.11731	35
289.11996	23
290.10928	25
306.13354	342
306.15314	101
307.12924	28
307.14789	33
308.13565	45
321.12991	47
321.15857	25

NAME: Gardnutine
PRECURSORMZ: 367.16633085183
PRECURSORTYPE: [M+FA-H]-
INSTRUMENTTYPE: LC-ESI-QTOF
SMILES: COC1=CC2=C(C=C1)C1=C(N2)C2CC3C4COC1C4N2CC3=CC
INCHIKEY: XJTWLFBHBFSVRS-UHFFFAOYNA-N
Ontology: Macroline alkaloids
COLLISIONENERGY: 30
FORMULA: C20H22N2O2
RETENTIONTIME: 4.428817
IONMODE: Negative
Comment: registered in RIKEN PlaSMA
Num Peaks: 9
196.0636	181
199.05687	142
200.00719	135
211.08907	129
278.14291	129
306.13803	1000
308.15228	116
321.15253	329
321.1666	110

NAME: Hirsuteine
PRECURSORMZ: 365.18706624783
PRECURSORTYPE: [M-H]-
INSTRUMENTTYPE: LC-ESI-QTOF
SMILES: COC=C(C1CC2N(CCC3=C2NC2=CC=CC=C32)CC1C=C)C(=O)OC
INCHIKEY: TZUGIFAYWNNSAO-UHFFFAOYNA-N
Ontology: Corynanthean-type alkaloids
COLLISIONENERGY: 30
FORMULA: C22H26N2O3
RETENTIONTIME: 5.674817
IONMODE: Negative
Comment: registered in RIKEN PlaSMA
Num Peaks: 11
142.06412	260
169.07304	365
181.06924	521
181.08154	302
183.08958	1000
184.09225	365
220.10263	344
251.12184	208
257.09354	302
262.44327	208
263.07602	260

NAME: Lyalosidic acid
PRECURSORMZ: 511.17220404783
PRECURSORTYPE: [M-H]-
INSTRUMENTTYPE: LC-ESI-QTOF
SMILES: OCC1OC(OC2OC=C(C(CC3=NC=CC4=C3NC3=CC=CC=C43)C2C=C)C(O)=O)C(O)C(O)C1O
INCHIKEY: UZLBTLIRYSYTRG-UHFFFAOYNA-N
Ontology: Terpene glycosides
COLLISIONENERGY: 50
FORMULA: C26H28N2O9
RETENTIONTIME: 3.708817
IONMODE: Negative
Comment: registered in RIKEN PlaSMA
Num Peaks: 64
59.01395	23
69.03504	23
70.04017	34
71.01463	37
85.03001	67
92.05328	25
101.02532	30
103.02899	30
107.04276	26
108.57512	19
119.09462	36
140.05225	19
166.05627	42
167.05765	154
180.06696	258
181.0722	503
181.08287	231
182.0782	17
183.06488	20
193.08171	18
195.08327	23
204.06859	17
205.07155	20
207.09128	1000
208.08041	22
208.09526	146
209.09544	49
217.07846	317
217.10077	27
218.08009	146
229.09079	19
230.08339	122
231.07336	20
231.09042	72
233.09552	23
233.11226	88
234.11026	37
241.08092	21
243.08508	141
243.09697	205
244.09009	75
244.11229	24
245.08536	23
245.11035	25
247.12103	30
249.1398	29
257.06998	31
257.08182	27
257.09714	19
257.1134	23
258.11655	20
259.12125	58
259.13544	45
260.09695	20
260.13095	18
268.09506	49
269.09341	20
269.11221	53
271.08377	53
271.09665	50
271.13046	23
272.08762	36
283.40811	25
289.12994	21

NAME: Gardnutine
PRECURSORMZ: 321.16085154783
PRECURSORTYPE: [M-H]-
INSTRUMENTTYPE: LC-ESI-QTOF
SMILES: COC1=CC2=C(C=C1)C1=C(N2)C2CC3C4COC1C4N2CC3=CC
INCHIKEY: XJTWLFBHBFSVRS-UHFFFAOYNA-N
Ontology: Macroline alkaloids
COLLISIONENERGY: 50
FORMULA: C20H22N2O2
RETENTIONTIME: 4.428817
IONMODE: Negative
Comment: registered in RIKEN PlaSMA
Num Peaks: 18
140.04791	188
142.02496	156
143.06749	117
168.07068	1000
169.05002	227
169.16678	162
170.06236	416
181.05162	117
183.05464	260
195.05745	175
196.05724	299
206.67157	214
220.06105	130
231.07031	169
234.07939	117
248.10603	156
249.10349	396
261.06607	188

NAME: Gardnutine
PRECURSORMZ: 367.16633085183
PRECURSORTYPE: [M+FA-H]-
INSTRUMENTTYPE: LC-ESI-QTOF
SMILES: COC1=CC2=C(C=C1)C1=C(N2)C2CC3C4COC1C4N2CC3=CC
INCHIKEY: XJTWLFBHBFSVRS-UHFFFAOYNA-N
Ontology: Macroline alkaloids
COLLISIONENERGY: 50
FORMULA: C20H22N2O2
RETENTIONTIME: 4.428817
IONMODE: Negative
Comment: registered in RIKEN PlaSMA
Num Peaks: 2
170.05499	1000
170.06284	587

NAME: Hirsuteine
PRECURSORMZ: 365.18706624783
PRECURSORTYPE: [M-H]-
INSTRUMENTTYPE: LC-ESI-QTOF
SMILES: COC=C(C1CC2N(CCC3=C2NC2=CC=CC=C32)CC1C=C)C(=O)OC
INCHIKEY: TZUGIFAYWNNSAO-UHFFFAOYNA-N
Ontology: Corynanthean-type alkaloids
COLLISIONENERGY: 50
FORMULA: C22H26N2O3
RETENTIONTIME: 5.674817
IONMODE: Negative
Comment: registered in RIKEN PlaSMA
Num Peaks: 3
66.03718	1000
183.09175	480
248.0703	400

NAME: Lyalosidic acid
PRECURSORMZ: 511.17220404783
PRECURSORTYPE: [M-H]-
INSTRUMENTTYPE: LC-ESI-QTOF
SMILES: OCC1OC(OC2OC=C(C(CC3=NC=CC4=C3NC3=CC=CC=C43)C2C=C)C(O)=O)C(O)C(O)C1O
INCHIKEY: UZLBTLIRYSYTRG-UHFFFAOYNA-N
Ontology: Terpene glycosides
COLLISIONENERGY: 10
FORMULA: C26H28N2O9
RETENTIONTIME: 3.708817
IONMODE: Negative
Comment: registered in RIKEN PlaSMA
Num Peaks: 92
59.01027	12
69.03453	8
71.01947	6
71.04962	6
89.02254	9
101.02296	25
111.77798	6
113.01956	11
119.03466	6
123.04326	14
131.03101	10
149.02272	10
149.62138	6
159.02228	6
167.05511	14
167.06165	8
179.05032	5
180.05005	6
180.05907	21
180.06918	92
181.07318	183
182.07646	9
182.08733	25
199.59964	6
207.0567	6
207.08949	35
207.09633	52
208.08739	6
217.07719	23
218.07736	15
218.08841	10
219.09846	8
228.37091	10
231.08696	6
233.09846	13
233.10881	25
234.10811	42
235.08722	95
236.08998	7
237.09216	8
243.08987	69
244.09686	22
246.1144	7
249.1256	5
249.14151	8
255.08192	6
257.07156	14
257.0968	8
257.10806	19
258.09372	7
259.12271	82
260.12616	15
260.13553	30
261.06891	9
261.10641	63
261.12152	14
262.09726	15
262.10727	17
268.08728	5
268.10287	53
269.10818	162
270.09561	26
270.12134	7
270.13245	7
271.08228	5
272.10068	6
277.13788	6
285.09958	5
285.11304	8
287.11826	1000
287.21606	5
287.57956	5
288.11914	136
289.11185	6
289.12854	22
304.10504	8
305.11395	11
305.12769	50
305.13968	13
306.13324	7
308.1304	6
313.09036	6
331.10806	351
332.10239	24
332.11081	50
332.12512	9
332.14606	7
333.10156	5
467.17474	6
467.21045	6
468.18472	10
511.1716	397

NAME: Gardnutine
PRECURSORMZ: 321.16085154783
PRECURSORTYPE: [M-H]-
INSTRUMENTTYPE: LC-ESI-QTOF
SMILES: COC1=CC2=C(C=C1)C1=C(N2)C2CC3C4COC1C4N2CC3=CC
INCHIKEY: XJTWLFBHBFSVRS-UHFFFAOYNA-N
Ontology: Macroline alkaloids
COLLISIONENERGY: 10
FORMULA: C20H22N2O2
RETENTIONTIME: 4.428817
IONMODE: Negative
Comment: registered in RIKEN PlaSMA
Num Peaks: 45
97.1105	20
157.07959	18
158.06398	18
158.31158	17
168.05983	16
168.06738	47
168.07996	21
171.06453	16
172.0652	17
181.05081	62
182.04871	41
182.0592	30
183.04971	22
183.05652	21
194.06233	40
195.05466	59
196.06511	319
197.05496	21
197.06792	57
199.06218	25
209.06323	17
210.06285	17
211.08456	19
214.08391	25
219.06734	15
224.06914	19
236.09201	19
249.10645	27
250.05975	16
250.11591	43
262.11847	16
263.10724	17
270.08722	31
277.09494	21
277.1275	20
277.146	21
288.0946	16
305.13181	19
306.13623	344
306.15286	44
306.16364	22
307.13797	93
307.1517	47
321.13074	51
321.15955	1000

NAME: Gardnutine
PRECURSORMZ: 367.16633085183
PRECURSORTYPE: [M+FA-H]-
INSTRUMENTTYPE: LC-ESI-QTOF
SMILES: COC1=CC2=C(C=C1)C1=C(N2)C2CC3C4COC1C4N2CC3=CC
INCHIKEY: XJTWLFBHBFSVRS-UHFFFAOYNA-N
Ontology: Macroline alkaloids
COLLISIONENERGY: 10
FORMULA: C20H22N2O2
RETENTIONTIME: 4.428817
IONMODE: Negative
Comment: registered in RIKEN PlaSMA
Num Peaks: 9
180.04169	113
197.06219	65
250.10425	92
289.11966	116
306.14679	68
308.1485	134
321.15909	1000
321.18854	68
322.16904	144

NAME: Hirsuteine
PRECURSORMZ: 365.18706624783
PRECURSORTYPE: [M-H]-
INSTRUMENTTYPE: LC-ESI-QTOF
SMILES: COC=C(C1CC2N(CCC3=C2NC2=CC=CC=C32)CC1C=C)C(=O)OC
INCHIKEY: TZUGIFAYWNNSAO-UHFFFAOYNA-N
Ontology: Corynanthean-type alkaloids
COLLISIONENERGY: 10
FORMULA: C22H26N2O3
RETENTIONTIME: 5.674817
IONMODE: Negative
Comment: registered in RIKEN PlaSMA
Num Peaks: 32
101.02097	121
142.06342	242
142.07101	140
151.06787	116
153.06015	87
154.06711	106
167.05637	92
169.07039	87
169.07715	121
181.08778	111
183.08797	435
184.09445	97
193.06964	87
194.0769	87
194.086	97
198.11482	116
245.07967	87
248.0784	92
251.10568	97
251.12579	101
273.14551	126
280.11859	101
285.0986	101
295.11456	227
302.12683	97
305.13303	121
305.17282	97
333.15497	193
357.35345	87
357.64136	121
365.1879	1000
365.20578	126

NAME: Lyalosidic acid
PRECURSORMZ: 511.17220404783
PRECURSORTYPE: [M-H]-
INSTRUMENTTYPE: LC-ESI-QTOF
SMILES: OCC1OC(OC2OC=C(C(CC3=NC=CC4=C3NC3=CC=CC=C43)C2C=C)C(O)=O)C(O)C(O)C1O
INCHIKEY: UZLBTLIRYSYTRG-UHFFFAOYNA-N
Ontology: Terpene glycosides
COLLISIONENERGY: 10
FORMULA: C26H28N2O9
RETENTIONTIME: 3.708817
IONMODE: Negative
Comment: registered in RIKEN PlaSMA
Num Peaks: 32
89.02161	8
101.02909	7
107.035	5
131.03294	7
143.03333	20
179.05922	9
181.07507	26
259.12079	10
261.08978	7
261.11072	13
269.09894	6
269.1106	8
287.11777	678
288.11606	108
288.12756	50
289.12991	6
305.12656	7
306.12448	8
306.13416	6
331.10742	470
332.10187	69
332.11688	107
332.14407	5
333.1131	16
333.40152	7
352.49719	7
436.72195	6
467.16852	18
467.1875	25
468.19174	15
469.19653	8
511.172	1000

NAME: Gardnutine
PRECURSORMZ: 321.16085154783
PRECURSORTYPE: [M-H]-
INSTRUMENTTYPE: LC-ESI-QTOF
SMILES: COC1=CC2=C(C=C1)C1=C(N2)C2CC3C4COC1C4N2CC3=CC
INCHIKEY: XJTWLFBHBFSVRS-UHFFFAOYNA-N
Ontology: Macroline alkaloids
COLLISIONENERGY: 10
FORMULA: C20H22N2O2
RETENTIONTIME: 4.428817
IONMODE: Negative
Comment: registered in RIKEN PlaSMA
Num Peaks: 13
169.37886	7
196.06308	6
196.07217	9
197.03065	19
211.08549	9
211.09471	7
306.13318	73
306.14441	53
307.13156	10
307.14075	9
319.26868	7
321.1236	7
321.15933	1000

NAME: Gardnutine
PRECURSORMZ: 367.16633085183
PRECURSORTYPE: [M+FA-H]-
INSTRUMENTTYPE: LC-ESI-QTOF
SMILES: COC1=CC2=C(C=C1)C1=C(N2)C2CC3C4COC1C4N2CC3=CC
INCHIKEY: XJTWLFBHBFSVRS-UHFFFAOYNA-N
Ontology: Macroline alkaloids
COLLISIONENERGY: 10
FORMULA: C20H22N2O2
RETENTIONTIME: 4.428817
IONMODE: Negative
Comment: registered in RIKEN PlaSMA
Num Peaks: 5
206.48082	67
321.15723	1000
321.17059	222
322.16104	165
367.17609	35

NAME: Hirsuteine
PRECURSORMZ: 365.18706624783
PRECURSORTYPE: [M-H]-
INSTRUMENTTYPE: LC-ESI-QTOF
SMILES: COC=C(C1CC2N(CCC3=C2NC2=CC=CC=C32)CC1C=C)C(=O)OC
INCHIKEY: TZUGIFAYWNNSAO-UHFFFAOYNA-N
Ontology: Corynanthean-type alkaloids
COLLISIONENERGY: 10
FORMULA: C22H26N2O3
RETENTIONTIME: 5.674817
IONMODE: Negative
Comment: registered in RIKEN PlaSMA
Num Peaks: 6
181.08643	33
183.09023	27
333.14993	31
333.16083	50
334.1601	34
365.18503	1000

NAME: Lyalosidic acid
PRECURSORMZ: 511.17220404783
PRECURSORTYPE: [M-H]-
INSTRUMENTTYPE: LC-ESI-QTOF
SMILES: OCC1OC(OC2OC=C(C(CC3=NC=CC4=C3NC3=CC=CC=C43)C2C=C)C(O)=O)C(O)C(O)C1O
INCHIKEY: UZLBTLIRYSYTRG-UHFFFAOYNA-N
Ontology: Terpene glycosides
COLLISIONENERGY: 30
FORMULA: C26H28N2O9
RETENTIONTIME: 3.708817
IONMODE: Negative
Comment: registered in RIKEN PlaSMA
Num Peaks: 82
59.01347	35
71.01195	38
89.01722	13
89.02454	67
101.02272	78
101.64381	13
107.04533	12
113.01608	12
113.02124	10
123.04503	13
149.0208	12
149.02832	12
167.05902	79
168.05571	14
168.06299	17
180.0593	42
180.06963	133
181.07536	632
181.12106	14
182.07596	82
182.08389	54
182.09563	10
183.07689	21
186.05835	13
205.07233	10
207.09041	229
208.09618	16
216.70261	16
217.062	13
217.07654	92
217.09181	19
218.08836	17
224.89874	10
231.08398	24
232.08542	11
232.10176	22
233.10492	66
233.11589	35
233.3351	10
234.11362	13
234.92574	11
235.08481	266
235.09369	91
235.84399	10
236.08372	33
237.09204	42
243.09409	179
244.08943	38
244.10188	30
246.06978	13
246.08473	26
249.13112	14
249.1451	54
257.07309	14
257.10309	29
257.11017	14
259.12219	301
260.12366	52
260.14029	26
261.03229	12
261.07199	11
261.08551	48
261.10272	266
262.06555	12
267.0889	31
268.1001	69
269.10666	298
269.12152	40
270.10779	76
271.08554	21
271.1088	16
272.095	30
285.10257	56
287.11746	1000
287.14371	10
287.18546	11
288.11496	77
288.13034	87
289.13171	23
301.12497	11
305.11765	12
451.87936	10

NAME: Gardnutine
PRECURSORMZ: 321.16085154783
PRECURSORTYPE: [M-H]-
INSTRUMENTTYPE: LC-ESI-QTOF
SMILES: COC1=CC2=C(C=C1)C1=C(N2)C2CC3C4COC1C4N2CC3=CC
INCHIKEY: XJTWLFBHBFSVRS-UHFFFAOYNA-N
Ontology: Macroline alkaloids
COLLISIONENERGY: 30
FORMULA: C20H22N2O2
RETENTIONTIME: 4.428817
IONMODE: Negative
Comment: registered in RIKEN PlaSMA
Num Peaks: 56
122.06068	91
159.03723	40
160.03889	28
167.06549	25
168.06416	24
168.07236	35
170.05801	234
171.06358	36
173.04645	36
182.03508	23
182.04338	40
182.05261	68
183.05753	95
184.05775	26
195.04251	54
195.0531	90
196.06474	1000
197.0219	22
197.04553	24
197.06903	154
197.07776	35
198.03027	25
198.04404	60
198.05348	23
199.06013	114
209.0761	50
210.05293	24
210.07469	36
210.09581	28
213.07275	32
220.07477	26
225.07233	30
232.0746	41
233.0703	54
235.09207	24
247.07645	38
247.08957	25
248.08624	32
249.10275	30
250.11325	65
262.11575	34
263.10825	29
263.12146	24
277.12296	93
278.13589	107
279.13757	26
289.12869	29
291.10687	36
305.14685	29
306.13663	251
306.14941	69
307.12479	30
307.13959	30
307.15491	22
308.13931	22
321.15869	25

NAME: Gardnutine
PRECURSORMZ: 367.16633085183
PRECURSORTYPE: [M+FA-H]-
INSTRUMENTTYPE: LC-ESI-QTOF
SMILES: COC1=CC2=C(C=C1)C1=C(N2)C2CC3C4COC1C4N2CC3=CC
INCHIKEY: XJTWLFBHBFSVRS-UHFFFAOYNA-N
Ontology: Macroline alkaloids
COLLISIONENERGY: 30
FORMULA: C20H22N2O2
RETENTIONTIME: 4.428817
IONMODE: Negative
Comment: registered in RIKEN PlaSMA
Num Peaks: 10
169.07492	152
171.06219	122
196.06371	116
199.04915	165
211.08305	116
226.04466	146
263.1098	159
263.12421	226
306.13318	1000
321.15866	341

NAME: Hirsuteine
PRECURSORMZ: 365.18706624783
PRECURSORTYPE: [M-H]-
INSTRUMENTTYPE: LC-ESI-QTOF
SMILES: COC=C(C1CC2N(CCC3=C2NC2=CC=CC=C32)CC1C=C)C(=O)OC
INCHIKEY: TZUGIFAYWNNSAO-UHFFFAOYNA-N
Ontology: Corynanthean-type alkaloids
COLLISIONENERGY: 30
FORMULA: C22H26N2O3
RETENTIONTIME: 5.674817
IONMODE: Negative
Comment: registered in RIKEN PlaSMA
Num Peaks: 11
155.07742	244
156.08113	280
168.07433	220
171.0784	232
183.08514	402
196.10989	1000
196.48738	220
207.06529	427
207.08716	256
221.07333	220
301.14514	268

NAME: Lyalosidic acid
PRECURSORMZ: 511.17220404783
PRECURSORTYPE: [M-H]-
INSTRUMENTTYPE: LC-ESI-QTOF
SMILES: OCC1OC(OC2OC=C(C(CC3=NC=CC4=C3NC3=CC=CC=C43)C2C=C)C(O)=O)C(O)C(O)C1O
INCHIKEY: UZLBTLIRYSYTRG-UHFFFAOYNA-N
Ontology: Terpene glycosides
COLLISIONENERGY: 50
FORMULA: C26H28N2O9
RETENTIONTIME: 3.708817
IONMODE: Negative
Comment: registered in RIKEN PlaSMA
Num Peaks: 43
59.01122	22
85.02911	26
95.01583	22
95.05171	26
101.02162	67
107.05181	25
167.05455	21
168.06218	20
180.06747	744
181.07436	1000
182.0743	189
203.07687	26
207.09149	962
208.09375	211
217.07219	369
217.08885	27
218.0746	23
229.06767	24
230.08006	27
230.09065	81
231.08784	20
232.09119	59
233.10785	315
234.09883	46
242.08334	39
243.09053	126
243.1006	44
243.11403	19
244.09828	152
246.08582	20
254.09229	19
257.06744	19
257.10504	22
258.11111	19
259.11908	19
261.09744	21
261.1077	19
267.08789	19
268.10092	26
269.1069	49
270.10992	21
271.07507	30
271.09128	19

NAME: Gardnutine
PRECURSORMZ: 321.16085154783
PRECURSORTYPE: [M-H]-
INSTRUMENTTYPE: LC-ESI-QTOF
SMILES: COC1=CC2=C(C=C1)C1=C(N2)C2CC3C4COC1C4N2CC3=CC
INCHIKEY: XJTWLFBHBFSVRS-UHFFFAOYNA-N
Ontology: Macroline alkaloids
COLLISIONENERGY: 50
FORMULA: C20H22N2O2
RETENTIONTIME: 4.428817
IONMODE: Negative
Comment: registered in RIKEN PlaSMA
Num Peaks: 15
168.0386	233
168.06734	1000
169.04648	284
181.04391	181
182.04182	172
195.05295	198
196.06454	190
197.07208	164
198.05331	259
210.08438	224
221.07426	345
232.08513	224
234.08632	207
246.08153	207
261.10782	155

NAME: Gardnutine
PRECURSORMZ: 367.16633085183
PRECURSORTYPE: [M+FA-H]-
INSTRUMENTTYPE: LC-ESI-QTOF
SMILES: COC1=CC2=C(C=C1)C1=C(N2)C2CC3C4COC1C4N2CC3=CC
INCHIKEY: XJTWLFBHBFSVRS-UHFFFAOYNA-N
Ontology: Macroline alkaloids
COLLISIONENERGY: 50
FORMULA: C20H22N2O2
RETENTIONTIME: 4.428817
IONMODE: Negative
Comment: registered in RIKEN PlaSMA
Num Peaks: 7
158.05788	606
168.07054	606
170.05537	818
181.05783	636
182.05205	758
196.05939	1000
261.10242	576

NAME: Hirsuteine
PRECURSORMZ: 365.18706624783
PRECURSORTYPE: [M-H]-
INSTRUMENTTYPE: LC-ESI-QTOF
SMILES: COC=C(C1CC2N(CCC3=C2NC2=CC=CC=C32)CC1C=C)C(=O)OC
INCHIKEY: TZUGIFAYWNNSAO-UHFFFAOYNA-N
Ontology: Corynanthean-type alkaloids
COLLISIONENERGY: 50
FORMULA: C22H26N2O3
RETENTIONTIME: 5.674817
IONMODE: Negative
Comment: registered in RIKEN PlaSMA
Num Peaks: 6
142.06702	1000
142.07533	274
170.08102	188
235.08112	205
270.08887	214
283.08258	162

NAME: Lyalosidic acid
PRECURSORMZ: 511.17220404783
PRECURSORTYPE: [M-H]-
INSTRUMENTTYPE: LC-ESI-QTOF
SMILES: OCC1OC(OC2OC=C(C(CC3=NC=CC4=C3NC3=CC=CC=C43)C2C=C)C(O)=O)C(O)C(O)C1O
INCHIKEY: UZLBTLIRYSYTRG-UHFFFAOYNA-N
Ontology: Terpene glycosides
COLLISIONENERGY: 10
FORMULA: C26H28N2O9
RETENTIONTIME: 3.708817
IONMODE: Negative
Comment: registered in RIKEN PlaSMA
Num Peaks: 76
89.02516	15
101.02206	18
113.01997	12
118.63666	5
119.0342	10
123.04101	5
123.07718	6
150.05235	6
167.06885	6
178.02711	6
179.05626	6
180.065	31
180.07086	81
181.07588	213
182.06966	6
182.07838	27
182.09096	9
191.24141	5
205.08705	8
207.08611	46
207.09631	38
208.09929	14
216.61375	6
217.07738	39
218.07095	13
231.07903	9
231.09306	6
232.09447	6
233.10881	31
234.1106	6
235.08371	114
236.08302	23
243.07967	15
243.09134	42
244.09859	7
245.0939	6
245.10973	12
249.13741	9
250.14404	7
257.06787	6
257.11044	13
258.07965	5
259.1189	96
259.13287	17
261.07803	6
261.09308	18
261.10779	26
262.1445	5
268.10126	10
269.10696	107
270.10675	14
270.11627	8
271.07938	12
272.10733	6
273.90894	7
277.13754	10
282.13409	9
285.09305	5
287.11746	1000
288.10248	14
288.12424	224
289.12912	22
298.0697	6
304.12332	6
305.12405	12
305.93161	9
313.0928	6
331.10413	271
332.10059	27
332.11136	55
333.11426	15
349.33624	7
467.16278	29
467.19269	17
468.19742	8
511.17099	405

NAME: Gardnutine
PRECURSORMZ: 321.16085154783
PRECURSORTYPE: [M-H]-
INSTRUMENTTYPE: LC-ESI-QTOF
SMILES: COC1=CC2=C(C=C1)C1=C(N2)C2CC3C4COC1C4N2CC3=CC
INCHIKEY: XJTWLFBHBFSVRS-UHFFFAOYNA-N
Ontology: Macroline alkaloids
COLLISIONENERGY: 10
FORMULA: C20H22N2O2
RETENTIONTIME: 4.428817
IONMODE: Negative
Comment: registered in RIKEN PlaSMA
Num Peaks: 45
122.05708	19
168.07681	29
169.07968	18
170.05893	32
170.86896	21
181.03596	17
182.06065	40
183.05141	46
187.09592	35
195.05037	19
195.05904	22
195.09755	19
196.06181	393
197.06601	30
197.07286	76
198.06984	25
198.07591	19
199.05521	42
200.06412	20
208.0815	18
211.08347	20
211.09167	20
211.79111	20
212.09151	26
213.10764	31
219.06346	22
234.60741	27
235.0918	28
236.06104	30
248.09308	28
249.0956	24
249.10518	30
250.08688	27
253.23611	31
263.12347	21
264.07758	17
267.1897	27
277.13437	23
278.14474	19
288.10989	24
306.13394	343
307.1275	41
307.16055	21
321.1257	31
321.16003	1000

NAME: Gardnutine
PRECURSORMZ: 367.16633085183
PRECURSORTYPE: [M+FA-H]-
INSTRUMENTTYPE: LC-ESI-QTOF
SMILES: COC1=CC2=C(C=C1)C1=C(N2)C2CC3C4COC1C4N2CC3=CC
INCHIKEY: XJTWLFBHBFSVRS-UHFFFAOYNA-N
Ontology: Macroline alkaloids
COLLISIONENERGY: 10
FORMULA: C20H22N2O2
RETENTIONTIME: 4.428817
IONMODE: Negative
Comment: registered in RIKEN PlaSMA
Num Peaks: 11
196.06316	138
197.06822	125
263.11786	144
289.12787	206
306.13153	294
306.15546	138
308.11664	150
321.12213	119
321.16644	1000
322.14429	112
326.19366	325

NAME: Hirsuteine
PRECURSORMZ: 365.18706624783
PRECURSORTYPE: [M-H]-
INSTRUMENTTYPE: LC-ESI-QTOF
SMILES: COC=C(C1CC2N(CCC3=C2NC2=CC=CC=C32)CC1C=C)C(=O)OC
INCHIKEY: TZUGIFAYWNNSAO-UHFFFAOYNA-N
Ontology: Corynanthean-type alkaloids
COLLISIONENERGY: 10
FORMULA: C22H26N2O3
RETENTIONTIME: 5.674817
IONMODE: Negative
Comment: registered in RIKEN PlaSMA
Num Peaks: 17
60.096	84
142.06096	80
169.07172	72
183.09241	237
184.08508	104
209.06924	88
221.11122	80
247.12411	84
251.13211	72
258.11432	100
279.1199	72
286.1095	177
302.13864	112
333.1579	80
333.17068	165
365.16992	129
365.18707	1000

NAME: Lyalosidic acid
PRECURSORMZ: 511.17220404783
PRECURSORTYPE: [M-H]-
INSTRUMENTTYPE: LC-ESI-QTOF
SMILES: OCC1OC(OC2OC=C(C(CC3=NC=CC4=C3NC3=CC=CC=C43)C2C=C)C(O)=O)C(O)C(O)C1O
INCHIKEY: UZLBTLIRYSYTRG-UHFFFAOYNA-N
Ontology: Terpene glycosides
COLLISIONENERGY: 10
FORMULA: C26H28N2O9
RETENTIONTIME: 3.708817
IONMODE: Negative
Comment: registered in RIKEN PlaSMA
Num Peaks: 26
119.02764	5
179.06047	5
181.07942	26
189.37756	6
269.11349	5
270.11234	8
279.08383	7
285.15952	5
287.11792	550
288.12387	182
289.10913	6
289.12686	18
305.12732	28
306.12793	7
313.08823	7
331.10724	594
332.08838	15
332.1087	98
332.12033	34
333.12363	5
467.16672	8
467.19037	16
467.2092	5
468.19055	18
511.17184	1000
511.21274	10

NAME: Gardnutine
PRECURSORMZ: 321.16085154783
PRECURSORTYPE: [M-H]-
INSTRUMENTTYPE: LC-ESI-QTOF
SMILES: COC1=CC2=C(C=C1)C1=C(N2)C2CC3C4COC1C4N2CC3=CC
INCHIKEY: XJTWLFBHBFSVRS-UHFFFAOYNA-N
Ontology: Macroline alkaloids
COLLISIONENERGY: 10
FORMULA: C20H22N2O2
RETENTIONTIME: 4.428817
IONMODE: Negative
Comment: registered in RIKEN PlaSMA
Num Peaks: 15
120.04254	10
196.0596	10
197.06987	7
198.08069	8
228.80321	11
277.12003	7
282.86438	7
291.15698	6
303.14124	7
306.14075	83
307.13641	25
307.15149	8
321.11044	8
321.16016	1000
321.18744	15

NAME: Gardnutine
PRECURSORMZ: 367.16633085183
PRECURSORTYPE: [M+FA-H]-
INSTRUMENTTYPE: LC-ESI-QTOF
SMILES: COC1=CC2=C(C=C1)C1=C(N2)C2CC3C4COC1C4N2CC3=CC
INCHIKEY: XJTWLFBHBFSVRS-UHFFFAOYNA-N
Ontology: Macroline alkaloids
COLLISIONENERGY: 10
FORMULA: C20H22N2O2
RETENTIONTIME: 4.428817
IONMODE: Negative
Comment: registered in RIKEN PlaSMA
Num Peaks: 6
233.21901	106
321.15744	1000
322.15909	97
322.17105	208
323.13223	56
324.15912	45

NAME: Hirsuteine
PRECURSORMZ: 365.18706624783
PRECURSORTYPE: [M-H]-
INSTRUMENTTYPE: LC-ESI-QTOF
SMILES: COC=C(C1CC2N(CCC3=C2NC2=CC=CC=C32)CC1C=C)C(=O)OC
INCHIKEY: TZUGIFAYWNNSAO-UHFFFAOYNA-N
Ontology: Corynanthean-type alkaloids
COLLISIONENERGY: 10
FORMULA: C22H26N2O3
RETENTIONTIME: 5.674817
IONMODE: Negative
Comment: registered in RIKEN PlaSMA
Num Peaks: 13
183.08745	33
183.09779	52
184.09682	81
190.18552	58
197.09853	59
252.11662	44
279.10791	28
305.15546	54
333.16504	33
334.17007	28
344.96735	31
364.14697	28
365.18802	1000

NAME: Lyalosidic acid
PRECURSORMZ: 511.17220404783
PRECURSORTYPE: [M-H]-
INSTRUMENTTYPE: LC-ESI-QTOF
SMILES: OCC1OC(OC2OC=C(C(CC3=NC=CC4=C3NC3=CC=CC=C43)C2C=C)C(O)=O)C(O)C(O)C1O
INCHIKEY: UZLBTLIRYSYTRG-UHFFFAOYNA-N
Ontology: Terpene glycosides
COLLISIONENERGY: 30
FORMULA: C26H28N2O9
RETENTIONTIME: 3.708817
IONMODE: Negative
Comment: registered in RIKEN PlaSMA
Num Peaks: 87
59.01318	115
69.02943	17
71.01283	25
73.0285	12
85.033	14
89.02203	65
95.01157	16
101.02158	32
101.02768	47
104.51283	21
107.0479	10
107.0539	22
113.02061	11
113.02909	20
119.03594	25
167.05698	61
177.93929	10
180.06676	98
180.07411	58
181.0739	713
181.0856	101
182.07533	78
183.07791	12
183.08626	19
193.50745	11
194.08325	14
207.07831	37
207.08904	165
207.11345	13
208.0899	23
209.09561	19
217.07822	121
218.0696	12
220.41493	12
230.08496	10
231.09126	12
233.10902	74
234.11766	11
235.08647	491
235.11058	11
236.08887	127
243.0927	193
243.10017	73
244.08264	20
244.08936	11
245.10054	15
245.11493	50
246.07602	65
247.08762	16
249.13777	12
250.13992	19
254.08279	25
257.07599	12
257.10236	11
257.11578	13
258.07474	16
258.08585	13
258.10559	12
259.07169	18
259.11523	201
259.12708	145
260.12674	74
261.07242	23
261.09525	100
261.10886	139
261.12311	14
262.10449	34
262.11749	16
266.97968	15
267.09045	28
268.09219	53
268.10962	38
269.10602	383
270.10614	86
271.08575	46
271.09702	30
271.11584	16
272.09891	14
273.09375	37
276.08521	13
277.125	19
287.11737	1000
287.19141	17
288.11597	98
288.12769	91
289.10596	14
289.12509	21

NAME: Gardnutine
PRECURSORMZ: 321.16085154783
PRECURSORTYPE: [M-H]-
INSTRUMENTTYPE: LC-ESI-QTOF
SMILES: COC1=CC2=C(C=C1)C1=C(N2)C2CC3C4COC1C4N2CC3=CC
INCHIKEY: XJTWLFBHBFSVRS-UHFFFAOYNA-N
Ontology: Macroline alkaloids
COLLISIONENERGY: 30
FORMULA: C20H22N2O2
RETENTIONTIME: 4.428817
IONMODE: Negative
Comment: registered in RIKEN PlaSMA
Num Peaks: 45
117.06409	32
168.07195	57
171.05923	35
171.06737	30
181.05119	26
182.04893	88
183.04643	22
183.05551	47
195.06487	131
196.06364	1000
197.05956	46
197.07036	123
197.07683	45
198.05573	51
199.05803	22
209.07249	25
211.08752	26
219.08784	47
221.06343	27
222.08461	25
224.0603	73
225.05841	35
247.09496	32
248.09796	25
249.10861	45
251.11205	25
261.09512	31
261.10803	41
262.07776	33
262.1152	57
263.11179	58
263.14175	22
276.09396	110
277.1275	54
277.13953	56
278.13528	28
279.13086	31
286.10513	35
292.12415	32
306.12302	141
306.13797	188
307.11566	28
307.12927	51
307.14584	27
321.15497	31

NAME: Gardnutine
PRECURSORMZ: 367.16633085183
PRECURSORTYPE: [M+FA-H]-
INSTRUMENTTYPE: LC-ESI-QTOF
SMILES: COC1=CC2=C(C=C1)C1=C(N2)C2CC3C4COC1C4N2CC3=CC
INCHIKEY: XJTWLFBHBFSVRS-UHFFFAOYNA-N
Ontology: Macroline alkaloids
COLLISIONENERGY: 30
FORMULA: C20H22N2O2
RETENTIONTIME: 4.428817
IONMODE: Negative
Comment: registered in RIKEN PlaSMA
Num Peaks: 5
196.06087	514
197.06227	167
276.12149	181
306.12643	1000
307.159	254

NAME: Hirsuteine
PRECURSORMZ: 365.18706624783
PRECURSORTYPE: [M-H]-
INSTRUMENTTYPE: LC-ESI-QTOF
SMILES: COC=C(C1CC2N(CCC3=C2NC2=CC=CC=C32)CC1C=C)C(=O)OC
INCHIKEY: TZUGIFAYWNNSAO-UHFFFAOYNA-N
Ontology: Corynanthean-type alkaloids
COLLISIONENERGY: 30
FORMULA: C22H26N2O3
RETENTIONTIME: 5.674817
IONMODE: Negative
Comment: registered in RIKEN PlaSMA
Num Peaks: 16
116.04545	171
121.05927	261
148.08049	279
153.05865	243
169.0726	333
169.08299	225
181.0676	252
181.07768	243
183.0873	1000
233.10445	225
236.08916	189
247.12703	207
253.12399	243
258.10806	189
285.09897	216
301.12061	207

NAME: Lyalosidic acid
PRECURSORMZ: 511.17220404783
PRECURSORTYPE: [M-H]-
INSTRUMENTTYPE: LC-ESI-QTOF
SMILES: OCC1OC(OC2OC=C(C(CC3=NC=CC4=C3NC3=CC=CC=C43)C2C=C)C(O)=O)C(O)C(O)C1O
INCHIKEY: UZLBTLIRYSYTRG-UHFFFAOYNA-N
Ontology: Terpene glycosides
COLLISIONENERGY: 50
FORMULA: C26H28N2O9
RETENTIONTIME: 3.708817
IONMODE: Negative
Comment: registered in RIKEN PlaSMA
Num Peaks: 50
59.00804	22
71.01771	27
107.0487	26
113.0225	64
150.06476	17
153.05481	23
165.04349	48
165.04895	17
166.05339	64
167.05818	112
168.06905	21
169.07373	21
174.06381	18
180.05353	18
180.06667	412
181.07462	1000
182.0665	39
182.07947	75
199.72437	21
205.06544	15
206.09387	32
207.09067	928
208.09373	103
209.1019	27
217.07394	530
218.08008	31
218.08896	16
219.08575	23
229.07742	23
230.08296	43
231.08243	31
231.0932	18
233.10692	197
234.11316	62
235.08836	26
243.08638	114
243.09663	194
244.0956	100
256.09445	15
256.10831	19
257.07306	36
260.12656	33
261.10538	25
267.09149	21
269.09961	21
269.11148	37
270.10641	27
271.09311	116
285.11313	32
287.12924	18

NAME: Gardnutine
PRECURSORMZ: 321.16085154783
PRECURSORTYPE: [M-H]-
INSTRUMENTTYPE: LC-ESI-QTOF
SMILES: COC1=CC2=C(C=C1)C1=C(N2)C2CC3C4COC1C4N2CC3=CC
INCHIKEY: XJTWLFBHBFSVRS-UHFFFAOYNA-N
Ontology: Macroline alkaloids
COLLISIONENERGY: 50
FORMULA: C20H22N2O2
RETENTIONTIME: 4.428817
IONMODE: Negative
Comment: registered in RIKEN PlaSMA
Num Peaks: 16
121.00403	141
131.03667	141
154.05553	289
168.05966	477
168.06763	484
169.05217	203
182.04431	141
183.05653	172
195.05237	266
196.06319	1000
197.05858	227
207.07021	164
222.07619	156
233.07567	148
244.15523	195
251.118	156

NAME: Gardnutine
PRECURSORMZ: 367.16633085183
PRECURSORTYPE: [M+FA-H]-
INSTRUMENTTYPE: LC-ESI-QTOF
SMILES: COC1=CC2=C(C=C1)C1=C(N2)C2CC3C4COC1C4N2CC3=CC
INCHIKEY: XJTWLFBHBFSVRS-UHFFFAOYNA-N
Ontology: Macroline alkaloids
COLLISIONENERGY: 50
FORMULA: C20H22N2O2
RETENTIONTIME: 4.428817
IONMODE: Negative
Comment: registered in RIKEN PlaSMA
Num Peaks: 8
168.0464	460
168.07008	1000
195.0463	286
196.06018	762
196.07257	349
206.05151	349
219.06364	524
277.1283	349

NAME: Hirsuteine
PRECURSORMZ: 365.18706624783
PRECURSORTYPE: [M-H]-
INSTRUMENTTYPE: LC-ESI-QTOF
SMILES: COC=C(C1CC2N(CCC3=C2NC2=CC=CC=C32)CC1C=C)C(=O)OC
INCHIKEY: TZUGIFAYWNNSAO-UHFFFAOYNA-N
Ontology: Corynanthean-type alkaloids
COLLISIONENERGY: 50
FORMULA: C22H26N2O3
RETENTIONTIME: 5.674817
IONMODE: Negative
Comment: registered in RIKEN PlaSMA
Num Peaks: 6
77.04115	1000
142.06825	444
149.05843	500
167.06557	370
223.0843	352
231.08459	426

NAME: Gelsemine
PRECURSORMZ: 321.16085154783
PRECURSORTYPE: [M-H]-
INSTRUMENTTYPE: LC-ESI-QTOF
SMILES: CN1CC2(C=C)C3CC4OCC3C1C2C41C(O)=NC2=CC=CC=C12
INCHIKEY: NFYYATWFXNPTRM-UHFFFAOYNA-N
Ontology: Gelsemium alkaloids
COLLISIONENERGY: 10
FORMULA: C20H22N2O2
RETENTIONTIME: 3.198583
IONMODE: Negative
Comment: registered in RIKEN PlaSMA
Num Peaks: 3
177.71501	88
200.06978	108
321.15927	1000

NAME: 5(S)-5-carboxystrictosidine
PRECURSORMZ: 573.20898344783
PRECURSORTYPE: [M-H]-
INSTRUMENTTYPE: LC-ESI-QTOF
SMILES: COC(=O)C1=COC(OC2OC(CO)C(O)C(O)C2O)C(C=C)C1CC1NC(CC2=C1NC1=CC=CC=C21)C(O)=O
INCHIKEY: LHKZIVMTXZLOTP-UHFFFAOYNA-N
Ontology: Terpene glycosides
COLLISIONENERGY: 10
FORMULA: C28H34N2O11
RETENTIONTIME: 4.13065
IONMODE: Negative
Comment: registered in RIKEN PlaSMA
Num Peaks: 129
71.014	10
72.00712	7
87.03993	7
89.02027	17
90.02672	11
92.0482	25
100.03886	12
101.02425	15
101.0432	6
102.02146	5
113.02653	5
116.04285	5
116.05016	28
119.03332	34
122.01881	7
124.0415	7
127.03093	6
127.0408	11
128.04128	7
142.06461	65
144.02977	7
144.07428	5
146.79161	5
147.04895	5
148.03755	52
148.04512	13
149.04761	8
149.06427	7
156.08272	5
156.75806	6
160.04271	15
160.08037	6
161.06662	6
164.06184	6
165.05598	7
167.06197	48
168.06332	6
168.07143	13
168.07901	34
169.07626	70
170.08119	5
171.08292	7
172.03743	7
174.05331	6
179.04884	7
179.06938	9
181.07883	20
182.08029	10
183.09138	41
185.10492	122
186.11201	12
192.58186	6
193.07401	5
195.08861	15
204.17648	7
206.04163	29
206.07106	7
207.08305	8
213.06584	5
219.09564	5
221.06143	6
223.05852	8
228.07477	6
229.09685	116
230.10236	22
235.13962	13
246.06819	5
247.08141	7
247.09012	6
248.08716	7
265.09982	59
265.13321	14
271.12418	6
272.10342	8
272.42288	6
273.13962	10
275.07397	7
282.09222	14
287.11261	21
288.08679	8
288.12347	11
289.02982	5
289.1348	26
290.10831	6
291.07742	6
292.15143	7
299.12268	40
300.3576	6
308.07166	6
309.07587	7
310.09851	8
310.12595	8
316.09436	8
317.11737	44
317.13074	230
318.13403	41
318.1586	6
319.13745	7
323.10999	5
331.14203	17
331.15109	42
332.14999	19
335.1507	6
349.15759	30
361.11606	130
361.15289	5
362.12292	51
365.52472	7
372.34262	8
375.13397	11
375.15097	5
376.13654	5
390.18481	6
393.14392	1000
393.18787	9
393.21393	6
394.14841	251
394.21155	7
395.15195	37
395.40503	8
410.35028	6
441.95987	6
497.19168	5
541.17462	11
541.19012	10
542.20776	7
567.30939	5
573.16992	7
573.21082	585

NAME: Pteropodine
PRECURSORMZ: 367.16633084783
PRECURSORTYPE: [M-H]-
INSTRUMENTTYPE: LC-ESI-QTOF
SMILES: COC(=O)C1=COC(C)C2CN3CCC4(C3CC12)C(O)=NC1=CC=CC=C41
INCHIKEY: JMIAZDVHNCCPDM-UHFFFAOYNA-N
Ontology: Indolizidines
COLLISIONENERGY: 10
FORMULA: C21H24N2O4
RETENTIONTIME: 4.22495
IONMODE: Negative
Comment: registered in RIKEN PlaSMA
Num Peaks: 16
116.05508	33
122.02301	55
144.03947	30
148.0739	35
148.08321	30
158.058	30
162.08516	48
176.0648	110
185.08263	33
208.07518	48
208.09061	42
211.12621	37
220.24951	32
230.13977	35
244.05293	33
367.1673	1000

NAME: Isorhynchophylline
PRECURSORMZ: 383.19763094783
PRECURSORTYPE: [M-H]-
INSTRUMENTTYPE: LC-ESI-QTOF
SMILES: CCC1CN2CCC3(C2CC1C(=COC)C(=O)OC)C(O)=NC1=CC=CC=C31
INCHIKEY: DAXYUDFNWXHGBE-UHFFFAOYNA-N
Ontology: Indolizidines
COLLISIONENERGY: 10
FORMULA: C22H28N2O4
RETENTIONTIME: 4.634783
IONMODE: Negative
Comment: registered in RIKEN PlaSMA
Num Peaks: 5
151.08029	96
277.76755	122
383.17532	117
383.1886	468
383.20364	1000

NAME: Gelsemine
PRECURSORMZ: 321.16085154783
PRECURSORTYPE: [M-H]-
INSTRUMENTTYPE: LC-ESI-QTOF
SMILES: CN1CC2(C=C)C3CC4OCC3C1C2C41C(O)=NC2=CC=CC=C12
INCHIKEY: NFYYATWFXNPTRM-UHFFFAOYNA-N
Ontology: Gelsemium alkaloids
COLLISIONENERGY: 10
FORMULA: C20H22N2O2
RETENTIONTIME: 3.198583
IONMODE: Negative
Comment: registered in RIKEN PlaSMA
Num Peaks: 2
101.9351	55
321.159	1000

NAME: 5(S)-5-carboxystrictosidine
PRECURSORMZ: 573.20898344783
PRECURSORTYPE: [M-H]-
INSTRUMENTTYPE: LC-ESI-QTOF
SMILES: COC(=O)C1=COC(OC2OC(CO)C(O)C(O)C2O)C(C=C)C1CC1NC(CC2=C1NC1=CC=CC=C21)C(O)=O
INCHIKEY: LHKZIVMTXZLOTP-UHFFFAOYNA-N
Ontology: Terpene glycosides
COLLISIONENERGY: 10
FORMULA: C28H34N2O11
RETENTIONTIME: 4.13065
IONMODE: Negative
Comment: registered in RIKEN PlaSMA
Num Peaks: 25
89.02718	8
92.65987	5
119.03712	8
169.07579	11
179.05032	7
229.08762	12
229.10237	21
230.09898	9
317.12744	12
318.12732	8
331.13483	11
332.13638	5
341.11526	6
349.14435	7
361.11993	45
362.12595	12
375.12964	9
376.1449	12
393.1441	1000
394.14752	185
395.14804	56
396.15204	6
541.17505	24
541.1955	8
573.20868	836

NAME: Pteropodine
PRECURSORMZ: 367.16633084783
PRECURSORTYPE: [M-H]-
INSTRUMENTTYPE: LC-ESI-QTOF
SMILES: COC(=O)C1=COC(C)C2CN3CCC4(C3CC12)C(O)=NC1=CC=CC=C41
INCHIKEY: JMIAZDVHNCCPDM-UHFFFAOYNA-N
Ontology: Indolizidines
COLLISIONENERGY: 10
FORMULA: C21H24N2O4
RETENTIONTIME: 4.22495
IONMODE: Negative
Comment: registered in RIKEN PlaSMA
Num Peaks: 2
339.16568	13
367.1658	1000

NAME: Isorhynchophylline
PRECURSORMZ: 383.19763094783
PRECURSORTYPE: [M-H]-
INSTRUMENTTYPE: LC-ESI-QTOF
SMILES: CCC1CN2CCC3(C2CC1C(=COC)C(=O)OC)C(O)=NC1=CC=CC=C31
INCHIKEY: DAXYUDFNWXHGBE-UHFFFAOYNA-N
Ontology: Indolizidines
COLLISIONENERGY: 10
FORMULA: C22H28N2O4
RETENTIONTIME: 4.634783
IONMODE: Negative
Comment: registered in RIKEN PlaSMA
Num Peaks: 3
383.18387	424
383.19965	1000
383.24139	84

NAME: Gelsemine
PRECURSORMZ: 321.16085154783
PRECURSORTYPE: [M-H]-
INSTRUMENTTYPE: LC-ESI-QTOF
SMILES: CN1CC2(C=C)C3CC4OCC3C1C2C41C(O)=NC2=CC=CC=C12
INCHIKEY: NFYYATWFXNPTRM-UHFFFAOYNA-N
Ontology: Gelsemium alkaloids
COLLISIONENERGY: 30
FORMULA: C20H22N2O2
RETENTIONTIME: 3.198583
IONMODE: Negative
Comment: registered in RIKEN PlaSMA
Num Peaks: 9
119.04906	1000
144.04189	628
158.05267	512
166.06311	488
170.05913	721
220.0824	628
222.09689	674
232.09041	465
234.11563	465

NAME: 5(S)-5-carboxystrictosidine
PRECURSORMZ: 573.20898344783
PRECURSORTYPE: [M-H]-
INSTRUMENTTYPE: LC-ESI-QTOF
SMILES: COC(=O)C1=COC(OC2OC(CO)C(O)C(O)C2O)C(C=C)C1CC1NC(CC2=C1NC1=CC=CC=C21)C(O)=O
INCHIKEY: LHKZIVMTXZLOTP-UHFFFAOYNA-N
Ontology: Terpene glycosides
COLLISIONENERGY: 30
FORMULA: C28H34N2O11
RETENTIONTIME: 4.13065
IONMODE: Negative
Comment: registered in RIKEN PlaSMA
Num Peaks: 151
59.01247	109
60.42199	20
63.09808	28
71.01194	89
72.00401	23
73.15666	18
83.01117	18
86.02482	20
89.02454	76
92.04961	129
98.11308	25
100.00514	36
100.03701	210
101.02486	188
113.0159	32
113.02603	32
116.04937	261
117.05014	56
122.00964	21
124.04482	23
127.04128	33
130.06508	42
131.02838	18
131.03722	30
135.0417	22
136.03842	22
142.06633	536
143.07414	54
144.0822	20
148.03911	314
154.06598	22
155.0658	24
155.07428	35
156.05804	20
156.06714	37
156.07828	68
156.08507	58
157.07819	133
157.73972	20
158.09941	18
160.03722	48
161.04871	21
162.04739	34
162.06262	20
164.10217	21
166.09172	30
167.06046	218
168.06044	22
168.08087	220
169.07471	458
169.08202	123
170.07904	95
171.08865	20
172.03511	22
172.08389	29
173.04784	27
174.05145	49
179.07249	21
181.06821	18
181.0778	108
181.08615	114
182.0809	47
182.09096	28
183.08717	145
183.10263	24
184.07771	28
185.04517	27
185.10771	1000
186.11009	100
186.12062	29
188.0679	20
188.08163	21
195.05457	23
195.08696	54
205.06635	20
206.05037	28
211.08725	18
213.09541	25
214.06602	21
218.07919	19
219.10252	19
221.08096	26
229.08601	18
229.09836	171
230.08539	21
230.10393	19
236.07669	37
237.11194	23
238.09615	18
247.08192	19
249.11766	27
259.10074	23
260.10403	20
260.11526	24
261.09714	51
262.11594	34
263.07446	20
265.09283	171
265.10464	100
266.10745	68
271.11636	20
271.1257	20
272.1275	32
273.06921	20
273.08084	20
273.10736	23
274.08823	26
275.09534	21
281.10382	27
282.08261	18
282.1008	30
285.08444	23
287.10944	23
287.12518	22
288.08829	18
288.09875	20
289.13126	19
289.14603	18
290.11755	18
290.14108	48
297.13171	29
299.10492	42
299.12131	38
300.09637	25
300.12491	27
302.09937	23
306.13272	24
309.07965	20
310.10144	35
314.12021	20
315.10922	82
317.11908	172
317.12955	452
317.16605	25
318.11469	22
318.1337	91
322.16885	23
323.09299	20
329.12119	19
329.1503	28
331.1131	21
331.12582	44
331.15137	170
349.1582	59
349.18414	21
350.15643	33
361.11856	212
362.11139	32
362.12714	29
393.12933	18
393.15463	43

NAME: Pteropodine
PRECURSORMZ: 367.16633084783
PRECURSORTYPE: [M-H]-
INSTRUMENTTYPE: LC-ESI-QTOF
SMILES: COC(=O)C1=COC(C)C2CN3CCC4(C3CC12)C(O)=NC1=CC=CC=C41
INCHIKEY: JMIAZDVHNCCPDM-UHFFFAOYNA-N
Ontology: Indolizidines
COLLISIONENERGY: 30
FORMULA: C21H24N2O4
RETENTIONTIME: 4.22495
IONMODE: Negative
Comment: registered in RIKEN PlaSMA
Num Peaks: 24
67.01615	245
96.04258	110
116.05172	114
122.01804	114
122.02487	84
137.04683	76
144.048	203
146.05801	122
148.07497	1000
149.07671	177
149.08675	194
152.04097	114
158.05785	308
162.43958	80
173.07161	80
174.05309	190
176.07092	397
199.05693	93
208.09271	93
217.10191	143
227.12444	198
230.13818	114
237.1237	76
308.15875	114

NAME: Isorhynchophylline
PRECURSORMZ: 383.19763094783
PRECURSORTYPE: [M-H]-
INSTRUMENTTYPE: LC-ESI-QTOF
SMILES: CCC1CN2CCC3(C2CC1C(=COC)C(=O)OC)C(O)=NC1=CC=CC=C31
INCHIKEY: DAXYUDFNWXHGBE-UHFFFAOYNA-N
Ontology: Indolizidines
COLLISIONENERGY: 30
FORMULA: C22H28N2O4
RETENTIONTIME: 4.634783
IONMODE: Negative
Comment: registered in RIKEN PlaSMA
Num Peaks: 3
145.04578	288
155.06892	1000
183.00821	250

NAME: Gelsemine
PRECURSORMZ: 321.16085154783
PRECURSORTYPE: [M-H]-
INSTRUMENTTYPE: LC-ESI-QTOF
SMILES: CN1CC2(C=C)C3CC4OCC3C1C2C41C(O)=NC2=CC=CC=C12
INCHIKEY: NFYYATWFXNPTRM-UHFFFAOYNA-N
Ontology: Gelsemium alkaloids
COLLISIONENERGY: 50
FORMULA: C20H22N2O2
RETENTIONTIME: 3.198583
IONMODE: Negative
Comment: registered in RIKEN PlaSMA
Num Peaks: 1
144.04454	1000

NAME: 5(S)-5-carboxystrictosidine
PRECURSORMZ: 573.20898344783
PRECURSORTYPE: [M-H]-
INSTRUMENTTYPE: LC-ESI-QTOF
SMILES: COC(=O)C1=COC(OC2OC(CO)C(O)C(O)C2O)C(C=C)C1CC1NC(CC2=C1NC1=CC=CC=C21)C(O)=O
INCHIKEY: LHKZIVMTXZLOTP-UHFFFAOYNA-N
Ontology: Terpene glycosides
COLLISIONENERGY: 50
FORMULA: C28H34N2O11
RETENTIONTIME: 4.13065
IONMODE: Negative
Comment: registered in RIKEN PlaSMA
Num Peaks: 128
59.01311	47
67.01665	33
69.03207	42
71.01011	62
74.00809	44
74.02519	49
75.00533	39
83.04932	37
85.02643	107
89.02337	327
94.02837	105
95.01337	70
95.05376	47
97.03098	33
100.03605	46
100.04324	81
101.02245	276
101.03623	46
104.05105	42
105.03576	167
108.04494	39
111.88531	33
112.01753	58
113.02226	118
116.04655	120
116.05296	77
117.05037	53
119.03313	105
119.04356	44
119.05546	81
121.03061	86
122.02271	221
122.03537	91
123.02424	40
123.0454	60
127.03908	214
132.04877	32
134.03548	35
135.04881	53
141.04172	40
142.06502	1000
143.0686	49
147.03801	33
147.04622	83
147.48396	35
148.04427	65
150.05843	88
153.05952	35
155.0677	35
156.06316	81
156.07246	223
156.08437	153
157.0728	35
157.08395	40
159.02722	35
165.0554	58
166.0657	102
167.05609	139
167.06866	139
168.05693	44
168.0676	72
168.08452	65
169.07378	494
169.08102	350
170.06235	62
170.07504	83
170.0864	35
172.0313	44
173.06725	46
174.05492	42
179.06917	116
180.06146	79
180.07764	83
181.07353	174
181.08566	137
182.37611	32
183.08975	44
183.09508	97
184.09599	51
185.10333	237
192.08279	67
193.0748	51
194.05777	32
195.09285	39
196.08411	49
197.07204	37
199.99344	32
204.06815	40
204.08348	54
207.09386	35
208.08594	81
208.10019	47
209.08499	33
210.12292	35
217.08023	37
219.06914	58
219.0914	44
219.10489	44
220.07771	69
220.10243	42
221.06523	49
221.11586	58
222.0752	32
232.10402	76
233.11609	67
234.08516	35
235.08389	40
237.06421	35
243.06052	35
247.09679	149
248.07899	49
256.09998	53
260.11182	35
265.10336	134
267.10272	47
267.11295	32
270.11502	72
271.08533	39
273.11078	44
274.0896	70
274.11108	105
275.08142	42
275.10168	56
282.1008	67
286.10361	40
289.13559	39
298.11374	35
316.09338	44

NAME: Pteropodine
PRECURSORMZ: 367.16633084783
PRECURSORTYPE: [M-H]-
INSTRUMENTTYPE: LC-ESI-QTOF
SMILES: COC(=O)C1=COC(C)C2CN3CCC4(C3CC12)C(O)=NC1=CC=CC=C41
INCHIKEY: JMIAZDVHNCCPDM-UHFFFAOYNA-N
Ontology: Indolizidines
COLLISIONENERGY: 50
FORMULA: C21H24N2O4
RETENTIONTIME: 4.22495
IONMODE: Negative
Comment: registered in RIKEN PlaSMA
Num Peaks: 2
144.0421	1000
158.0513	270

NAME: Isorhynchophylline
PRECURSORMZ: 383.19763094783
PRECURSORTYPE: [M-H]-
INSTRUMENTTYPE: LC-ESI-QTOF
SMILES: CCC1CN2CCC3(C2CC1C(=COC)C(=O)OC)C(O)=NC1=CC=CC=C31
INCHIKEY: DAXYUDFNWXHGBE-UHFFFAOYNA-N
Ontology: Indolizidines
COLLISIONENERGY: 50
FORMULA: C22H28N2O4
RETENTIONTIME: 4.634783
IONMODE: Negative
Comment: registered in RIKEN PlaSMA
Num Peaks: 2
108.04429	383
144.04076	1000

NAME: Gelsemine
PRECURSORMZ: 321.16085154783
PRECURSORTYPE: [M-H]-
INSTRUMENTTYPE: LC-ESI-QTOF
SMILES: CN1CC2(C=C)C3CC4OCC3C1C2C41C(O)=NC2=CC=CC=C12
INCHIKEY: NFYYATWFXNPTRM-UHFFFAOYNA-N
Ontology: Gelsemium alkaloids
COLLISIONENERGY: 10
FORMULA: C20H22N2O2
RETENTIONTIME: 3.198583
IONMODE: Negative
Comment: registered in RIKEN PlaSMA
Num Peaks: 4
148.03201	72
158.06679	69
170.86736	72
321.15524	1000

NAME: 5(S)-5-carboxystrictosidine
PRECURSORMZ: 573.20898344783
PRECURSORTYPE: [M-H]-
INSTRUMENTTYPE: LC-ESI-QTOF
SMILES: COC(=O)C1=COC(OC2OC(CO)C(O)C(O)C2O)C(C=C)C1CC1NC(CC2=C1NC1=CC=CC=C21)C(O)=O
INCHIKEY: LHKZIVMTXZLOTP-UHFFFAOYNA-N
Ontology: Terpene glycosides
COLLISIONENERGY: 10
FORMULA: C28H34N2O11
RETENTIONTIME: 4.13065
IONMODE: Negative
Comment: registered in RIKEN PlaSMA
Num Peaks: 144
60.57639	6
71.01091	10
72.01132	7
73.02643	7
89.02536	36
92.04884	16
100.00733	5
100.03915	31
100.04781	17
101.02307	20
101.04047	7
111.0075	8
113.02277	20
116.03991	5
116.0521	39
119.03118	14
122.02289	6
127.03432	7
127.04084	18
142.06737	36
142.07812	5
143.07111	12
144.08066	11
148.03674	57
148.04538	12
149.04417	5
155.06966	10
156.07761	22
156.08514	22
157.07056	16
160.03897	9
160.05051	6
161.03271	8
161.04118	16
162.05984	13
166.06383	13
167.06046	90
168.07018	31
169.07037	34
169.07747	140
169.89111	7
171.07478	7
174.05991	14
179.05092	15
179.06972	13
181.07483	7
181.08148	15
182.06874	6
183.08983	23
183.09888	12
184.06805	6
184.09206	6
185.10558	139
186.09932	11
186.11142	29
188.05682	6
195.09293	34
203.08841	7
205.07401	7
206.04153	10
206.04875	7
211.09294	11
212.0697	6
213.07066	11
213.0938	10
214.05841	5
217.18268	6
217.68405	5
220.1154	17
221.07195	10
229.09869	119
230.09552	16
231.10349	5
233.06969	6
234.08926	6
236.10698	7
244.11256	6
247.08476	7
247.12202	10
256.12057	6
257.08817	8
258.08575	7
259.12363	6
260.10626	6
261.14523	7
262.11658	6
265.08981	35
265.11169	22
265.12411	6
266.07056	8
266.0932	6
266.10403	11
268.1217	7
271.12421	32
272.10007	11
273.48859	6
274.07751	7
277.09006	10
279.11526	22
281.09149	6
287.1008	8
287.1311	6
288.10229	7
289.13242	21
289.2934	5
290.11166	9
291.08472	7
291.13599	7
299.11984	36
300.13217	5
301.10104	6
309.08401	19
315.11441	6
316.10605	25
317.12866	225
318.12753	26
318.14746	6
323.09653	8
331.09839	10
331.13721	75
331.14813	31
332.14722	24
333.1218	10
349.13507	7
349.16202	11
359.89523	6
361.11563	119
361.12668	45
362.12039	39
375.13031	36
375.15485	6
376.12073	12
376.14594	6
393.14441	1000
394.13885	113
394.15179	154
395.14154	23
395.16687	20
396.146	9
397.14948	6
524.1651	9
541.18311	25
543.20416	5
573.20825	475

NAME: Pteropodine
PRECURSORMZ: 367.16633084783
PRECURSORTYPE: [M-H]-
INSTRUMENTTYPE: LC-ESI-QTOF
SMILES: COC(=O)C1=COC(C)C2CN3CCC4(C3CC12)C(O)=NC1=CC=CC=C41
INCHIKEY: JMIAZDVHNCCPDM-UHFFFAOYNA-N
Ontology: Indolizidines
COLLISIONENERGY: 10
FORMULA: C21H24N2O4
RETENTIONTIME: 4.22495
IONMODE: Negative
Comment: registered in RIKEN PlaSMA
Num Peaks: 22
67.01833	39
69.00112	35
101.02215	30
102.03323	41
122.02291	48
127.04119	38
144.0412	32
144.0491	32
148.08051	104
153.08328	38
157.04898	48
158.05884	39
159.05795	27
176.07739	47
187.08813	32
195.08087	27
209.10408	44
210.10664	33
240.13005	30
263.07773	27
367.16479	1000
367.19403	29

NAME: Isorhynchophylline
PRECURSORMZ: 383.19763094783
PRECURSORTYPE: [M-H]-
INSTRUMENTTYPE: LC-ESI-QTOF
SMILES: CCC1CN2CCC3(C2CC1C(=COC)C(=O)OC)C(O)=NC1=CC=CC=C31
INCHIKEY: DAXYUDFNWXHGBE-UHFFFAOYNA-N
Ontology: Indolizidines
COLLISIONENERGY: 10
FORMULA: C22H28N2O4
RETENTIONTIME: 4.634783
IONMODE: Negative
Comment: registered in RIKEN PlaSMA
Num Peaks: 8
95.05374	243
114.0302	160
130.06927	136
155.06128	148
200.08946	148
203.81639	107
253.1371	178
383.19083	1000

NAME: Gelsemine
PRECURSORMZ: 321.16085154783
PRECURSORTYPE: [M-H]-
INSTRUMENTTYPE: LC-ESI-QTOF
SMILES: CN1CC2(C=C)C3CC4OCC3C1C2C41C(O)=NC2=CC=CC=C12
INCHIKEY: NFYYATWFXNPTRM-UHFFFAOYNA-N
Ontology: Gelsemium alkaloids
COLLISIONENERGY: 10
FORMULA: C20H22N2O2
RETENTIONTIME: 3.198583
IONMODE: Negative
Comment: registered in RIKEN PlaSMA
Num Peaks: 3
256.82709	50
321.16068	1000
321.18805	101

NAME: 5(S)-5-carboxystrictosidine
PRECURSORMZ: 573.20898344783
PRECURSORTYPE: [M-H]-
INSTRUMENTTYPE: LC-ESI-QTOF
SMILES: COC(=O)C1=COC(OC2OC(CO)C(O)C(O)C2O)C(C=C)C1CC1NC(CC2=C1NC1=CC=CC=C21)C(O)=O
INCHIKEY: LHKZIVMTXZLOTP-UHFFFAOYNA-N
Ontology: Terpene glycosides
COLLISIONENERGY: 10
FORMULA: C28H34N2O11
RETENTIONTIME: 4.13065
IONMODE: Negative
Comment: registered in RIKEN PlaSMA
Num Peaks: 21
119.03316	8
169.07434	7
179.05176	10
229.09319	7
317.13162	21
331.13974	13
349.14926	5
361.11789	57
361.12997	14
375.13956	8
393.1442	1000
393.1868	7
394.14731	294
395.14072	22
395.15918	17
489.96344	7
541.1853	6
542.17651	8
542.19171	7
543.1908	7
573.20972	724

NAME: Pteropodine
PRECURSORMZ: 367.16633084783
PRECURSORTYPE: [M-H]-
INSTRUMENTTYPE: LC-ESI-QTOF
SMILES: COC(=O)C1=COC(C)C2CN3CCC4(C3CC12)C(O)=NC1=CC=CC=C41
INCHIKEY: JMIAZDVHNCCPDM-UHFFFAOYNA-N
Ontology: Indolizidines
COLLISIONENERGY: 10
FORMULA: C21H24N2O4
RETENTIONTIME: 4.22495
IONMODE: Negative
Comment: registered in RIKEN PlaSMA
Num Peaks: 4
101.02301	38
175.90335	13
183.93729	19
367.16687	1000

NAME: Gelsemine
PRECURSORMZ: 321.16085154783
PRECURSORTYPE: [M-H]-
INSTRUMENTTYPE: LC-ESI-QTOF
SMILES: CN1CC2(C=C)C3CC4OCC3C1C2C41C(O)=NC2=CC=CC=C12
INCHIKEY: NFYYATWFXNPTRM-UHFFFAOYNA-N
Ontology: Gelsemium alkaloids
COLLISIONENERGY: 30
FORMULA: C20H22N2O2
RETENTIONTIME: 3.198583
IONMODE: Negative
Comment: registered in RIKEN PlaSMA
Num Peaks: 12
117.06996	286
132.04488	250
144.04105	571
144.04846	333
158.05214	250
159.26532	214
181.05658	357
182.05565	238
183.05811	310
196.07622	1000
240.13019	298
250.08897	214

NAME: Pteropodine
PRECURSORMZ: 367.16633084783
PRECURSORTYPE: [M-H]-
INSTRUMENTTYPE: LC-ESI-QTOF
SMILES: COC(=O)C1=COC(C)C2CN3CCC4(C3CC12)C(O)=NC1=CC=CC=C41
INCHIKEY: JMIAZDVHNCCPDM-UHFFFAOYNA-N
Ontology: Indolizidines
COLLISIONENERGY: 30
FORMULA: C21H24N2O4
RETENTIONTIME: 4.22495
IONMODE: Negative
Comment: registered in RIKEN PlaSMA
Num Peaks: 25
101.02383	1000
121.05807	120
124.07874	209
127.03954	791
132.0477	171
144.04543	633
148.0663	177
148.07593	703
153.0592	234
155.05482	177
158.05977	190
166.04395	209
174.05783	494
176.0654	323
176.07762	171
177.09004	222
193.08459	127
208.09798	190
208.10329	418
239.11406	114
277.07016	127
279.1387	133
289.13284	228
308.15009	139
367.16522	114

NAME: Isorhynchophylline
PRECURSORMZ: 383.19763094783
PRECURSORTYPE: [M-H]-
INSTRUMENTTYPE: LC-ESI-QTOF
SMILES: CCC1CN2CCC3(C2CC1C(=COC)C(=O)OC)C(O)=NC1=CC=CC=C31
INCHIKEY: DAXYUDFNWXHGBE-UHFFFAOYNA-N
Ontology: Indolizidines
COLLISIONENERGY: 30
FORMULA: C22H28N2O4
RETENTIONTIME: 4.634783
IONMODE: Negative
Comment: registered in RIKEN PlaSMA
Num Peaks: 6
106.06034	517
155.07249	500
158.0605	750
187.0705	550
352.17166	333
383.1951	1000

NAME: Gelsemine
PRECURSORMZ: 321.16085154783
PRECURSORTYPE: [M-H]-
INSTRUMENTTYPE: LC-ESI-QTOF
SMILES: CN1CC2(C=C)C3CC4OCC3C1C2C41C(O)=NC2=CC=CC=C12
INCHIKEY: NFYYATWFXNPTRM-UHFFFAOYNA-N
Ontology: Gelsemium alkaloids
COLLISIONENERGY: 50
FORMULA: C20H22N2O2
RETENTIONTIME: 3.198583
IONMODE: Negative
Comment: registered in RIKEN PlaSMA
Num Peaks: 2
144.04356	360
195.07016	1000

NAME: 5(S)-5-carboxystrictosidine
PRECURSORMZ: 573.20898344783
PRECURSORTYPE: [M-H]-
INSTRUMENTTYPE: LC-ESI-QTOF
SMILES: COC(=O)C1=COC(OC2OC(CO)C(O)C(O)C2O)C(C=C)C1CC1NC(CC2=C1NC1=CC=CC=C21)C(O)=O
INCHIKEY: LHKZIVMTXZLOTP-UHFFFAOYNA-N
Ontology: Terpene glycosides
COLLISIONENERGY: 50
FORMULA: C28H34N2O11
RETENTIONTIME: 4.13065
IONMODE: Negative
Comment: registered in RIKEN PlaSMA
Num Peaks: 122
59.00832	32
59.01203	77
67.02009	33
71.01306	92
72.00925	40
74.02448	102
74.02761	48
85.02838	65
86.02287	40
89.0267	81
94.02658	37
95.05248	62
100.03607	33
101.01606	39
101.02469	35
105.03069	77
110.02056	53
113.02541	55
116.04979	299
118.02264	40
121.06418	40
121.06786	92
122.02182	74
122.38869	40
123.039	49
124.02394	32
127.03847	40
129.05934	32
130.04349	49
131.05276	42
132.04179	42
134.03217	56
135.05884	44
136.03584	44
142.06302	1000
143.06531	109
144.07243	39
147.05054	48
148.03577	76
149.04051	39
149.05165	46
149.06349	48
155.06812	35
156.06747	92
156.07564	231
156.08429	83
157.0724	83
157.08459	35
158.10638	56
160.03404	49
162.04936	44
166.06413	77
167.05501	204
167.06671	204
168.05435	69
168.06503	53
168.07982	171
169.06561	44
169.07837	583
170.07492	72
170.08217	51
170.0901	37
174.05278	69
175.06294	51
180.0657	102
181.07948	210
182.06038	53
182.0878	93
183.09192	60
184.08629	35
185.09911	62
185.1118	174
187.10374	62
192.08633	86
193.07936	97
194.05913	46
194.07974	44
195.0486	35
198.07993	40
204.0807	35
207.06468	120
209.0705	53
218.0936	44
218.24573	32
219.09442	88
220.07367	42
220.08989	58
220.10168	37
223.08678	37
230.09734	63
232.1123	74
234.10245	42
235.08488	70
236.07082	90
237.09311	39
237.10506	35
242.10768	53
243.09412	33
245.10081	51
246.08591	37
246.11812	39
247.08745	125
257.07153	35
259.08017	39
259.08823	44
264.09036	32
267.11896	35
269.10959	44
276.0997	37
276.11502	35
277.09634	42
283.07919	35
286.09381	32
287.09137	35
287.12283	40
288.09698	33
288.10406	67
290.09573	44
297.10349	35
299.12067	46
301.09103	32
315.11682	86

NAME: Pteropodine
PRECURSORMZ: 367.16633084783
PRECURSORTYPE: [M-H]-
INSTRUMENTTYPE: LC-ESI-QTOF
SMILES: COC(=O)C1=COC(C)C2CN3CCC4(C3CC12)C(O)=NC1=CC=CC=C41
INCHIKEY: JMIAZDVHNCCPDM-UHFFFAOYNA-N
Ontology: Indolizidines
COLLISIONENERGY: 50
FORMULA: C21H24N2O4
RETENTIONTIME: 4.22495
IONMODE: Negative
Comment: registered in RIKEN PlaSMA
Num Peaks: 4
92.01241	1000
131.03613	241
144.04735	862
150.08	276

NAME: Isorhynchophylline
PRECURSORMZ: 383.19763094783
PRECURSORTYPE: [M-H]-
INSTRUMENTTYPE: LC-ESI-QTOF
SMILES: CCC1CN2CCC3(C2CC1C(=COC)C(=O)OC)C(O)=NC1=CC=CC=C31
INCHIKEY: DAXYUDFNWXHGBE-UHFFFAOYNA-N
Ontology: Indolizidines
COLLISIONENERGY: 50
FORMULA: C22H28N2O4
RETENTIONTIME: 4.634783
IONMODE: Negative
Comment: registered in RIKEN PlaSMA
Num Peaks: 2
144.04266	1000
166.0847	659

NAME: Gelsemine
PRECURSORMZ: 321.16085154783
PRECURSORTYPE: [M-H]-
INSTRUMENTTYPE: LC-ESI-QTOF
SMILES: CN1CC2(C=C)C3CC4OCC3C1C2C41C(O)=NC2=CC=CC=C12
INCHIKEY: NFYYATWFXNPTRM-UHFFFAOYNA-N
Ontology: Gelsemium alkaloids
COLLISIONENERGY: 10
FORMULA: C20H22N2O2
RETENTIONTIME: 3.198583
IONMODE: Negative
Comment: registered in RIKEN PlaSMA
Num Peaks: 7
133.04848	102
144.03706	68
158.05989	193
239.11517	102
291.16003	68
321.16348	1000
321.19171	76

NAME: 5(S)-5-carboxystrictosidine
PRECURSORMZ: 573.20898344783
PRECURSORTYPE: [M-H]-
INSTRUMENTTYPE: LC-ESI-QTOF
SMILES: COC(=O)C1=COC(OC2OC(CO)C(O)C(O)C2O)C(C=C)C1CC1NC(CC2=C1NC1=CC=CC=C21)C(O)=O
INCHIKEY: LHKZIVMTXZLOTP-UHFFFAOYNA-N
Ontology: Terpene glycosides
COLLISIONENERGY: 10
FORMULA: C28H34N2O11
RETENTIONTIME: 4.13065
IONMODE: Negative
Comment: registered in RIKEN PlaSMA
Num Peaks: 112
59.01255	7
59.50452	6
71.01472	5
71.04947	5
86.02396	6
89.02557	16
100.00282	10
100.03685	31
101.01969	26
101.02518	26
113.02243	19
116.04169	18
116.04729	22
119.03291	10
119.04092	8
131.03789	7
142.06303	87
143.07787	6
144.07773	8
148.03745	47
148.04276	18
148.05113	5
149.0611	6
153.05629	6
156.06166	7
156.06764	8
156.08038	22
160.03934	8
165.92957	6
166.06252	6
167.05974	28
167.07289	12
168.06696	5
168.08067	25
169.07655	151
170.06865	7
170.08334	7
171.10165	6
174.05159	21
180.08051	5
181.07954	39
183.09453	31
184.07484	5
185.10701	127
186.1097	7
187.07658	6
188.02934	10
195.09489	7
206.04001	6
207.04298	6
208.07399	6
209.07426	6
213.06519	16
229.09332	63
229.10391	30
230.09935	9
232.09506	6
233.10966	5
236.06711	11
244.09996	8
246.08841	8
247.08226	10
247.12729	5
248.09985	6
251.08456	5
253.10062	8
261.13333	9
265.09619	67
266.10345	17
271.1181	6
271.1438	6
272.09302	5
272.1344	6
273.13605	10
275.09833	9
277.09726	5
279.11075	15
279.12311	10
284.09784	6
290.11853	6
300.10327	5
301.10724	10
309.08676	6
315.11652	8
317.12912	90
317.13724	42
318.12323	21
318.13449	34
331.12326	6
331.14487	68
332.14523	6
333.11423	7
334.65891	6
350.15463	12
351.13901	8
361.11853	205
362.11252	31
362.12451	20
375.1275	17
376.14191	15
393.14297	1000
393.16928	16
394.14694	264
395.14194	21
395.15692	23
395.89456	5
396.14011	7
410.89392	5
541.16443	6
541.18707	10
542.18811	14
573.20831	458

NAME: Pteropodine
PRECURSORMZ: 367.16633084783
PRECURSORTYPE: [M-H]-
INSTRUMENTTYPE: LC-ESI-QTOF
SMILES: COC(=O)C1=COC(C)C2CN3CCC4(C3CC12)C(O)=NC1=CC=CC=C41
INCHIKEY: JMIAZDVHNCCPDM-UHFFFAOYNA-N
Ontology: Indolizidines
COLLISIONENERGY: 10
FORMULA: C21H24N2O4
RETENTIONTIME: 4.22495
IONMODE: Negative
Comment: registered in RIKEN PlaSMA
Num Peaks: 17
94.03139	55
94.03539	22
119.69547	26
120.08119	26
128.79297	40
131.03606	69
144.04486	35
146.0618	27
176.06834	28
208.08827	28
208.09969	55
235.98695	24
240.0762	28
339.17413	27
362.7872	39
367.16263	1000
367.19656	36

NAME: Isorhynchophylline
PRECURSORMZ: 383.19763094783
PRECURSORTYPE: [M-H]-
INSTRUMENTTYPE: LC-ESI-QTOF
SMILES: CCC1CN2CCC3(C2CC1C(=COC)C(=O)OC)C(O)=NC1=CC=CC=C31
INCHIKEY: DAXYUDFNWXHGBE-UHFFFAOYNA-N
Ontology: Indolizidines
COLLISIONENERGY: 10
FORMULA: C22H28N2O4
RETENTIONTIME: 4.634783
IONMODE: Negative
Comment: registered in RIKEN PlaSMA
Num Peaks: 4
158.054	129
169.06538	184
383.18533	337
383.20175	1000

NAME: Gelsemine
PRECURSORMZ: 321.16085154783
PRECURSORTYPE: [M-H]-
INSTRUMENTTYPE: LC-ESI-QTOF
SMILES: CN1CC2(C=C)C3CC4OCC3C1C2C41C(O)=NC2=CC=CC=C12
INCHIKEY: NFYYATWFXNPTRM-UHFFFAOYNA-N
Ontology: Gelsemium alkaloids
COLLISIONENERGY: 10
FORMULA: C20H22N2O2
RETENTIONTIME: 3.198583
IONMODE: Negative
Comment: registered in RIKEN PlaSMA
Num Peaks: 5
133.06578	32
134.06822	40
279.11887	38
294.14099	29
321.1619	1000

NAME: 5(S)-5-carboxystrictosidine
PRECURSORMZ: 573.20898344783
PRECURSORTYPE: [M-H]-
INSTRUMENTTYPE: LC-ESI-QTOF
SMILES: COC(=O)C1=COC(OC2OC(CO)C(O)C(O)C2O)C(C=C)C1CC1NC(CC2=C1NC1=CC=CC=C21)C(O)=O
INCHIKEY: LHKZIVMTXZLOTP-UHFFFAOYNA-N
Ontology: Terpene glycosides
COLLISIONENERGY: 10
FORMULA: C28H34N2O11
RETENTIONTIME: 4.13065
IONMODE: Negative
Comment: registered in RIKEN PlaSMA
Num Peaks: 21
229.09514	10
279.11197	7
292.9689	5
317.12616	23
317.13556	8
318.14398	5
331.14044	28
331.15268	14
361.1171	64
362.10913	5
362.12866	8
375.13394	25
375.15024	5
393.14368	1000
394.14957	243
395.14545	44
396.13956	7
541.16998	14
541.19403	12
542.18048	5
573.20905	762

NAME: Pteropodine
PRECURSORMZ: 367.16633084783
PRECURSORTYPE: [M-H]-
INSTRUMENTTYPE: LC-ESI-QTOF
SMILES: COC(=O)C1=COC(C)C2CN3CCC4(C3CC12)C(O)=NC1=CC=CC=C41
INCHIKEY: JMIAZDVHNCCPDM-UHFFFAOYNA-N
Ontology: Indolizidines
COLLISIONENERGY: 10
FORMULA: C21H24N2O4
RETENTIONTIME: 4.22495
IONMODE: Negative
Comment: registered in RIKEN PlaSMA
Num Peaks: 6
72.13213	11
158.05827	13
176.06546	12
280.08691	17
307.14264	11
367.16489	1000

NAME: Isorhynchophylline
PRECURSORMZ: 383.19763094783
PRECURSORTYPE: [M-H]-
INSTRUMENTTYPE: LC-ESI-QTOF
SMILES: CCC1CN2CCC3(C2CC1C(=COC)C(=O)OC)C(O)=NC1=CC=CC=C31
INCHIKEY: DAXYUDFNWXHGBE-UHFFFAOYNA-N
Ontology: Indolizidines
COLLISIONENERGY: 10
FORMULA: C22H28N2O4
RETENTIONTIME: 4.634783
IONMODE: Negative
Comment: registered in RIKEN PlaSMA
Num Peaks: 2
182.05782	76
383.19736	1000

NAME: Gelsemine
PRECURSORMZ: 321.16085154783
PRECURSORTYPE: [M-H]-
INSTRUMENTTYPE: LC-ESI-QTOF
SMILES: CN1CC2(C=C)C3CC4OCC3C1C2C41C(O)=NC2=CC=CC=C12
INCHIKEY: NFYYATWFXNPTRM-UHFFFAOYNA-N
Ontology: Gelsemium alkaloids
COLLISIONENERGY: 30
FORMULA: C20H22N2O2
RETENTIONTIME: 3.198583
IONMODE: Negative
Comment: registered in RIKEN PlaSMA
Num Peaks: 13
69.03289	547
131.03593	1000
132.05379	312
144.04646	703
158.05685	344
182.05444	281
193.09123	344
194.08949	406
226.09935	297
232.77393	328
250.11273	531
275.14954	344
321.16354	812

NAME: 5(S)-5-carboxystrictosidine
PRECURSORMZ: 573.20898344783
PRECURSORTYPE: [M-H]-
INSTRUMENTTYPE: LC-ESI-QTOF
SMILES: COC(=O)C1=COC(OC2OC(CO)C(O)C(O)C2O)C(C=C)C1CC1NC(CC2=C1NC1=CC=CC=C21)C(O)=O
INCHIKEY: LHKZIVMTXZLOTP-UHFFFAOYNA-N
Ontology: Terpene glycosides
COLLISIONENERGY: 30
FORMULA: C28H34N2O11
RETENTIONTIME: 4.13065
IONMODE: Negative
Comment: registered in RIKEN PlaSMA
Num Peaks: 178
56.05042	20
59.01136	48
59.01455	75
71.01129	39
71.01543	20
72.00616	23
74.0206	20
85.02856	25
89.02473	254
92.04707	54
94.93241	33
96.09322	25
100.00342	40
100.0399	181
101.02405	155
101.04272	20
102.0128	21
102.02924	25
105.03468	21
109.05993	30
113.0172	58
113.0239	90
114.02983	52
116.04445	201
116.05025	234
119.03741	29
122.0174	21
122.02335	107
125.02789	32
127.03876	168
128.03757	26
129.06606	25
131.03642	36
135.03847	22
136.05128	29
137.02136	26
142.06549	556
143.02725	20
143.06647	93
144.04559	44
144.07446	22
144.08705	24
147.04082	25
148.0358	321
148.04555	285
149.05988	56
151.05659	20
155.07715	34
156.08359	103
157.07126	138
157.0829	29
158.08748	22
158.09758	21
159.10297	45
160.03595	19
161.21651	30
162.04137	22
162.05434	48
167.06192	262
168.05113	26
168.0755	75
168.08136	166
169.06844	111
169.07899	318
170.08087	22
174.0536	197
174.06906	25
179.08258	24
179.10971	23
180.06889	32
181.0769	138
181.08461	165
182.06075	23
182.08191	19
182.09334	27
183.08841	173
183.09843	41
184.10527	41
184.63364	19
185.07156	26
185.08757	40
185.10341	1000
186.10718	130
186.64969	21
188.02957	19
195.08847	47
200.31064	27
206.04607	47
206.05844	64
208.077	21
213.06137	26
213.07257	19
220.09904	22
222.04018	21
224.06091	37
227.10065	35
229.09605	290
230.10069	47
236.06348	53
237.09952	26
238.11824	19
246.09065	29
247.10385	19
247.13516	20
248.08261	25
248.11032	25
248.12825	29
253.09924	41
259.13025	25
261.1441	21
262.08698	26
263.11392	21
265.09076	234
265.10278	108
265.13046	22
266.09766	24
266.11102	54
266.81641	22
267.1012	20
269.11453	26
271.11346	27
271.13043	88
272.07938	19
272.10455	19
272.12613	44
273.09204	22
273.13565	45
274.08051	21
274.11169	35
277.10184	78
278.12738	21
279.10007	35
279.10736	90
279.12238	39
280.11722	22
281.07904	19
281.09201	25
287.08191	62
287.09207	41
287.11658	26
288.08524	22
288.13403	21
289.1207	47
289.13452	43
290.12708	80
291.06213	20
299.10785	78
299.12292	35
300.10104	41
300.1337	33
301.10706	23
302.10251	23
309.07956	69
309.09238	21
310.11279	23
315.11185	52
317.13086	629
318.13528	191
319.13702	42
319.47769	35
321.15048	37
322.12302	23
323.09937	34
327.10062	22
327.12064	21
329.11838	19
331.14014	117
332.12952	85
332.14984	22
333.17471	23
334.15479	22
349.1618	71
352.14996	22
361.11139	99
361.12051	266
362.11969	151
363.10315	24
393.14133	80

NAME: Pteropodine
PRECURSORMZ: 367.16633084783
PRECURSORTYPE: [M-H]-
INSTRUMENTTYPE: LC-ESI-QTOF
SMILES: COC(=O)C1=COC(C)C2CN3CCC4(C3CC12)C(O)=NC1=CC=CC=C41
INCHIKEY: JMIAZDVHNCCPDM-UHFFFAOYNA-N
Ontology: Indolizidines
COLLISIONENERGY: 30
FORMULA: C21H24N2O4
RETENTIONTIME: 4.22495
IONMODE: Negative
Comment: registered in RIKEN PlaSMA
Num Peaks: 26
92.0113	64
93.02795	89
94.02815	64
101.02433	199
122.02012	80
127.03241	73
127.04127	159
133.05586	70
144.04761	343
148.07581	321
153.04196	95
153.09146	73
154.05476	64
158.0545	95
158.06224	95
158.07219	110
167.05905	73
174.05255	116
176.07181	1000
194.08482	83
199.08795	70
208.08734	73
208.10139	156
307.15414	76
367.15506	122
367.18277	83

NAME: Isorhynchophylline
PRECURSORMZ: 383.19763094783
PRECURSORTYPE: [M-H]-
INSTRUMENTTYPE: LC-ESI-QTOF
SMILES: CCC1CN2CCC3(C2CC1C(=COC)C(=O)OC)C(O)=NC1=CC=CC=C31
INCHIKEY: DAXYUDFNWXHGBE-UHFFFAOYNA-N
Ontology: Indolizidines
COLLISIONENERGY: 30
FORMULA: C22H28N2O4
RETENTIONTIME: 4.634783
IONMODE: Negative
Comment: registered in RIKEN PlaSMA
Num Peaks: 1
144.0471	1000

NAME: Gelsemine
PRECURSORMZ: 321.16085154783
PRECURSORTYPE: [M-H]-
INSTRUMENTTYPE: LC-ESI-QTOF
SMILES: CN1CC2(C=C)C3CC4OCC3C1C2C41C(O)=NC2=CC=CC=C12
INCHIKEY: NFYYATWFXNPTRM-UHFFFAOYNA-N
Ontology: Gelsemium alkaloids
COLLISIONENERGY: 50
FORMULA: C20H22N2O2
RETENTIONTIME: 3.198583
IONMODE: Negative
Comment: registered in RIKEN PlaSMA
Num Peaks: 2
144.04253	1000
208.06142	545

NAME: 5(S)-5-carboxystrictosidine
PRECURSORMZ: 573.20898344783
PRECURSORTYPE: [M-H]-
INSTRUMENTTYPE: LC-ESI-QTOF
SMILES: COC(=O)C1=COC(OC2OC(CO)C(O)C(O)C2O)C(C=C)C1CC1NC(CC2=C1NC1=CC=CC=C21)C(O)=O
INCHIKEY: LHKZIVMTXZLOTP-UHFFFAOYNA-N
Ontology: Terpene glycosides
COLLISIONENERGY: 50
FORMULA: C28H34N2O11
RETENTIONTIME: 4.13065
IONMODE: Negative
Comment: registered in RIKEN PlaSMA
Num Peaks: 127
59.01798	43
70.17687	75
71.0085	42
73.02414	45
74.02395	49
85.02995	38
89.02493	91
92.05297	126
93.03504	45
95.03429	40
95.04733	79
97.03027	57
100.03333	123
100.03945	49
101.02368	47
105.03345	53
113.01958	36
113.02535	43
116.04751	520
117.04939	65
119.02998	40
119.04029	42
121.06516	97
121.3995	36
122.01995	73
122.02722	332
122.07104	51
127.0368	77
127.04395	117
130.06761	178
131.06876	42
142.06389	607
142.07068	273
143.06078	125
143.06631	99
144.04234	40
144.07625	36
144.08855	42
149.0636	69
153.04865	40
153.05606	45
155.05739	42
155.06805	38
155.07513	53
156.06853	65
156.08069	364
157.07217	144
157.08057	128
158.03654	40
158.09618	142
159.02771	45
163.05461	42
166.06314	277
167.06056	453
168.06941	107
168.08119	219
169.07384	1000
170.07843	144
176.06825	51
178.05516	65
180.06378	115
180.07396	117
181.07593	231
182.06085	49
182.07893	150
182.09929	42
183.0907	332
183.09697	160
185.11464	196
186.1059	42
188.03528	69
192.08157	47
193.07367	55
193.08499	47
195.09351	109
195.10371	45
196.07478	40
197.07487	45
198.3546	40
204.08015	49
207.05164	40
208.06743	81
209.07849	40
215.08038	38
217.07352	140
218.09477	53
219.08321	65
223.05363	40
230.09206	65
231.0909	61
235.06804	45
235.0878	105
237.10217	36
244.10071	49
245.10609	69
246.07262	42
246.09073	192
247.09216	38
247.11958	47
249.41179	36
250.07292	38
250.08386	40
255.09636	79
263.11078	38
265.08154	43
266.10315	38
266.1152	55
271.12231	73
272.06458	36
274.08051	59
276.09534	75
279.10385	40
279.14719	43
284.08975	51
285.09036	40
286.09619	43
288.09787	38
288.12277	53
289.12808	51
290.13287	36
296.09457	36
299.06149	47
299.10007	45
299.11157	77
301.09296	40
305.12439	45
318.13382	79

NAME: Pteropodine
PRECURSORMZ: 367.16633084783
PRECURSORTYPE: [M-H]-
INSTRUMENTTYPE: LC-ESI-QTOF
SMILES: COC(=O)C1=COC(C)C2CN3CCC4(C3CC12)C(O)=NC1=CC=CC=C41
INCHIKEY: JMIAZDVHNCCPDM-UHFFFAOYNA-N
Ontology: Indolizidines
COLLISIONENERGY: 50
FORMULA: C21H24N2O4
RETENTIONTIME: 4.22495
IONMODE: Negative
Comment: registered in RIKEN PlaSMA
Num Peaks: 12
67.01575	260
91.01691	290
94.02778	410
94.03372	460
101.01845	260
112.01315	510
122.02601	510
144.04073	210
144.04991	290
146.05556	230
152.03331	1000
251.12387	200

NAME: Isorhynchophylline
PRECURSORMZ: 383.19763094783
PRECURSORTYPE: [M-H]-
INSTRUMENTTYPE: LC-ESI-QTOF
SMILES: CCC1CN2CCC3(C2CC1C(=COC)C(=O)OC)C(O)=NC1=CC=CC=C31
INCHIKEY: DAXYUDFNWXHGBE-UHFFFAOYNA-N
Ontology: Indolizidines
COLLISIONENERGY: 50
FORMULA: C22H28N2O4
RETENTIONTIME: 4.634783
IONMODE: Negative
Comment: registered in RIKEN PlaSMA
Num Peaks: 1
144.04291	1000

NAME: 14,15-Dehydro-16-epi-vincamine
PRECURSORMZ: 351.17141614783
PRECURSORTYPE: [M-H]-
INSTRUMENTTYPE: LC-ESI-QTOF
SMILES: CCC12CC(O)(N3C4=CC=CC=C4C4=C3C1N(CC4)CC=C2)C(=O)OC
INCHIKEY: BQGJXFQCMYJENQ-UHFFFAOYNA-N
Ontology: Eburnan-type alkaloids
COLLISIONENERGY: 10
FORMULA: C21H24N2O3
RETENTIONTIME: 4.255233
IONMODE: Negative
Comment: registered in RIKEN PlaSMA
Num Peaks: 9
142.06815	68
169.07262	62
208.09929	71
250.14209	71
261.10178	62
261.83627	56
262.11481	56
291.14706	1000
292.15442	62

NAME: Voacamine
PRECURSORMZ: 703.38649434783
PRECURSORTYPE: [M-H]-
INSTRUMENTTYPE: LC-ESI-QTOF
SMILES: CCC1CC2CN3CCC4=C(NC5=CC(C6CC7C(C(CC8=C6NC6=CC=CC=C86)N(C)CC7=CC)C(=O)OC)=C(OC)C=C45)C(C2)(C13)C(=O)OC
INCHIKEY: VCMIRXRRQJNZJT-UHFFFAOYNA-N
Ontology: Ibogan-type alkaloids
COLLISIONENERGY: 10
FORMULA: C43H52N4O5
RETENTIONTIME: 4.938133
IONMODE: Negative
Comment: registered in RIKEN PlaSMA
Num Peaks: 48
196.09659	5
231.69522	6
272.99716	6
352.17538	27
353.18805	12
353.20639	6
353.43112	6
354.17499	11
366.1879	10
367.20294	167
368.19955	17
368.21405	5
379.19876	14
405.25299	8
472.14618	5
490.24872	5
494.2558	6
495.24677	5
504.22897	6
506.24478	23
507.23621	9
507.26541	24
507.29596	6
512.85181	5
519.36353	5
522.28699	14
534.26794	5
546.55896	8
548.26373	9
548.27679	17
549.27405	6
550.27185	6
550.29425	11
551.29645	6
552.31354	7
592.56921	7
596.50446	8
641.3042	6
641.32513	6
642.30994	7
671.34406	9
688.3598	90
688.37982	35
689.35687	21
689.37384	43
690.33179	7
703.31006	6
703.38837	1000

NAME: Voacamine
PRECURSORMZ: 749.39197365183
PRECURSORTYPE: [M+FA-H]-
INSTRUMENTTYPE: LC-ESI-QTOF
SMILES: CCC1CC2CN3CCC4=C(NC5=CC(C6CC7C(C(CC8=C6NC6=CC=CC=C86)N(C)CC7=CC)C(=O)OC)=C(OC)C=C45)C(C2)(C13)C(=O)OC
INCHIKEY: VCMIRXRRQJNZJT-UHFFFAOYNA-N
Ontology: Ibogan-type alkaloids
COLLISIONENERGY: 10
FORMULA: C43H52N4O5
RETENTIONTIME: 4.938133
IONMODE: Negative
Comment: registered in RIKEN PlaSMA
Num Peaks: 15
287.55002	27
352.14697	53
367.21317	66
368.20465	29
522.12909	26
598.28552	27
688.35132	66
689.33118	23
703.39203	1000
704.38336	363
705.38409	57
706.38776	26
706.40979	25
733.37805	27
749.39398	25

NAME: 14,15-Dehydro-16-epi-vincamine
PRECURSORMZ: 351.17141614783
PRECURSORTYPE: [M-H]-
INSTRUMENTTYPE: LC-ESI-QTOF
SMILES: CCC12CC(O)(N3C4=CC=CC=C4C4=C3C1N(CC4)CC=C2)C(=O)OC
INCHIKEY: BQGJXFQCMYJENQ-UHFFFAOYNA-N
Ontology: Eburnan-type alkaloids
COLLISIONENERGY: 10
FORMULA: C21H24N2O3
RETENTIONTIME: 4.255233
IONMODE: Negative
Comment: registered in RIKEN PlaSMA
Num Peaks: 5
249.1367	75
265.17529	42
291.14932	1000
292.15033	160
351.16595	22

NAME: Voacamine
PRECURSORMZ: 703.38649434783
PRECURSORTYPE: [M-H]-
INSTRUMENTTYPE: LC-ESI-QTOF
SMILES: CCC1CC2CN3CCC4=C(NC5=CC(C6CC7C(C(CC8=C6NC6=CC=CC=C86)N(C)CC7=CC)C(=O)OC)=C(OC)C=C45)C(C2)(C13)C(=O)OC
INCHIKEY: VCMIRXRRQJNZJT-UHFFFAOYNA-N
Ontology: Ibogan-type alkaloids
COLLISIONENERGY: 10
FORMULA: C43H52N4O5
RETENTIONTIME: 4.938133
IONMODE: Negative
Comment: registered in RIKEN PlaSMA
Num Peaks: 8
56.24369	8
287.83313	5
351.55521	7
391.47855	5
418.07697	5
688.83734	6
703.38458	1000
703.4635	10

NAME: Voacamine
PRECURSORMZ: 749.39197365183
PRECURSORTYPE: [M+FA-H]-
INSTRUMENTTYPE: LC-ESI-QTOF
SMILES: CCC1CC2CN3CCC4=C(NC5=CC(C6CC7C(C(CC8=C6NC6=CC=CC=C86)N(C)CC7=CC)C(=O)OC)=C(OC)C=C45)C(C2)(C13)C(=O)OC
INCHIKEY: VCMIRXRRQJNZJT-UHFFFAOYNA-N
Ontology: Ibogan-type alkaloids
COLLISIONENERGY: 10
FORMULA: C43H52N4O5
RETENTIONTIME: 4.938133
IONMODE: Negative
Comment: registered in RIKEN PlaSMA
Num Peaks: 4
703.38239	1000
704.38373	533
704.42511	39
705.38721	189

NAME: 14,15-Dehydro-16-epi-vincamine
PRECURSORMZ: 351.17141614783
PRECURSORTYPE: [M-H]-
INSTRUMENTTYPE: LC-ESI-QTOF
SMILES: CCC12CC(O)(N3C4=CC=CC=C4C4=C3C1N(CC4)CC=C2)C(=O)OC
INCHIKEY: BQGJXFQCMYJENQ-UHFFFAOYNA-N
Ontology: Eburnan-type alkaloids
COLLISIONENERGY: 30
FORMULA: C21H24N2O3
RETENTIONTIME: 4.255233
IONMODE: Negative
Comment: registered in RIKEN PlaSMA
Num Peaks: 9
142.05827	346
167.06657	827
167.99348	235
169.07565	420
234.12009	395
249.13948	1000
262.12018	346
273.14093	222
291.14868	494

NAME: Voacamine
PRECURSORMZ: 703.38649434783
PRECURSORTYPE: [M-H]-
INSTRUMENTTYPE: LC-ESI-QTOF
SMILES: CCC1CC2CN3CCC4=C(NC5=CC(C6CC7C(C(CC8=C6NC6=CC=CC=C86)N(C)CC7=CC)C(=O)OC)=C(OC)C=C45)C(C2)(C13)C(=O)OC
INCHIKEY: VCMIRXRRQJNZJT-UHFFFAOYNA-N
Ontology: Ibogan-type alkaloids
COLLISIONENERGY: 30
FORMULA: C43H52N4O5
RETENTIONTIME: 4.938133
IONMODE: Negative
Comment: registered in RIKEN PlaSMA
Num Peaks: 64
168.11278	11
266.08401	9
279.32214	8
291.14355	11
347.17404	8
352.17078	52
352.18884	9
352.61371	8
353.18011	35
366.20316	23
367.20248	622
368.20151	36
368.21588	23
370.20303	13
373.81738	11
390.22482	8
434.23911	8
448.22736	18
485.45468	9
491.25629	8
492.21765	17
494.23068	22
506.24744	31
507.24353	61
508.2627	16
513.24237	8
518.80676	12
520.26886	16
525.98792	8
541.52972	9
547.29785	11
548.25238	10
548.27399	26
549.29089	32
550.28784	22
552.29578	8
577.18994	11
580.28601	8
596.4306	8
614.29645	8
628.35217	8
629.32648	12
641.30585	9
656.32715	16
658.33691	14
671.36157	8
672.34088	14
673.29114	12
673.31415	9
673.34888	8
687.65759	8
688.33112	62
688.36859	571
689.02032	11
689.16248	10
689.36682	284
690.20844	13
690.34656	23
690.37335	17
690.42255	11
691.35809	14
700.23383	10
703.31726	22
703.38788	1000

NAME: Voacamine
PRECURSORMZ: 749.39197365183
PRECURSORTYPE: [M+FA-H]-
INSTRUMENTTYPE: LC-ESI-QTOF
SMILES: CCC1CC2CN3CCC4=C(NC5=CC(C6CC7C(C(CC8=C6NC6=CC=CC=C86)N(C)CC7=CC)C(=O)OC)=C(OC)C=C45)C(C2)(C13)C(=O)OC
INCHIKEY: VCMIRXRRQJNZJT-UHFFFAOYNA-N
Ontology: Ibogan-type alkaloids
COLLISIONENERGY: 30
FORMULA: C43H52N4O5
RETENTIONTIME: 4.938133
IONMODE: Negative
Comment: registered in RIKEN PlaSMA
Num Peaks: 12
361.83978	69
367.19681	97
367.22287	42
659.32635	46
688.36957	114
689.37054	88
691.37854	48
703.35846	255
703.38666	1000
704.38123	312
704.40338	417
705.3927	293

NAME: 14,15-Dehydro-16-epi-vincamine
PRECURSORMZ: 351.17141614783
PRECURSORTYPE: [M-H]-
INSTRUMENTTYPE: LC-ESI-QTOF
SMILES: CCC12CC(O)(N3C4=CC=CC=C4C4=C3C1N(CC4)CC=C2)C(=O)OC
INCHIKEY: BQGJXFQCMYJENQ-UHFFFAOYNA-N
Ontology: Eburnan-type alkaloids
COLLISIONENERGY: 50
FORMULA: C21H24N2O3
RETENTIONTIME: 4.255233
IONMODE: Negative
Comment: registered in RIKEN PlaSMA
Num Peaks: 2
141.04587	289
142.06671	1000

NAME: Voacamine
PRECURSORMZ: 703.38649434783
PRECURSORTYPE: [M-H]-
INSTRUMENTTYPE: LC-ESI-QTOF
SMILES: CCC1CC2CN3CCC4=C(NC5=CC(C6CC7C(C(CC8=C6NC6=CC=CC=C86)N(C)CC7=CC)C(=O)OC)=C(OC)C=C45)C(C2)(C13)C(=O)OC
INCHIKEY: VCMIRXRRQJNZJT-UHFFFAOYNA-N
Ontology: Ibogan-type alkaloids
COLLISIONENERGY: 50
FORMULA: C43H52N4O5
RETENTIONTIME: 4.938133
IONMODE: Negative
Comment: registered in RIKEN PlaSMA
Num Peaks: 156
118.03057	16
122.06026	15
138.07404	14
142.06375	15
154.05304	22
157.37219	17
166.06223	57
167.05936	54
172.06326	14
180.06712	18
186.07811	14
194.12021	15
195.09933	18
195.11047	15
251.12146	15
268.16791	20
290.12442	15
293.09845	14
293.13162	28
293.16229	17
294.10974	15
294.17703	42
295.13809	25
295.17902	17
297.10019	18
297.10797	32
300.14856	36
303.19138	32
304.34155	14
311.12637	20
314.1543	26
320.14996	16
320.39127	19
322.1174	14
323.11942	28
338.12665	14
340.13516	19
341.08087	14
347.17355	14
351.1763	31
352.14966	21
352.1785	1000
353.16724	63
353.18301	326
354.1557	35
354.19012	76
355.16013	15
355.17233	16
355.19714	15
365.18958	20
366.23492	15
367.18637	72
367.20432	171
368.19824	39
368.21915	22
377.13391	25
377.18271	18
378.20245	17
379.19965	133
380.18729	36
380.22144	20
381.21201	15
400.18332	15
404.17148	25
405.20285	36
410.1586	15
413.7565	15
417.15076	18
418.19785	15
419.18884	15
432.72989	14
446.22632	19
447.19116	28
447.22668	15
448.23724	32
449.23767	21
452.18698	17
452.24829	15
455.19846	14
460.21118	15
462.21246	21
462.25525	30
463.17831	14
466.22174	27
469.21848	22
473.20123	14
478.19681	16
480.24149	16
481.23953	14
482.24335	25
486.21298	14
487.2153	24
488.22891	34
489.26294	19
490.25107	39
490.29944	21
491.12015	20
491.25723	46
492.2193	77
492.23447	177
493.04886	15
493.21783	45
493.24588	150
494.2352	109
494.27563	15
505.29617	18
506.20593	16
506.23715	167
506.26898	27
507.24844	172
508.26477	75
509.25769	51
514.25531	15
516.26434	15
517.26532	14
518.21619	29
518.23596	65
518.27448	42
519.2262	15
520.23792	14
520.26416	68
529.24707	14
531.2829	15
532.23169	18
533.2392	37
534.21747	19
534.25714	44
534.27545	22
535.25214	52
536.27612	14
546.12006	19
546.30676	25
547.28729	42
548.27789	49
549.28607	66
549.30005	106
550.29926	59
551.27106	20
551.29138	94
551.32184	22
552.29797	18
558.26447	15
584.31592	15
587.28326	23
602.30383	15
612.34088	19
640.32147	15
641.31433	15
641.36859	19
671.34131	15
672.34949	15
672.36682	22
688.31769	16
688.34052	15
689.37805	15
692.36615	18

NAME: Voacamine
PRECURSORMZ: 749.39197365183
PRECURSORTYPE: [M+FA-H]-
INSTRUMENTTYPE: LC-ESI-QTOF
SMILES: CCC1CC2CN3CCC4=C(NC5=CC(C6CC7C(C(CC8=C6NC6=CC=CC=C86)N(C)CC7=CC)C(=O)OC)=C(OC)C=C45)C(C2)(C13)C(=O)OC
INCHIKEY: VCMIRXRRQJNZJT-UHFFFAOYNA-N
Ontology: Ibogan-type alkaloids
COLLISIONENERGY: 50
FORMULA: C43H52N4O5
RETENTIONTIME: 4.938133
IONMODE: Negative
Comment: registered in RIKEN PlaSMA
Num Peaks: 21
158.06187	189
339.17203	302
352.17377	377
354.16812	236
367.18607	302
367.1998	1000
368.22348	189
480.23718	179
490.25827	226
493.2272	255
506.24655	226
507.25595	189
508.25534	443
509.2634	443
519.23285	226
521.26556	189
531.27386	179
532.24646	189
550.27979	453
688.36249	500
704.37085	255

NAME: 14,15-Dehydro-16-epi-vincamine
PRECURSORMZ: 351.17141614783
PRECURSORTYPE: [M-H]-
INSTRUMENTTYPE: LC-ESI-QTOF
SMILES: CCC12CC(O)(N3C4=CC=CC=C4C4=C3C1N(CC4)CC=C2)C(=O)OC
INCHIKEY: BQGJXFQCMYJENQ-UHFFFAOYNA-N
Ontology: Eburnan-type alkaloids
COLLISIONENERGY: 10
FORMULA: C21H24N2O3
RETENTIONTIME: 4.255233
IONMODE: Negative
Comment: registered in RIKEN PlaSMA
Num Peaks: 8
249.11661	35
249.13837	39
250.14403	35
262.11249	46
263.11963	79
291.14905	1000
292.16019	60
293.15671	114

NAME: Voacamine
PRECURSORMZ: 703.38649434783
PRECURSORTYPE: [M-H]-
INSTRUMENTTYPE: LC-ESI-QTOF
SMILES: CCC1CC2CN3CCC4=C(NC5=CC(C6CC7C(C(CC8=C6NC6=CC=CC=C86)N(C)CC7=CC)C(=O)OC)=C(OC)C=C45)C(C2)(C13)C(=O)OC
INCHIKEY: VCMIRXRRQJNZJT-UHFFFAOYNA-N
Ontology: Ibogan-type alkaloids
COLLISIONENERGY: 10
FORMULA: C43H52N4O5
RETENTIONTIME: 4.938133
IONMODE: Negative
Comment: registered in RIKEN PlaSMA
Num Peaks: 39
228.80424	5
293.12708	5
298.51617	5
299.11682	8
313.1272	5
352.17923	6
352.19125	15
353.18018	23
353.19757	14
362.91049	6
365.17371	6
365.18423	9
367.20328	146
368.19717	35
368.66779	5
369.20703	6
380.2041	6
491.26596	6
494.25217	5
506.24374	10
507.23459	12
508.26764	9
515.07281	11
535.25739	5
547.28387	5
548.2995	12
549.28864	5
549.30286	6
593.27875	9
657.36591	6
671.36017	7
688.23773	5
688.34369	34
688.37012	48
689.35669	24
689.37726	13
690.638	5
692.36188	6
703.38733	1000

NAME: Voacamine
PRECURSORMZ: 749.39197365183
PRECURSORTYPE: [M+FA-H]-
INSTRUMENTTYPE: LC-ESI-QTOF
SMILES: CCC1CC2CN3CCC4=C(NC5=CC(C6CC7C(C(CC8=C6NC6=CC=CC=C86)N(C)CC7=CC)C(=O)OC)=C(OC)C=C45)C(C2)(C13)C(=O)OC
INCHIKEY: VCMIRXRRQJNZJT-UHFFFAOYNA-N
Ontology: Ibogan-type alkaloids
COLLISIONENERGY: 10
FORMULA: C43H52N4O5
RETENTIONTIME: 4.938133
IONMODE: Negative
Comment: registered in RIKEN PlaSMA
Num Peaks: 22
352.17169	26
367.19388	50
367.21274	49
368.20474	69
379.18872	28
383.29208	28
506.25183	50
507.22815	31
508.2536	50
630.36383	22
656.34741	31
659.36597	32
688.35596	68
689.35297	47
689.38593	68
689.40955	26
692.3078	30
703.38757	1000
704.35876	80
704.39532	459
705.38812	134
706.41089	39

NAME: 14,15-Dehydro-16-epi-vincamine
PRECURSORMZ: 351.17141614783
PRECURSORTYPE: [M-H]-
INSTRUMENTTYPE: LC-ESI-QTOF
SMILES: CCC12CC(O)(N3C4=CC=CC=C4C4=C3C1N(CC4)CC=C2)C(=O)OC
INCHIKEY: BQGJXFQCMYJENQ-UHFFFAOYNA-N
Ontology: Eburnan-type alkaloids
COLLISIONENERGY: 10
FORMULA: C21H24N2O3
RETENTIONTIME: 4.255233
IONMODE: Negative
Comment: registered in RIKEN PlaSMA
Num Peaks: 9
125.00742	21
249.13397	49
250.13622	27
291.14639	1000
292.13318	29
292.15564	286
321.10999	58
351.1658	21
351.17969	20

NAME: Voacamine
PRECURSORMZ: 703.38649434783
PRECURSORTYPE: [M-H]-
INSTRUMENTTYPE: LC-ESI-QTOF
SMILES: CCC1CC2CN3CCC4=C(NC5=CC(C6CC7C(C(CC8=C6NC6=CC=CC=C86)N(C)CC7=CC)C(=O)OC)=C(OC)C=C45)C(C2)(C13)C(=O)OC
INCHIKEY: VCMIRXRRQJNZJT-UHFFFAOYNA-N
Ontology: Ibogan-type alkaloids
COLLISIONENERGY: 10
FORMULA: C43H52N4O5
RETENTIONTIME: 4.938133
IONMODE: Negative
Comment: registered in RIKEN PlaSMA
Num Peaks: 6
140.73969	7
329.60587	6
380.90985	6
494.94897	6
689.35944	6
703.38776	1000

NAME: Voacamine
PRECURSORMZ: 749.39197365183
PRECURSORTYPE: [M+FA-H]-
INSTRUMENTTYPE: LC-ESI-QTOF
SMILES: CCC1CC2CN3CCC4=C(NC5=CC(C6CC7C(C(CC8=C6NC6=CC=CC=C86)N(C)CC7=CC)C(=O)OC)=C(OC)C=C45)C(C2)(C13)C(=O)OC
INCHIKEY: VCMIRXRRQJNZJT-UHFFFAOYNA-N
Ontology: Ibogan-type alkaloids
COLLISIONENERGY: 10
FORMULA: C43H52N4O5
RETENTIONTIME: 4.938133
IONMODE: Negative
Comment: registered in RIKEN PlaSMA
Num Peaks: 10
703.38623	1000
704.36591	133
704.38361	407
704.44128	30
705.38757	30
705.40253	50
706.38287	85
720.35919	59
747.96033	24
749.38263	61

NAME: 14,15-Dehydro-16-epi-vincamine
PRECURSORMZ: 351.17141614783
PRECURSORTYPE: [M-H]-
INSTRUMENTTYPE: LC-ESI-QTOF
SMILES: CCC12CC(O)(N3C4=CC=CC=C4C4=C3C1N(CC4)CC=C2)C(=O)OC
INCHIKEY: BQGJXFQCMYJENQ-UHFFFAOYNA-N
Ontology: Eburnan-type alkaloids
COLLISIONENERGY: 30
FORMULA: C21H24N2O3
RETENTIONTIME: 4.255233
IONMODE: Negative
Comment: registered in RIKEN PlaSMA
Num Peaks: 7
150.91681	437
183.08655	352
208.10283	394
222.08333	620
237.10457	380
249.13622	1000
262.12872	296

NAME: Voacamine
PRECURSORMZ: 703.38649434783
PRECURSORTYPE: [M-H]-
INSTRUMENTTYPE: LC-ESI-QTOF
SMILES: CCC1CC2CN3CCC4=C(NC5=CC(C6CC7C(C(CC8=C6NC6=CC=CC=C86)N(C)CC7=CC)C(=O)OC)=C(OC)C=C45)C(C2)(C13)C(=O)OC
INCHIKEY: VCMIRXRRQJNZJT-UHFFFAOYNA-N
Ontology: Ibogan-type alkaloids
COLLISIONENERGY: 30
FORMULA: C43H52N4O5
RETENTIONTIME: 4.938133
IONMODE: Negative
Comment: registered in RIKEN PlaSMA
Num Peaks: 67
158.4325	8
310.16235	10
335.1871	14
341.14758	8
352.16364	12
352.18732	27
353.16275	10
353.17682	9
367.20016	624
368.19891	70
368.20874	111
369.20853	19
379.20419	18
379.22299	8
409.11862	14
435.68323	7
448.04974	9
448.93527	9
474.35269	9
480.22858	10
491.23825	9
491.26163	9
492.22061	7
495.23407	7
506.24872	8
507.2536	91
507.78265	9
508.2579	39
511.64401	7
520.25592	14
521.2406	9
521.26953	10
543.30975	12
548.25751	12
548.27704	36
549.28986	27
549.32782	9
550.28845	9
551.30273	8
566.2868	9
570.29718	8
613.28735	9
628.29126	9
657.38452	13
671.30273	9
671.3468	7
671.37543	9
673.3396	9
673.36523	11
674.32745	9
674.34485	11
688.30048	8
688.36414	678
688.4093	29
689.35889	133
689.38751	57
689.41187	27
690.33887	28
690.3678	34
690.38776	10
691.3454	15
691.375	7
693.03986	8
701.38037	8
703.38092	1000
703.43866	9
703.46356	9

NAME: Voacamine
PRECURSORMZ: 749.39197365183
PRECURSORTYPE: [M+FA-H]-
INSTRUMENTTYPE: LC-ESI-QTOF
SMILES: CCC1CC2CN3CCC4=C(NC5=CC(C6CC7C(C(CC8=C6NC6=CC=CC=C86)N(C)CC7=CC)C(=O)OC)=C(OC)C=C45)C(C2)(C13)C(=O)OC
INCHIKEY: VCMIRXRRQJNZJT-UHFFFAOYNA-N
Ontology: Ibogan-type alkaloids
COLLISIONENERGY: 30
FORMULA: C43H52N4O5
RETENTIONTIME: 4.938133
IONMODE: Negative
Comment: registered in RIKEN PlaSMA
Num Peaks: 10
367.19022	35
379.20767	29
379.96957	68
688.32642	63
689.37811	55
703.36469	250
703.38519	1000
704.38251	413
705.3941	154
706.39209	26

NAME: 14,15-Dehydro-16-epi-vincamine
PRECURSORMZ: 351.17141614783
PRECURSORTYPE: [M-H]-
INSTRUMENTTYPE: LC-ESI-QTOF
SMILES: CCC12CC(O)(N3C4=CC=CC=C4C4=C3C1N(CC4)CC=C2)C(=O)OC
INCHIKEY: BQGJXFQCMYJENQ-UHFFFAOYNA-N
Ontology: Eburnan-type alkaloids
COLLISIONENERGY: 50
FORMULA: C21H24N2O3
RETENTIONTIME: 4.255233
IONMODE: Negative
Comment: registered in RIKEN PlaSMA
Num Peaks: 5
142.06712	1000
149.06479	297
169.08369	311
208.09358	284
233.10805	243

NAME: Voacamine
PRECURSORMZ: 703.38649434783
PRECURSORTYPE: [M-H]-
INSTRUMENTTYPE: LC-ESI-QTOF
SMILES: CCC1CC2CN3CCC4=C(NC5=CC(C6CC7C(C(CC8=C6NC6=CC=CC=C86)N(C)CC7=CC)C(=O)OC)=C(OC)C=C45)C(C2)(C13)C(=O)OC
INCHIKEY: VCMIRXRRQJNZJT-UHFFFAOYNA-N
Ontology: Ibogan-type alkaloids
COLLISIONENERGY: 50
FORMULA: C43H52N4O5
RETENTIONTIME: 4.938133
IONMODE: Negative
Comment: registered in RIKEN PlaSMA
Num Peaks: 174
132.04315	21
142.95827	17
152.06638	18
154.05666	27
158.28276	15
159.15657	19
165.08633	14
167.06259	29
169.07184	20
171.0576	29
171.06725	21
182.08482	26
185.07132	21
193.07297	21
196.07114	21
196.09164	41
224.06215	17
226.08344	25
249.12852	34
250.12518	23
286.54291	16
287.10428	14
292.12476	17
293.1626	18
295.2048	16
299.11176	17
302.13232	19
304.15338	18
305.16318	20
311.11829	16
313.12915	23
314.11093	17
320.15555	16
323.09436	27
323.13678	35
327.15512	18
328.15335	33
334.15439	16
334.16876	18
336.11694	16
340.13785	21
340.15787	20
341.14322	15
346.18405	16
349.186	21
351.12622	17
352.14169	21
352.17691	1000
352.2294	16
353.16376	39
353.1853	326
353.45242	14
354.17459	25
354.18839	41
355.13055	15
356.17941	19
366.18967	16
367.20023	150
368.19281	49
369.19562	16
376.14273	45
379.17828	24
379.20642	57
380.1915	18
380.21716	18
381.18079	20
381.2092	23
392.18991	14
405.18063	16
408.20404	15
408.22672	16
416.16339	18
420.2153	21
433.16479	18
434.20523	18
435.23911	15
436.22937	20
437.23428	14
443.24841	17
445.22287	42
446.19061	21
446.21991	14
448.23138	15
448.24957	14
457.20505	26
458.22571	15
460.2345	18
461.22546	18
462.18848	24
462.20023	16
463.15884	18
464.28735	16
474.24008	15
475.21924	21
477.25461	14
478.215	17
479.23679	14
480.21411	42
481.23865	14
487.21866	18
489.23581	16
490.25363	83
491.21133	14
491.2627	21
492.22324	154
492.25616	47
493.15417	14
493.23199	64
493.24551	46
494.22031	17
494.24438	88
495.23599	22
496.2493	32
499.23935	16
502.2355	41
504.21982	21
506.23938	178
507.23355	17
507.25784	90
508.24673	43
508.26593	93
509.25977	37
509.28952	16
516.26007	41
517.25684	42
518.22034	16
518.24567	53
518.27338	16
519.22913	46
519.25079	22
520.25769	33
527.21124	15
530.27246	15
532.27411	29
534.25153	121
534.27179	57
535.25818	37
535.27551	37
546.21069	17
546.25659	22
547.26276	20
548.27063	34
548.29016	15
549.29974	154
550.24878	17
550.2818	77
550.29901	54
552.34229	25
558.2356	14
560.25537	25
572.29865	16
576.23822	17
578.26422	14
584.26514	21
594.27087	16
598.33807	22
599.32043	15
615.31116	30
626.27826	16
629.3429	18
630.34363	14
640.36127	16
641.33173	18
642.31696	36
656.33649	26
671.36279	14
671.383	18
672.35626	25
672.37909	14
675.33734	18
688.34332	65
688.36914	38
689.37683	17
691.36652	14

NAME: Voacamine
PRECURSORMZ: 749.39197365183
PRECURSORTYPE: [M+FA-H]-
INSTRUMENTTYPE: LC-ESI-QTOF
SMILES: CCC1CC2CN3CCC4=C(NC5=CC(C6CC7C(C(CC8=C6NC6=CC=CC=C86)N(C)CC7=CC)C(=O)OC)=C(OC)C=C45)C(C2)(C13)C(=O)OC
INCHIKEY: VCMIRXRRQJNZJT-UHFFFAOYNA-N
Ontology: Ibogan-type alkaloids
COLLISIONENERGY: 50
FORMULA: C43H52N4O5
RETENTIONTIME: 4.938133
IONMODE: Negative
Comment: registered in RIKEN PlaSMA
Num Peaks: 22
199.05952	153
309.20572	160
310.11597	183
352.17603	985
367.18427	137
367.20377	1000
368.20587	160
379.21033	137
380.19241	221
381.21106	191
392.16574	137
442.13519	191
448.23999	160
492.22757	229
493.22101	229
495.24377	206
507.23914	183
520.27118	153
544.23041	221
549.26349	489
551.27728	145
673.36768	137

NAME: 14,15-Dehydro-16-epi-vincamine
PRECURSORMZ: 351.17141614783
PRECURSORTYPE: [M-H]-
INSTRUMENTTYPE: LC-ESI-QTOF
SMILES: CCC12CC(O)(N3C4=CC=CC=C4C4=C3C1N(CC4)CC=C2)C(=O)OC
INCHIKEY: BQGJXFQCMYJENQ-UHFFFAOYNA-N
Ontology: Eburnan-type alkaloids
COLLISIONENERGY: 10
FORMULA: C21H24N2O3
RETENTIONTIME: 4.255233
IONMODE: Negative
Comment: registered in RIKEN PlaSMA
Num Peaks: 6
167.04805	37
169.07721	194
249.14406	87
262.11337	68
291.14954	1000
292.15814	96

NAME: Voacamine
PRECURSORMZ: 703.38649434783
PRECURSORTYPE: [M-H]-
INSTRUMENTTYPE: LC-ESI-QTOF
SMILES: CCC1CC2CN3CCC4=C(NC5=CC(C6CC7C(C(CC8=C6NC6=CC=CC=C86)N(C)CC7=CC)C(=O)OC)=C(OC)C=C45)C(C2)(C13)C(=O)OC
INCHIKEY: VCMIRXRRQJNZJT-UHFFFAOYNA-N
Ontology: Ibogan-type alkaloids
COLLISIONENERGY: 10
FORMULA: C43H52N4O5
RETENTIONTIME: 4.938133
IONMODE: Negative
Comment: registered in RIKEN PlaSMA
Num Peaks: 35
227.09497	8
327.43115	6
352.18173	36
352.1918	16
353.17468	7
367.19836	161
368.19592	31
368.21118	26
369.21265	6
378.20029	11
379.21097	14
492.23016	6
506.22925	6
506.24765	7
507.24722	7
522.24908	6
546.31305	6
547.26215	7
548.27026	18
549.29047	5
550.29089	28
551.30457	6
555.65887	7
615.35699	5
617.70233	7
630.3653	5
656.27557	5
671.38196	6
673.36786	6
688.35138	53
688.37732	35
689.35352	24
689.38477	8
690.37262	8
703.38586	1000

NAME: Voacamine
PRECURSORMZ: 749.39197365183
PRECURSORTYPE: [M+FA-H]-
INSTRUMENTTYPE: LC-ESI-QTOF
SMILES: CCC1CC2CN3CCC4=C(NC5=CC(C6CC7C(C(CC8=C6NC6=CC=CC=C86)N(C)CC7=CC)C(=O)OC)=C(OC)C=C45)C(C2)(C13)C(=O)OC
INCHIKEY: VCMIRXRRQJNZJT-UHFFFAOYNA-N
Ontology: Ibogan-type alkaloids
COLLISIONENERGY: 10
FORMULA: C43H52N4O5
RETENTIONTIME: 4.938133
IONMODE: Negative
Comment: registered in RIKEN PlaSMA
Num Peaks: 24
367.19391	21
367.22116	34
367.23373	40
368.20743	71
369.82919	24
402.42438	23
491.04993	21
507.23938	23
509.24338	28
549.2901	23
670.79865	23
688.33905	55
688.36743	34
690.36407	23
696.90948	24
697.11871	28
703.3855	1000
703.44275	28
704.37482	110
704.40387	72
704.44971	33
705.37341	43
705.40271	21
706.40112	42

NAME: 14,15-Dehydro-16-epi-vincamine
PRECURSORMZ: 351.17141614783
PRECURSORTYPE: [M-H]-
INSTRUMENTTYPE: LC-ESI-QTOF
SMILES: CCC12CC(O)(N3C4=CC=CC=C4C4=C3C1N(CC4)CC=C2)C(=O)OC
INCHIKEY: BQGJXFQCMYJENQ-UHFFFAOYNA-N
Ontology: Eburnan-type alkaloids
COLLISIONENERGY: 10
FORMULA: C21H24N2O3
RETENTIONTIME: 4.255233
IONMODE: Negative
Comment: registered in RIKEN PlaSMA
Num Peaks: 6
249.13353	19
250.14999	22
291.14944	1000
292.15927	129
293.15417	62
351.16498	17

NAME: Voacamine
PRECURSORMZ: 703.38649434783
PRECURSORTYPE: [M-H]-
INSTRUMENTTYPE: LC-ESI-QTOF
SMILES: CCC1CC2CN3CCC4=C(NC5=CC(C6CC7C(C(CC8=C6NC6=CC=CC=C86)N(C)CC7=CC)C(=O)OC)=C(OC)C=C45)C(C2)(C13)C(=O)OC
INCHIKEY: VCMIRXRRQJNZJT-UHFFFAOYNA-N
Ontology: Ibogan-type alkaloids
COLLISIONENERGY: 10
FORMULA: C43H52N4O5
RETENTIONTIME: 4.938133
IONMODE: Negative
Comment: registered in RIKEN PlaSMA
Num Peaks: 3
683.75305	5
687.9549	5
703.38574	1000

NAME: Voacamine
PRECURSORMZ: 749.39197365183
PRECURSORTYPE: [M+FA-H]-
INSTRUMENTTYPE: LC-ESI-QTOF
SMILES: CCC1CC2CN3CCC4=C(NC5=CC(C6CC7C(C(CC8=C6NC6=CC=CC=C86)N(C)CC7=CC)C(=O)OC)=C(OC)C=C45)C(C2)(C13)C(=O)OC
INCHIKEY: VCMIRXRRQJNZJT-UHFFFAOYNA-N
Ontology: Ibogan-type alkaloids
COLLISIONENERGY: 10
FORMULA: C43H52N4O5
RETENTIONTIME: 4.938133
IONMODE: Negative
Comment: registered in RIKEN PlaSMA
Num Peaks: 10
435.27484	31
436.55286	25
703.38708	1000
703.44568	70
704.37366	252
704.39886	448
705.37805	137
705.40295	90
706.36151	23
749.38867	139

NAME: 14,15-Dehydro-16-epi-vincamine
PRECURSORMZ: 351.17141614783
PRECURSORTYPE: [M-H]-
INSTRUMENTTYPE: LC-ESI-QTOF
SMILES: CCC12CC(O)(N3C4=CC=CC=C4C4=C3C1N(CC4)CC=C2)C(=O)OC
INCHIKEY: BQGJXFQCMYJENQ-UHFFFAOYNA-N
Ontology: Eburnan-type alkaloids
COLLISIONENERGY: 30
FORMULA: C21H24N2O3
RETENTIONTIME: 4.255233
IONMODE: Negative
Comment: registered in RIKEN PlaSMA
Num Peaks: 10
121.06059	308
142.06866	277
183.08601	354
183.09427	415
217.07983	292
223.07463	385
249.13423	1000
249.14943	662
250.14096	323
291.14835	292

NAME: Voacamine
PRECURSORMZ: 703.38649434783
PRECURSORTYPE: [M-H]-
INSTRUMENTTYPE: LC-ESI-QTOF
SMILES: CCC1CC2CN3CCC4=C(NC5=CC(C6CC7C(C(CC8=C6NC6=CC=CC=C86)N(C)CC7=CC)C(=O)OC)=C(OC)C=C45)C(C2)(C13)C(=O)OC
INCHIKEY: VCMIRXRRQJNZJT-UHFFFAOYNA-N
Ontology: Ibogan-type alkaloids
COLLISIONENERGY: 30
FORMULA: C43H52N4O5
RETENTIONTIME: 4.938133
IONMODE: Negative
Comment: registered in RIKEN PlaSMA
Num Peaks: 64
91.91073	8
136.50565	12
154.36374	7
207.99629	6
352.17279	29
352.19293	11
353.17593	24
353.1951	8
355.18909	14
366.19308	7
367.19937	428
368.18652	9
368.20724	169
368.95334	6
369.20688	5
379.19821	6
380.20496	16
381.21109	6
401.11676	6
463.21133	6
492.22733	6
493.21979	5
506.23355	22
506.26404	8
507.24277	35
507.26459	6
508.2565	44
510.25974	5
518.24054	7
519.25397	6
547.28528	7
548.271	6
548.29144	10
549.2843	20
550.27625	5
550.29761	13
551.28412	6
551.32428	12
589.30603	6
590.26276	11
602.29694	8
605.83154	6
623.73358	6
629.33191	9
633.37067	5
645.30518	6
656.35046	5
657.33411	15
660.34979	8
673.33032	7
673.36578	7
678.42242	11
681.27979	6
688.36334	408
688.42969	11
688.6452	7
689.32208	11
689.3653	182
690.37677	18
691.36609	6
691.41779	6
692.27563	8
702.88702	6
703.38538	1000

NAME: Voacamine
PRECURSORMZ: 749.39197365183
PRECURSORTYPE: [M+FA-H]-
INSTRUMENTTYPE: LC-ESI-QTOF
SMILES: CCC1CC2CN3CCC4=C(NC5=CC(C6CC7C(C(CC8=C6NC6=CC=CC=C86)N(C)CC7=CC)C(=O)OC)=C(OC)C=C45)C(C2)(C13)C(=O)OC
INCHIKEY: VCMIRXRRQJNZJT-UHFFFAOYNA-N
Ontology: Ibogan-type alkaloids
COLLISIONENERGY: 30
FORMULA: C43H52N4O5
RETENTIONTIME: 4.938133
IONMODE: Negative
Comment: registered in RIKEN PlaSMA
Num Peaks: 19
249.80125	36
293.16211	30
367.19946	126
367.22476	42
380.05872	44
437.66318	36
446.2084	27
619.36694	30
688.35095	96
688.36969	242
689.36224	65
690.40393	29
691.3465	104
692.36743	39
703.38544	1000
704.39026	535
705.37799	32
705.41211	62
706.38751	27

NAME: 14,15-Dehydro-16-epi-vincamine
PRECURSORMZ: 351.17141614783
PRECURSORTYPE: [M-H]-
INSTRUMENTTYPE: LC-ESI-QTOF
SMILES: CCC12CC(O)(N3C4=CC=CC=C4C4=C3C1N(CC4)CC=C2)C(=O)OC
INCHIKEY: BQGJXFQCMYJENQ-UHFFFAOYNA-N
Ontology: Eburnan-type alkaloids
COLLISIONENERGY: 50
FORMULA: C21H24N2O3
RETENTIONTIME: 4.255233
IONMODE: Negative
Comment: registered in RIKEN PlaSMA
Num Peaks: 2
142.0565	1000
259.09534	323

NAME: Voacamine
PRECURSORMZ: 703.38649434783
PRECURSORTYPE: [M-H]-
INSTRUMENTTYPE: LC-ESI-QTOF
SMILES: CCC1CC2CN3CCC4=C(NC5=CC(C6CC7C(C(CC8=C6NC6=CC=CC=C86)N(C)CC7=CC)C(=O)OC)=C(OC)C=C45)C(C2)(C13)C(=O)OC
INCHIKEY: VCMIRXRRQJNZJT-UHFFFAOYNA-N
Ontology: Ibogan-type alkaloids
COLLISIONENERGY: 50
FORMULA: C43H52N4O5
RETENTIONTIME: 4.938133
IONMODE: Negative
Comment: registered in RIKEN PlaSMA
Num Peaks: 163
154.04805	27
154.05582	17
154.10089	15
157.04839	18
163.06828	18
166.06238	17
167.06477	15
171.06558	17
181.07439	32
184.06674	20
187.06461	19
188.07425	15
193.98744	20
195.09901	17
246.10091	20
261.10925	34
261.93677	17
262.14255	29
263.12506	24
273.09897	27
279.14401	16
292.12518	18
293.13422	16
293.15405	21
299.11133	18
301.14108	15
310.11185	20
311.24118	26
312.11484	21
312.13153	18
313.19788	43
315.14984	17
318.12033	20
322.13885	42
323.11273	15
326.13016	17
326.14316	69
327.1297	37
327.15125	15
334.15997	41
335.18097	17
340.12704	24
340.14197	18
343.41763	40
344.19144	18
347.17416	22
350.11957	20
350.16525	25
351.17856	26
352.14023	20
352.17819	1000
352.91507	19
352.97552	15
353.18768	482
354.1781	35
354.19122	37
355.20944	23
366.18604	20
366.20142	19
367.20294	221
368.20337	29
374.98288	18
378.21143	15
379.20352	230
380.2085	21
381.19638	19
381.21603	49
382.17648	17
384.2475	17
393.1958	23
394.17078	18
405.16422	18
405.20203	19
418.18024	16
430.20273	20
431.25244	24
431.27402	26
434.202	24
435.20358	17
440.92838	26
445.22269	26
446.24948	28
448.2388	22
450.18021	20
456.24631	19
459.19199	17
460.20395	22
460.25208	26
462.18741	25
462.21201	16
462.25937	15
462.28247	16
476.22842	27
479.2139	32
487.23984	21
490.23099	18
490.26031	119
491.25027	33
492.21866	206
492.24338	90
492.26736	20
492.67154	17
493.22617	47
493.24432	57
494.237	182
495.23425	46
495.2485	52
495.26367	31
498.27521	20
499.24957	28
501.22009	15
503.27792	19
506.24023	210
507.24762	229
508.25833	117
509.26175	46
515.25037	26
516.2323	32
517.26984	17
518.24371	124
519.24249	40
519.27466	31
520.24603	18
520.26471	23
521.27057	30
521.28473	15
531.27832	36
532.26434	15
532.29388	16
533.24963	40
533.31525	16
534.2511	20
534.26788	47
535.28943	40
542.29767	15
543.302	20
544.21698	24
548.29053	17
549.26361	39
549.29871	69
550.29547	160
550.35388	18
551.28918	60
573.28894	60
574.25134	28
575.26703	21
584.31787	16
585.302	21
590.27942	20
591.28967	17
592.28687	17
603.31958	18
611.2699	17
611.34167	15
613.35266	23
616.35333	15
656.36536	40
671.37286	16
672.38165	20
673.34357	39
687.35724	19
688.33752	20
688.37244	16

NAME: Voacamine
PRECURSORMZ: 749.39197365183
PRECURSORTYPE: [M+FA-H]-
INSTRUMENTTYPE: LC-ESI-QTOF
SMILES: CCC1CC2CN3CCC4=C(NC5=CC(C6CC7C(C(CC8=C6NC6=CC=CC=C86)N(C)CC7=CC)C(=O)OC)=C(OC)C=C45)C(C2)(C13)C(=O)OC
INCHIKEY: VCMIRXRRQJNZJT-UHFFFAOYNA-N
Ontology: Ibogan-type alkaloids
COLLISIONENERGY: 50
FORMULA: C43H52N4O5
RETENTIONTIME: 4.938133
IONMODE: Negative
Comment: registered in RIKEN PlaSMA
Num Peaks: 22
261.12424	116
297.10239	156
311.10724	133
313.15173	104
352.17642	1000
352.20361	156
353.18585	578
367.19687	584
368.20178	254
368.22314	127
405.20145	272
477.233	133
502.2551	127
507.25879	283
508.27106	127
543.2998	139
549.284	162
549.30005	318
550.29858	150
551.30695	121
688.37903	104
703.21277	104

NAME: Gardnerine
PRECURSORMZ: 323.17650154783
PRECURSORTYPE: [M-H]-
INSTRUMENTTYPE: LC-ESI-QTOF
SMILES: COC1=CC2=C(C=C1)C1=C(N2)C2CC3C(CO)C(C1)N2CC3=CC
INCHIKEY: RBALEJFQJCAPLN-UHFFFAOYNA-N
Ontology: Macroline alkaloids
COLLISIONENERGY: 10
FORMULA: C20H24N2O2
RETENTIONTIME: 3.686783
IONMODE: Negative
Comment: registered in RIKEN PlaSMA
Num Peaks: 21
135.04442	32
170.06079	39
182.04645	36
183.05328	309
186.07692	48
195.05173	39
197.07433	45
211.06097	70
225.07904	47
236.05238	45
262.13956	36
274.64374	59
278.14435	55
279.14877	72
290.14792	77
293.12286	32
305.12976	32
307.15024	36
308.14987	326
309.15308	186
323.16904	1000

NAME: Gardnerine
PRECURSORMZ: 369.18198085183
PRECURSORTYPE: [M+FA-H]-
INSTRUMENTTYPE: LC-ESI-QTOF
SMILES: COC1=CC2=C(C=C1)C1=C(N2)C2CC3C(CO)C(C1)N2CC3=CC
INCHIKEY: RBALEJFQJCAPLN-UHFFFAOYNA-N
Ontology: Macroline alkaloids
COLLISIONENERGY: 10
FORMULA: C20H24N2O2
RETENTIONTIME: 3.686783
IONMODE: Negative
Comment: registered in RIKEN PlaSMA
Num Peaks: 7
196.06165	222
285.14923	321
308.14386	247
309.14294	222
323.1803	1000
324.16751	247
325.18228	309

NAME: Formosanine
PRECURSORMZ: 367.16633084783
PRECURSORTYPE: [M-H]-
INSTRUMENTTYPE: LC-ESI-QTOF
SMILES: COC(=O)C1=COC(C)C2CN3CCC4(C3CC12)C(O)=NC1=CC=CC=C41
INCHIKEY: JMIAZDVHNCCPDM-UHFFFAOYNA-N
Ontology: Indolizidines
COLLISIONENERGY: 10
FORMULA: C21H24N2O4
RETENTIONTIME: 4.328866
IONMODE: Negative
Comment: registered in RIKEN PlaSMA
Num Peaks: 11
94.03268	125
122.02032	108
127.04384	244
129.04228	170
148.07155	170
149.08058	415
176.07014	148
204.09869	102
208.10382	119
367.15497	233
367.173	1000

NAME: Subsessiline
PRECURSORMZ: 715.35010884783
PRECURSORTYPE: [M-H]-
INSTRUMENTTYPE: LC-ESI-QTOF
SMILES: COC(=O)C1=C2NC3=CC=CC=C3C22CCN3C2C2(CCOC2C24CC5CC67CCOC6CCN6CCC8(C76)C6=C(N(C2)C58OC34)C(OC)=CC=C6)C1
INCHIKEY: RZBFPDQKWUWUCK-UHFFFAOYNA-N
Ontology: Aspidospermatan-type alkaloids
COLLISIONENERGY: 10
FORMULA: C43H48N4O6
RETENTIONTIME: 5.780117
IONMODE: Negative
Comment: registered in RIKEN PlaSMA
Num Peaks: 5
421.30417	61
595.23248	108
713.32397	61
715.34082	1000
715.3667	397

NAME: Gardnerine
PRECURSORMZ: 323.17650154783
PRECURSORTYPE: [M-H]-
INSTRUMENTTYPE: LC-ESI-QTOF
SMILES: COC1=CC2=C(C=C1)C1=C(N2)C2CC3C(CO)C(C1)N2CC3=CC
INCHIKEY: RBALEJFQJCAPLN-UHFFFAOYNA-N
Ontology: Macroline alkaloids
COLLISIONENERGY: 10
FORMULA: C20H24N2O2
RETENTIONTIME: 3.686783
IONMODE: Negative
Comment: registered in RIKEN PlaSMA
Num Peaks: 9
291.07675	27
308.14166	33
308.15277	56
308.16132	20
309.1506	17
323.09253	16
323.12811	36
323.13608	17
323.17358	1000

NAME: Gardnerine
PRECURSORMZ: 369.18198085183
PRECURSORTYPE: [M+FA-H]-
INSTRUMENTTYPE: LC-ESI-QTOF
SMILES: COC1=CC2=C(C=C1)C1=C(N2)C2CC3C(CO)C(C1)N2CC3=CC
INCHIKEY: RBALEJFQJCAPLN-UHFFFAOYNA-N
Ontology: Macroline alkaloids
COLLISIONENERGY: 10
FORMULA: C20H24N2O2
RETENTIONTIME: 3.686783
IONMODE: Negative
Comment: registered in RIKEN PlaSMA
Num Peaks: 8
323.16132	237
323.18265	1000
324.17221	260
324.18811	130
337.10638	175
352.14957	141
356.13705	124
369.17676	164

NAME: Formosanine
PRECURSORMZ: 367.16633084783
PRECURSORTYPE: [M-H]-
INSTRUMENTTYPE: LC-ESI-QTOF
SMILES: COC(=O)C1=COC(C)C2CN3CCC4(C3CC12)C(O)=NC1=CC=CC=C41
INCHIKEY: JMIAZDVHNCCPDM-UHFFFAOYNA-N
Ontology: Indolizidines
COLLISIONENERGY: 10
FORMULA: C21H24N2O4
RETENTIONTIME: 4.328866
IONMODE: Negative
Comment: registered in RIKEN PlaSMA
Num Peaks: 6
194.06204	60
221.5939	35
282.94482	33
342.2728	47
367.16562	1000
367.19785	67

NAME: Subsessiline
PRECURSORMZ: 715.35010884783
PRECURSORTYPE: [M-H]-
INSTRUMENTTYPE: LC-ESI-QTOF
SMILES: COC(=O)C1=C2NC3=CC=CC=C3C22CCN3C2C2(CCOC2C24CC5CC67CCOC6CCN6CCC8(C76)C6=C(N(C2)C58OC34)C(OC)=CC=C6)C1
INCHIKEY: RZBFPDQKWUWUCK-UHFFFAOYNA-N
Ontology: Aspidospermatan-type alkaloids
COLLISIONENERGY: 10
FORMULA: C43H48N4O6
RETENTIONTIME: 5.780117
IONMODE: Negative
Comment: registered in RIKEN PlaSMA
Num Peaks: 3
715.27942	91
715.32086	65
715.35608	1000

NAME: Gardnerine
PRECURSORMZ: 323.17650154783
PRECURSORTYPE: [M-H]-
INSTRUMENTTYPE: LC-ESI-QTOF
SMILES: COC1=CC2=C(C=C1)C1=C(N2)C2CC3C(CO)C(C1)N2CC3=CC
INCHIKEY: RBALEJFQJCAPLN-UHFFFAOYNA-N
Ontology: Macroline alkaloids
COLLISIONENERGY: 30
FORMULA: C20H24N2O2
RETENTIONTIME: 3.686783
IONMODE: Negative
Comment: registered in RIKEN PlaSMA
Num Peaks: 22
157.05424	61
170.05656	70
182.04376	55
183.04491	106
183.05609	930
184.05499	70
184.07567	76
185.05968	82
186.05022	122
196.06007	119
197.0648	55
198.06163	70
198.88869	73
219.06682	61
247.08649	64
264.12997	79
277.13269	73
279.15115	76
289.12021	103
289.13467	67
308.15048	1000
323.16171	67

NAME: Gardnerine
PRECURSORMZ: 369.18198085183
PRECURSORTYPE: [M+FA-H]-
INSTRUMENTTYPE: LC-ESI-QTOF
SMILES: COC1=CC2=C(C=C1)C1=C(N2)C2CC3C(CO)C(C1)N2CC3=CC
INCHIKEY: RBALEJFQJCAPLN-UHFFFAOYNA-N
Ontology: Macroline alkaloids
COLLISIONENERGY: 30
FORMULA: C20H24N2O2
RETENTIONTIME: 3.686783
IONMODE: Negative
Comment: registered in RIKEN PlaSMA
Num Peaks: 4
308.1492	1000
308.1658	323
309.16425	462
319.44226	385

NAME: Formosanine
PRECURSORMZ: 367.16633084783
PRECURSORTYPE: [M-H]-
INSTRUMENTTYPE: LC-ESI-QTOF
SMILES: COC(=O)C1=COC(C)C2CN3CCC4(C3CC12)C(O)=NC1=CC=CC=C41
INCHIKEY: JMIAZDVHNCCPDM-UHFFFAOYNA-N
Ontology: Indolizidines
COLLISIONENERGY: 30
FORMULA: C21H24N2O4
RETENTIONTIME: 4.328866
IONMODE: Negative
Comment: registered in RIKEN PlaSMA
Num Peaks: 6
144.04875	126
148.07718	1000
174.05844	239
176.06281	126
176.07471	233
208.09247	302

NAME: Subsessiline
PRECURSORMZ: 715.35010884783
PRECURSORTYPE: [M-H]-
INSTRUMENTTYPE: LC-ESI-QTOF
SMILES: COC(=O)C1=C2NC3=CC=CC=C3C22CCN3C2C2(CCOC2C24CC5CC67CCOC6CCN6CCC8(C76)C6=C(N(C2)C58OC34)C(OC)=CC=C6)C1
INCHIKEY: RZBFPDQKWUWUCK-UHFFFAOYNA-N
Ontology: Aspidospermatan-type alkaloids
COLLISIONENERGY: 30
FORMULA: C43H48N4O6
RETENTIONTIME: 5.780117
IONMODE: Negative
Comment: registered in RIKEN PlaSMA
Num Peaks: 7
641.28864	94
642.32123	75
705.36597	91
706.33899	106
715.28809	114
715.34973	1000
715.3775	323

NAME: Gardnerine
PRECURSORMZ: 323.17650154783
PRECURSORTYPE: [M-H]-
INSTRUMENTTYPE: LC-ESI-QTOF
SMILES: COC1=CC2=C(C=C1)C1=C(N2)C2CC3C(CO)C(C1)N2CC3=CC
INCHIKEY: RBALEJFQJCAPLN-UHFFFAOYNA-N
Ontology: Macroline alkaloids
COLLISIONENERGY: 50
FORMULA: C20H24N2O2
RETENTIONTIME: 3.686783
IONMODE: Negative
Comment: registered in RIKEN PlaSMA
Num Peaks: 10
144.04292	136
154.0519	401
182.04817	1000
183.05754	759
196.06691	117
197.06914	247
208.07352	302
247.09418	154
275.10019	130
277.14191	136

NAME: Gardnerine
PRECURSORMZ: 369.18198085183
PRECURSORTYPE: [M+FA-H]-
INSTRUMENTTYPE: LC-ESI-QTOF
SMILES: COC1=CC2=C(C=C1)C1=C(N2)C2CC3C(CO)C(C1)N2CC3=CC
INCHIKEY: RBALEJFQJCAPLN-UHFFFAOYNA-N
Ontology: Macroline alkaloids
COLLISIONENERGY: 50
FORMULA: C20H24N2O2
RETENTIONTIME: 3.686783
IONMODE: Negative
Comment: registered in RIKEN PlaSMA
Num Peaks: 4
183.04263	633
183.05659	767
197.06618	633
277.13855	1000

NAME: Formosanine
PRECURSORMZ: 367.16633084783
PRECURSORTYPE: [M-H]-
INSTRUMENTTYPE: LC-ESI-QTOF
SMILES: COC(=O)C1=COC(C)C2CN3CCC4(C3CC12)C(O)=NC1=CC=CC=C41
INCHIKEY: JMIAZDVHNCCPDM-UHFFFAOYNA-N
Ontology: Indolizidines
COLLISIONENERGY: 50
FORMULA: C21H24N2O4
RETENTIONTIME: 4.328866
IONMODE: Negative
Comment: registered in RIKEN PlaSMA
Num Peaks: 4
131.03853	786
144.043	1000
148.06998	643
152.03241	905

NAME: Subsessiline
PRECURSORMZ: 715.35010884783
PRECURSORTYPE: [M-H]-
INSTRUMENTTYPE: LC-ESI-QTOF
SMILES: COC(=O)C1=C2NC3=CC=CC=C3C22CCN3C2C2(CCOC2C24CC5CC67CCOC6CCN6CCC8(C76)C6=C(N(C2)C58OC34)C(OC)=CC=C6)C1
INCHIKEY: RZBFPDQKWUWUCK-UHFFFAOYNA-N
Ontology: Aspidospermatan-type alkaloids
COLLISIONENERGY: 50
FORMULA: C43H48N4O6
RETENTIONTIME: 5.780117
IONMODE: Negative
Comment: registered in RIKEN PlaSMA
Num Peaks: 3
186.09517	367
305.12115	483
361.15674	1000

NAME: Gardnerine
PRECURSORMZ: 323.17650154783
PRECURSORTYPE: [M-H]-
INSTRUMENTTYPE: LC-ESI-QTOF
SMILES: COC1=CC2=C(C=C1)C1=C(N2)C2CC3C(CO)C(C1)N2CC3=CC
INCHIKEY: RBALEJFQJCAPLN-UHFFFAOYNA-N
Ontology: Macroline alkaloids
COLLISIONENERGY: 10
FORMULA: C20H24N2O2
RETENTIONTIME: 3.686783
IONMODE: Negative
Comment: registered in RIKEN PlaSMA
Num Peaks: 30
134.02261	77
144.03967	50
169.08188	40
170.05603	38
179.07533	33
182.05061	40
183.05168	358
183.06218	81
195.06148	50
197.07852	64
202.06628	43
208.07225	38
221.07497	77
233.06564	40
249.08675	60
250.12122	36
263.11057	31
275.12589	74
277.13217	83
278.14838	52
279.14807	41
293.12994	93
306.13416	36
308.15359	635
309.15509	91
310.14157	50
321.16766	34
323.13269	52
323.14435	124
323.17325	1000

NAME: Gardnerine
PRECURSORMZ: 369.18198085183
PRECURSORTYPE: [M+FA-H]-
INSTRUMENTTYPE: LC-ESI-QTOF
SMILES: COC1=CC2=C(C=C1)C1=C(N2)C2CC3C(CO)C(C1)N2CC3=CC
INCHIKEY: RBALEJFQJCAPLN-UHFFFAOYNA-N
Ontology: Macroline alkaloids
COLLISIONENERGY: 10
FORMULA: C20H24N2O2
RETENTIONTIME: 3.686783
IONMODE: Negative
Comment: registered in RIKEN PlaSMA
Num Peaks: 10
138.05801	167
183.05533	227
195.05141	333
308.15131	242
323.15469	242
323.17288	1000
323.19409	280
324.18472	152
325.17291	136
340.16327	227

NAME: Formosanine
PRECURSORMZ: 367.16633084783
PRECURSORTYPE: [M-H]-
INSTRUMENTTYPE: LC-ESI-QTOF
SMILES: COC(=O)C1=COC(C)C2CN3CCC4(C3CC12)C(O)=NC1=CC=CC=C41
INCHIKEY: JMIAZDVHNCCPDM-UHFFFAOYNA-N
Ontology: Indolizidines
COLLISIONENERGY: 10
FORMULA: C21H24N2O4
RETENTIONTIME: 4.328866
IONMODE: Negative
Comment: registered in RIKEN PlaSMA
Num Peaks: 6
148.07094	108
148.08101	259
176.06712	142
184.06435	132
208.09848	108
367.16238	1000

NAME: Subsessiline
PRECURSORMZ: 715.35010884783
PRECURSORTYPE: [M-H]-
INSTRUMENTTYPE: LC-ESI-QTOF
SMILES: COC(=O)C1=C2NC3=CC=CC=C3C22CCN3C2C2(CCOC2C24CC5CC67CCOC6CCN6CCC8(C76)C6=C(N(C2)C58OC34)C(OC)=CC=C6)C1
INCHIKEY: RZBFPDQKWUWUCK-UHFFFAOYNA-N
Ontology: Aspidospermatan-type alkaloids
COLLISIONENERGY: 10
FORMULA: C43H48N4O6
RETENTIONTIME: 5.780117
IONMODE: Negative
Comment: registered in RIKEN PlaSMA
Num Peaks: 4
684.28717	92
715.16461	96
715.33099	364
715.35632	1000

NAME: Gardnerine
PRECURSORMZ: 323.17650154783
PRECURSORTYPE: [M-H]-
INSTRUMENTTYPE: LC-ESI-QTOF
SMILES: COC1=CC2=C(C=C1)C1=C(N2)C2CC3C(CO)C(C1)N2CC3=CC
INCHIKEY: RBALEJFQJCAPLN-UHFFFAOYNA-N
Ontology: Macroline alkaloids
COLLISIONENERGY: 10
FORMULA: C20H24N2O2
RETENTIONTIME: 3.686783
IONMODE: Negative
Comment: registered in RIKEN PlaSMA
Num Peaks: 10
160.10732	11
293.12408	21
305.17279	12
308.15009	129
308.16766	16
309.15399	17
321.42334	21
323.12802	11
323.14423	43
323.1774	1000

NAME: Gardnerine
PRECURSORMZ: 369.18198085183
PRECURSORTYPE: [M+FA-H]-
INSTRUMENTTYPE: LC-ESI-QTOF
SMILES: COC1=CC2=C(C=C1)C1=C(N2)C2CC3C(CO)C(C1)N2CC3=CC
INCHIKEY: RBALEJFQJCAPLN-UHFFFAOYNA-N
Ontology: Macroline alkaloids
COLLISIONENERGY: 10
FORMULA: C20H24N2O2
RETENTIONTIME: 3.686783
IONMODE: Negative
Comment: registered in RIKEN PlaSMA
Num Peaks: 4
158.7933	87
323.13623	115
323.17624	1000
324.17871	139

NAME: Formosanine
PRECURSORMZ: 367.16633084783
PRECURSORTYPE: [M-H]-
INSTRUMENTTYPE: LC-ESI-QTOF
SMILES: COC(=O)C1=COC(C)C2CN3CCC4(C3CC12)C(O)=NC1=CC=CC=C41
INCHIKEY: JMIAZDVHNCCPDM-UHFFFAOYNA-N
Ontology: Indolizidines
COLLISIONENERGY: 10
FORMULA: C21H24N2O4
RETENTIONTIME: 4.328866
IONMODE: Negative
Comment: registered in RIKEN PlaSMA
Num Peaks: 3
127.03796	36
359.58353	31
367.16583	1000

NAME: Subsessiline
PRECURSORMZ: 715.35010884783
PRECURSORTYPE: [M-H]-
INSTRUMENTTYPE: LC-ESI-QTOF
SMILES: COC(=O)C1=C2NC3=CC=CC=C3C22CCN3C2C2(CCOC2C24CC5CC67CCOC6CCN6CCC8(C76)C6=C(N(C2)C58OC34)C(OC)=CC=C6)C1
INCHIKEY: RZBFPDQKWUWUCK-UHFFFAOYNA-N
Ontology: Aspidospermatan-type alkaloids
COLLISIONENERGY: 10
FORMULA: C43H48N4O6
RETENTIONTIME: 5.780117
IONMODE: Negative
Comment: registered in RIKEN PlaSMA
Num Peaks: 4
441.5527	53
474.25879	58
715.32355	128
715.35413	1000

NAME: Gardnerine
PRECURSORMZ: 323.17650154783
PRECURSORTYPE: [M-H]-
INSTRUMENTTYPE: LC-ESI-QTOF
SMILES: COC1=CC2=C(C=C1)C1=C(N2)C2CC3C(CO)C(C1)N2CC3=CC
INCHIKEY: RBALEJFQJCAPLN-UHFFFAOYNA-N
Ontology: Macroline alkaloids
COLLISIONENERGY: 30
FORMULA: C20H24N2O2
RETENTIONTIME: 3.686783
IONMODE: Negative
Comment: registered in RIKEN PlaSMA
Num Peaks: 30
169.03796	74
170.05823	200
183.05576	1000
184.06036	329
185.05275	48
187.05406	55
195.05742	43
195.06627	72
196.06038	167
197.07501	53
197.08612	64
198.06764	60
198.07909	48
199.07787	79
208.06659	81
209.07307	55
210.03667	55
210.07828	84
249.1129	50
275.12436	72
277.13809	64
278.14566	69
278.16766	48
279.16754	53
290.14966	50
291.15427	50
308.15744	726
309.16306	53
309.18143	60
323.17838	76

NAME: Gardnerine
PRECURSORMZ: 369.18198085183
PRECURSORTYPE: [M+FA-H]-
INSTRUMENTTYPE: LC-ESI-QTOF
SMILES: COC1=CC2=C(C=C1)C1=C(N2)C2CC3C(CO)C(C1)N2CC3=CC
INCHIKEY: RBALEJFQJCAPLN-UHFFFAOYNA-N
Ontology: Macroline alkaloids
COLLISIONENERGY: 30
FORMULA: C20H24N2O2
RETENTIONTIME: 3.686783
IONMODE: Negative
Comment: registered in RIKEN PlaSMA
Num Peaks: 5
307.14374	230
308.15152	1000
309.15469	88
310.15067	98
323.17694	118

NAME: Formosanine
PRECURSORMZ: 367.16633084783
PRECURSORTYPE: [M-H]-
INSTRUMENTTYPE: LC-ESI-QTOF
SMILES: COC(=O)C1=COC(C)C2CN3CCC4(C3CC12)C(O)=NC1=CC=CC=C41
INCHIKEY: JMIAZDVHNCCPDM-UHFFFAOYNA-N
Ontology: Indolizidines
COLLISIONENERGY: 30
FORMULA: C21H24N2O4
RETENTIONTIME: 4.328866
IONMODE: Negative
Comment: registered in RIKEN PlaSMA
Num Peaks: 12
122.02208	331
127.03822	1000
144.03868	138
148.0748	359
148.0838	241
152.03326	207
175.05998	193
176.06557	186
177.07808	159
229.12679	152
251.07523	214
335.13495	179

NAME: Subsessiline
PRECURSORMZ: 715.35010884783
PRECURSORTYPE: [M-H]-
INSTRUMENTTYPE: LC-ESI-QTOF
SMILES: COC(=O)C1=C2NC3=CC=CC=C3C22CCN3C2C2(CCOC2C24CC5CC67CCOC6CCN6CCC8(C76)C6=C(N(C2)C58OC34)C(OC)=CC=C6)C1
INCHIKEY: RZBFPDQKWUWUCK-UHFFFAOYNA-N
Ontology: Aspidospermatan-type alkaloids
COLLISIONENERGY: 30
FORMULA: C43H48N4O6
RETENTIONTIME: 5.780117
IONMODE: Negative
Comment: registered in RIKEN PlaSMA
Num Peaks: 8
228.16541	107
305.12213	60
335.1337	74
668.38129	64
686.33502	74
715.31885	527
715.35822	1000
715.39307	128

NAME: Gardnerine
PRECURSORMZ: 323.17650154783
PRECURSORTYPE: [M-H]-
INSTRUMENTTYPE: LC-ESI-QTOF
SMILES: COC1=CC2=C(C=C1)C1=C(N2)C2CC3C(CO)C(C1)N2CC3=CC
INCHIKEY: RBALEJFQJCAPLN-UHFFFAOYNA-N
Ontology: Macroline alkaloids
COLLISIONENERGY: 50
FORMULA: C20H24N2O2
RETENTIONTIME: 3.686783
IONMODE: Negative
Comment: registered in RIKEN PlaSMA
Num Peaks: 16
102.03604	166
144.03708	124
154.04659	138
154.05551	138
166.06923	145
169.05347	145
170.06322	386
182.04167	490
183.05591	1000
196.05533	138
208.06136	131
208.07314	138
234.10143	207
259.08676	145
261.10175	145
266.14697	124

NAME: Gardnerine
PRECURSORMZ: 369.18198085183
PRECURSORTYPE: [M+FA-H]-
INSTRUMENTTYPE: LC-ESI-QTOF
SMILES: COC1=CC2=C(C=C1)C1=C(N2)C2CC3C(CO)C(C1)N2CC3=CC
INCHIKEY: RBALEJFQJCAPLN-UHFFFAOYNA-N
Ontology: Macroline alkaloids
COLLISIONENERGY: 50
FORMULA: C20H24N2O2
RETENTIONTIME: 3.686783
IONMODE: Negative
Comment: registered in RIKEN PlaSMA
Num Peaks: 3
170.06219	1000
183.05914	882
211.05626	706

NAME: Formosanine
PRECURSORMZ: 367.16633084783
PRECURSORTYPE: [M-H]-
INSTRUMENTTYPE: LC-ESI-QTOF
SMILES: COC(=O)C1=COC(C)C2CN3CCC4(C3CC12)C(O)=NC1=CC=CC=C41
INCHIKEY: JMIAZDVHNCCPDM-UHFFFAOYNA-N
Ontology: Indolizidines
COLLISIONENERGY: 50
FORMULA: C21H24N2O4
RETENTIONTIME: 4.328866
IONMODE: Negative
Comment: registered in RIKEN PlaSMA
Num Peaks: 5
68.99931	420
92.01207	1000
122.02015	360
127.03892	480
144.04187	440

NAME: Subsessiline
PRECURSORMZ: 715.35010884783
PRECURSORTYPE: [M-H]-
INSTRUMENTTYPE: LC-ESI-QTOF
SMILES: COC(=O)C1=C2NC3=CC=CC=C3C22CCN3C2C2(CCOC2C24CC5CC67CCOC6CCN6CCC8(C76)C6=C(N(C2)C58OC34)C(OC)=CC=C6)C1
INCHIKEY: RZBFPDQKWUWUCK-UHFFFAOYNA-N
Ontology: Aspidospermatan-type alkaloids
COLLISIONENERGY: 50
FORMULA: C43H48N4O6
RETENTIONTIME: 5.780117
IONMODE: Negative
Comment: registered in RIKEN PlaSMA
Num Peaks: 11
142.06232	375
174.05789	297
313.15616	406
347.10172	1000
361.16086	375
377.13974	312
411.20221	375
443.22479	375
486.24405	375
715.34613	312
715.3634	422

NAME: Gardnerine
PRECURSORMZ: 323.17650154783
PRECURSORTYPE: [M-H]-
INSTRUMENTTYPE: LC-ESI-QTOF
SMILES: COC1=CC2=C(C=C1)C1=C(N2)C2CC3C(CO)C(C1)N2CC3=CC
INCHIKEY: RBALEJFQJCAPLN-UHFFFAOYNA-N
Ontology: Macroline alkaloids
COLLISIONENERGY: 10
FORMULA: C20H24N2O2
RETENTIONTIME: 3.686783
IONMODE: Negative
Comment: registered in RIKEN PlaSMA
Num Peaks: 20
169.0396	48
183.05867	342
186.0578	53
196.07137	62
197.07057	65
198.06816	74
201.04695	46
211.04721	58
213.18523	55
220.06145	46
233.07127	48
247.08679	85
248.11342	67
278.1434	92
307.13498	51
308.12943	46
308.1503	1000
308.16208	206
309.15274	254
323.17529	910

NAME: Gardnerine
PRECURSORMZ: 369.18198085183
PRECURSORTYPE: [M+FA-H]-
INSTRUMENTTYPE: LC-ESI-QTOF
SMILES: COC1=CC2=C(C=C1)C1=C(N2)C2CC3C(CO)C(C1)N2CC3=CC
INCHIKEY: RBALEJFQJCAPLN-UHFFFAOYNA-N
Ontology: Macroline alkaloids
COLLISIONENERGY: 10
FORMULA: C20H24N2O2
RETENTIONTIME: 3.686783
IONMODE: Negative
Comment: registered in RIKEN PlaSMA
Num Peaks: 7
199.17575	186
309.15067	149
313.15814	311
323.17291	1000
324.1712	304
325.1781	168
356.14059	130

NAME: Formosanine
PRECURSORMZ: 367.16633084783
PRECURSORTYPE: [M-H]-
INSTRUMENTTYPE: LC-ESI-QTOF
SMILES: COC(=O)C1=COC(C)C2CN3CCC4(C3CC12)C(O)=NC1=CC=CC=C41
INCHIKEY: JMIAZDVHNCCPDM-UHFFFAOYNA-N
Ontology: Indolizidines
COLLISIONENERGY: 10
FORMULA: C21H24N2O4
RETENTIONTIME: 4.328866
IONMODE: Negative
Comment: registered in RIKEN PlaSMA
Num Peaks: 7
106.02966	142
106.06947	355
108.02022	166
176.0723	166
208.10805	148
367.16223	1000
367.18484	136

NAME: Subsessiline
PRECURSORMZ: 715.35010884783
PRECURSORTYPE: [M-H]-
INSTRUMENTTYPE: LC-ESI-QTOF
SMILES: COC(=O)C1=C2NC3=CC=CC=C3C22CCN3C2C2(CCOC2C24CC5CC67CCOC6CCN6CCC8(C76)C6=C(N(C2)C58OC34)C(OC)=CC=C6)C1
INCHIKEY: RZBFPDQKWUWUCK-UHFFFAOYNA-N
Ontology: Aspidospermatan-type alkaloids
COLLISIONENERGY: 10
FORMULA: C43H48N4O6
RETENTIONTIME: 5.780117
IONMODE: Negative
Comment: registered in RIKEN PlaSMA
Num Peaks: 8
301.03308	61
350.15878	52
683.30853	69
685.30878	72
709.04462	52
715.29126	58
715.34991	1000
715.38562	61

NAME: Gardnerine
PRECURSORMZ: 323.17650154783
PRECURSORTYPE: [M-H]-
INSTRUMENTTYPE: LC-ESI-QTOF
SMILES: COC1=CC2=C(C=C1)C1=C(N2)C2CC3C(CO)C(C1)N2CC3=CC
INCHIKEY: RBALEJFQJCAPLN-UHFFFAOYNA-N
Ontology: Macroline alkaloids
COLLISIONENERGY: 10
FORMULA: C20H24N2O2
RETENTIONTIME: 3.686783
IONMODE: Negative
Comment: registered in RIKEN PlaSMA
Num Peaks: 6
73.68999	13
308.14261	53
308.15756	97
309.15674	27
323.13113	57
323.17731	1000

NAME: Gardnerine
PRECURSORMZ: 369.18198085183
PRECURSORTYPE: [M+FA-H]-
INSTRUMENTTYPE: LC-ESI-QTOF
SMILES: COC1=CC2=C(C=C1)C1=C(N2)C2CC3C(CO)C(C1)N2CC3=CC
INCHIKEY: RBALEJFQJCAPLN-UHFFFAOYNA-N
Ontology: Macroline alkaloids
COLLISIONENERGY: 10
FORMULA: C20H24N2O2
RETENTIONTIME: 3.686783
IONMODE: Negative
Comment: registered in RIKEN PlaSMA
Num Peaks: 5
285.16858	67
323.17654	1000
324.18933	177
341.1691	45
369.1546	77

NAME: Formosanine
PRECURSORMZ: 367.16633084783
PRECURSORTYPE: [M-H]-
INSTRUMENTTYPE: LC-ESI-QTOF
SMILES: COC(=O)C1=COC(C)C2CN3CCC4(C3CC12)C(O)=NC1=CC=CC=C41
INCHIKEY: JMIAZDVHNCCPDM-UHFFFAOYNA-N
Ontology: Indolizidines
COLLISIONENERGY: 10
FORMULA: C21H24N2O4
RETENTIONTIME: 4.328866
IONMODE: Negative
Comment: registered in RIKEN PlaSMA
Num Peaks: 4
122.02522	45
208.09698	87
367.16428	1000
367.19351	43

NAME: Gardnerine
PRECURSORMZ: 323.17650154783
PRECURSORTYPE: [M-H]-
INSTRUMENTTYPE: LC-ESI-QTOF
SMILES: COC1=CC2=C(C=C1)C1=C(N2)C2CC3C(CO)C(C1)N2CC3=CC
INCHIKEY: RBALEJFQJCAPLN-UHFFFAOYNA-N
Ontology: Macroline alkaloids
COLLISIONENERGY: 30
FORMULA: C20H24N2O2
RETENTIONTIME: 3.686783
IONMODE: Negative
Comment: registered in RIKEN PlaSMA
Num Peaks: 31
74.27425	52
128.04561	38
146.06306	35
155.14047	56
170.06308	56
181.05785	37
182.04179	62
183.04492	44
183.05782	1000
185.04514	35
195.05249	37
196.05847	44
196.0654	150
209.11121	50
211.04491	40
223.08568	79
234.07817	42
248.08505	48
248.09924	48
264.13565	44
276.78107	35
277.12875	35
278.138	73
290.14603	42
291.15448	102
293.1272	35
307.13815	67
307.16559	54
308.1496	446
309.15323	192
310.15054	54

NAME: Gardnerine
PRECURSORMZ: 369.18198085183
PRECURSORTYPE: [M+FA-H]-
INSTRUMENTTYPE: LC-ESI-QTOF
SMILES: COC1=CC2=C(C=C1)C1=C(N2)C2CC3C(CO)C(C1)N2CC3=CC
INCHIKEY: RBALEJFQJCAPLN-UHFFFAOYNA-N
Ontology: Macroline alkaloids
COLLISIONENERGY: 30
FORMULA: C20H24N2O2
RETENTIONTIME: 3.686783
IONMODE: Negative
Comment: registered in RIKEN PlaSMA
Num Peaks: 9
146.05811	212
170.05966	152
183.06184	144
296.10361	174
308.15179	1000
308.164	394
310.1543	288
324.16632	197
324.17935	159

NAME: Formosanine
PRECURSORMZ: 367.16633084783
PRECURSORTYPE: [M-H]-
INSTRUMENTTYPE: LC-ESI-QTOF
SMILES: COC(=O)C1=COC(C)C2CN3CCC4(C3CC12)C(O)=NC1=CC=CC=C41
INCHIKEY: JMIAZDVHNCCPDM-UHFFFAOYNA-N
Ontology: Indolizidines
COLLISIONENERGY: 30
FORMULA: C21H24N2O4
RETENTIONTIME: 4.328866
IONMODE: Negative
Comment: registered in RIKEN PlaSMA
Num Peaks: 15
94.02664	153
122.022	168
127.03493	328
127.04325	420
128.98775	145
144.04294	153
148.07491	1000
149.06036	198
149.0791	313
152.03052	313
161.04561	191
161.05678	137
208.08507	160
209.10031	176
229.13321	183

NAME: Subsessiline
PRECURSORMZ: 715.35010884783
PRECURSORTYPE: [M-H]-
INSTRUMENTTYPE: LC-ESI-QTOF
SMILES: COC(=O)C1=C2NC3=CC=CC=C3C22CCN3C2C2(CCOC2C24CC5CC67CCOC6CCN6CCC8(C76)C6=C(N(C2)C58OC34)C(OC)=CC=C6)C1
INCHIKEY: RZBFPDQKWUWUCK-UHFFFAOYNA-N
Ontology: Aspidospermatan-type alkaloids
COLLISIONENERGY: 30
FORMULA: C43H48N4O6
RETENTIONTIME: 5.780117
IONMODE: Negative
Comment: registered in RIKEN PlaSMA
Num Peaks: 3
666.69067	77
715.33856	1000
715.362	421

NAME: Gardnerine
PRECURSORMZ: 323.17650154783
PRECURSORTYPE: [M-H]-
INSTRUMENTTYPE: LC-ESI-QTOF
SMILES: COC1=CC2=C(C=C1)C1=C(N2)C2CC3C(CO)C(C1)N2CC3=CC
INCHIKEY: RBALEJFQJCAPLN-UHFFFAOYNA-N
Ontology: Macroline alkaloids
COLLISIONENERGY: 50
FORMULA: C20H24N2O2
RETENTIONTIME: 3.686783
IONMODE: Negative
Comment: registered in RIKEN PlaSMA
Num Peaks: 13
154.05385	124
155.06302	97
157.05247	152
168.04401	92
170.06303	152
182.03354	83
182.04559	198
182.06123	124
183.0529	1000
186.06255	134
208.06946	134
248.08252	111
280.15475	152

NAME: Gardnerine
PRECURSORMZ: 369.18198085183
PRECURSORTYPE: [M+FA-H]-
INSTRUMENTTYPE: LC-ESI-QTOF
SMILES: COC1=CC2=C(C=C1)C1=C(N2)C2CC3C(CO)C(C1)N2CC3=CC
INCHIKEY: RBALEJFQJCAPLN-UHFFFAOYNA-N
Ontology: Macroline alkaloids
COLLISIONENERGY: 50
FORMULA: C20H24N2O2
RETENTIONTIME: 3.686783
IONMODE: Negative
Comment: registered in RIKEN PlaSMA
Num Peaks: 1
183.05431	1000

NAME: Formosanine
PRECURSORMZ: 367.16633084783
PRECURSORTYPE: [M-H]-
INSTRUMENTTYPE: LC-ESI-QTOF
SMILES: COC(=O)C1=COC(C)C2CN3CCC4(C3CC12)C(O)=NC1=CC=CC=C41
INCHIKEY: JMIAZDVHNCCPDM-UHFFFAOYNA-N
Ontology: Indolizidines
COLLISIONENERGY: 50
FORMULA: C21H24N2O4
RETENTIONTIME: 4.328866
IONMODE: Negative
Comment: registered in RIKEN PlaSMA
Num Peaks: 5
67.01791	673
144.04774	469
146.05225	653
152.03389	1000
157.05206	571

NAME: Subsessiline
PRECURSORMZ: 715.35010884783
PRECURSORTYPE: [M-H]-
INSTRUMENTTYPE: LC-ESI-QTOF
SMILES: COC(=O)C1=C2NC3=CC=CC=C3C22CCN3C2C2(CCOC2C24CC5CC67CCOC6CCN6CCC8(C76)C6=C(N(C2)C58OC34)C(OC)=CC=C6)C1
INCHIKEY: RZBFPDQKWUWUCK-UHFFFAOYNA-N
Ontology: Aspidospermatan-type alkaloids
COLLISIONENERGY: 50
FORMULA: C43H48N4O6
RETENTIONTIME: 5.780117
IONMODE: Negative
Comment: registered in RIKEN PlaSMA
Num Peaks: 18
130.06955	369
138.05521	369
194.04782	277
196.06543	369
212.06262	277
238.09126	385
353.18756	462
361.16064	708
398.20599	415
411.21506	277
441.23856	385
458.24915	1000
459.23929	708
613.28619	323
643.28131	523
655.33051	338
683.3252	277
715.35822	554

NAME: Speciophylline
PRECURSORMZ: 367.16633084783
PRECURSORTYPE: [M-H]-
INSTRUMENTTYPE: LC-ESI-QTOF
SMILES: COC(=O)C1=COC(C)C2CN3CCC4(C3CC12)C(O)=NC1=CC=CC=C41
INCHIKEY: JMIAZDVHNCCPDM-UHFFFAOYNA-N
Ontology: Indolizidines
COLLISIONENERGY: 10
FORMULA: C21H24N2O4
RETENTIONTIME: 4.923267
IONMODE: Negative
Comment: registered in RIKEN PlaSMA
Num Peaks: 8
73.92056	39
92.01702	42
128.04149	42
137.90321	33
176.07344	72
208.09737	48
247.07693	35
367.16147	1000

NAME: Aristolochic acid C
PRECURSORMZ: 326.03062514783
PRECURSORTYPE: [M-H]-
INSTRUMENTTYPE: LC-ESI-QTOF
SMILES: OC(=O)C1=CC2=C(OCO2)C2=C3C=C(O)C=CC3=CC(=C12)N(=O)=O
INCHIKEY: NBFGYDJKTHENDP-UHFFFAOYSA-N
Ontology: Aristolochic acids and derivatives
COLLISIONENERGY: 10
FORMULA: C16H9NO7
RETENTIONTIME: 5.954183
IONMODE: Negative
Comment: registered in RIKEN PlaSMA
Num Peaks: 23
178.04114	72
179.03583	10
179.04381	11
180.05931	31
190.38654	6
206.03745	363
207.04123	81
207.05869	7
208.04106	8
208.05238	21
209.05569	8
219.04155	8
223.03433	5
235.03827	17
235.04764	8
236.04778	1000
237.05241	149
238.05249	29
280.0365	360
281.03894	104
282.03409	15
282.04865	6
326.02957	40

NAME: Speciophylline
PRECURSORMZ: 367.16633084783
PRECURSORTYPE: [M-H]-
INSTRUMENTTYPE: LC-ESI-QTOF
SMILES: COC(=O)C1=COC(C)C2CN3CCC4(C3CC12)C(O)=NC1=CC=CC=C41
INCHIKEY: JMIAZDVHNCCPDM-UHFFFAOYNA-N
Ontology: Indolizidines
COLLISIONENERGY: 10
FORMULA: C21H24N2O4
RETENTIONTIME: 4.923267
IONMODE: Negative
Comment: registered in RIKEN PlaSMA
Num Peaks: 2
127.04309	23
367.16559	1000

NAME: Aristolochic acid C
PRECURSORMZ: 326.03062514783
PRECURSORTYPE: [M-H]-
INSTRUMENTTYPE: LC-ESI-QTOF
SMILES: OC(=O)C1=CC2=C(OCO2)C2=C3C=C(O)C=CC3=CC(=C12)N(=O)=O
INCHIKEY: NBFGYDJKTHENDP-UHFFFAOYSA-N
Ontology: Aristolochic acids and derivatives
COLLISIONENERGY: 10
FORMULA: C16H9NO7
RETENTIONTIME: 5.954183
IONMODE: Negative
Comment: registered in RIKEN PlaSMA
Num Peaks: 9
236.04805	662
237.05247	99
238.05698	14
280.03763	1000
281.04181	171
282.0329	19
282.04489	35
283.04547	11
326.03174	125

NAME: Speciophylline
PRECURSORMZ: 367.16633084783
PRECURSORTYPE: [M-H]-
INSTRUMENTTYPE: LC-ESI-QTOF
SMILES: COC(=O)C1=COC(C)C2CN3CCC4(C3CC12)C(O)=NC1=CC=CC=C41
INCHIKEY: JMIAZDVHNCCPDM-UHFFFAOYNA-N
Ontology: Indolizidines
COLLISIONENERGY: 30
FORMULA: C21H24N2O4
RETENTIONTIME: 4.923267
IONMODE: Negative
Comment: registered in RIKEN PlaSMA
Num Peaks: 14
101.02304	327
108.01778	190
123.10558	170
127.03838	279
127.04411	197
144.04117	1000
144.05144	190
148.07045	320
148.08084	184
158.05563	122
169.03896	122
174.05121	136
307.14981	136
367.17053	150

NAME: Aristolochic acid C
PRECURSORMZ: 326.03062514783
PRECURSORTYPE: [M-H]-
INSTRUMENTTYPE: LC-ESI-QTOF
SMILES: OC(=O)C1=CC2=C(OCO2)C2=C3C=C(O)C=CC3=CC(=C12)N(=O)=O
INCHIKEY: NBFGYDJKTHENDP-UHFFFAOYSA-N
Ontology: Aristolochic acids and derivatives
COLLISIONENERGY: 30
FORMULA: C16H9NO7
RETENTIONTIME: 5.954183
IONMODE: Negative
Comment: registered in RIKEN PlaSMA
Num Peaks: 22
151.05406	13
152.06001	19
152.07321	7
153.06567	5
178.04504	46
179.04678	49
179.21072	8
180.05641	64
181.06184	12
206.03677	1000
206.19804	6
207.03928	255
207.05179	50
208.03577	7
208.04938	75
208.05688	51
219.04443	17
220.04808	6
235.04082	58
236.04842	474
237.04857	60
267.20392	9

NAME: Speciophylline
PRECURSORMZ: 367.16633084783
PRECURSORTYPE: [M-H]-
INSTRUMENTTYPE: LC-ESI-QTOF
SMILES: COC(=O)C1=COC(C)C2CN3CCC4(C3CC12)C(O)=NC1=CC=CC=C41
INCHIKEY: JMIAZDVHNCCPDM-UHFFFAOYNA-N
Ontology: Indolizidines
COLLISIONENERGY: 50
FORMULA: C21H24N2O4
RETENTIONTIME: 4.923267
IONMODE: Negative
Comment: registered in RIKEN PlaSMA
Num Peaks: 5
107.04935	202
112.00962	273
127.03977	1000
144.05028	293
170.0506	333

NAME: Aristolochic acid C
PRECURSORMZ: 326.03062514783
PRECURSORTYPE: [M-H]-
INSTRUMENTTYPE: LC-ESI-QTOF
SMILES: OC(=O)C1=CC2=C(OCO2)C2=C3C=C(O)C=CC3=CC(=C12)N(=O)=O
INCHIKEY: NBFGYDJKTHENDP-UHFFFAOYSA-N
Ontology: Aristolochic acids and derivatives
COLLISIONENERGY: 50
FORMULA: C16H9NO7
RETENTIONTIME: 5.954183
IONMODE: Negative
Comment: registered in RIKEN PlaSMA
Num Peaks: 28
87.75332	32
138.04791	36
139.06552	48
142.05246	49
149.03545	87
150.04088	36
150.04807	166
151.05623	123
153.03775	43
153.05997	31
157.29623	38
165.03004	31
177.03914	38
178.04166	1000
179.03485	39
179.04723	256
180.04597	32
180.05254	68
196.04895	56
206.02321	31
206.03894	497
206.05339	70
207.04332	181
207.57617	39
208.0369	34
209.05293	34
219.03606	43
234.03787	36

NAME: Speciophylline
PRECURSORMZ: 367.16633084783
PRECURSORTYPE: [M-H]-
INSTRUMENTTYPE: LC-ESI-QTOF
SMILES: COC(=O)C1=COC(C)C2CN3CCC4(C3CC12)C(O)=NC1=CC=CC=C41
INCHIKEY: JMIAZDVHNCCPDM-UHFFFAOYNA-N
Ontology: Indolizidines
COLLISIONENERGY: 10
FORMULA: C21H24N2O4
RETENTIONTIME: 4.923267
IONMODE: Negative
Comment: registered in RIKEN PlaSMA
Num Peaks: 14
91.90823	30
101.0284	56
127.03873	65
132.04312	35
133.0569	50
148.07408	59
176.06622	38
177.07639	30
186.24263	46
208.09065	33
213.10579	33
238.08647	30
252.07935	32
367.16397	1000

NAME: Aristolochic acid C
PRECURSORMZ: 326.03062514783
PRECURSORTYPE: [M-H]-
INSTRUMENTTYPE: LC-ESI-QTOF
SMILES: OC(=O)C1=CC2=C(OCO2)C2=C3C=C(O)C=CC3=CC(=C12)N(=O)=O
INCHIKEY: NBFGYDJKTHENDP-UHFFFAOYSA-N
Ontology: Aristolochic acids and derivatives
COLLISIONENERGY: 10
FORMULA: C16H9NO7
RETENTIONTIME: 5.954183
IONMODE: Negative
Comment: registered in RIKEN PlaSMA
Num Peaks: 25
178.04353	61
179.04807	11
180.05669	37
191.05469	29
196.04758	6
196.0565	6
206.0367	293
207.04169	133
207.06058	8
208.04344	9
208.05359	35
219.03838	12
234.03017	5
235.03769	10
235.04813	6
236.04799	1000
237.05042	195
238.0108	6
238.04562	6
238.06346	11
280.03607	396
281.03894	70
282.03659	19
283.04492	8
326.02985	30

NAME: Speciophylline
PRECURSORMZ: 367.16633084783
PRECURSORTYPE: [M-H]-
INSTRUMENTTYPE: LC-ESI-QTOF
SMILES: COC(=O)C1=COC(C)C2CN3CCC4(C3CC12)C(O)=NC1=CC=CC=C41
INCHIKEY: JMIAZDVHNCCPDM-UHFFFAOYNA-N
Ontology: Indolizidines
COLLISIONENERGY: 10
FORMULA: C21H24N2O4
RETENTIONTIME: 4.923267
IONMODE: Negative
Comment: registered in RIKEN PlaSMA
Num Peaks: 2
365.88614	15
367.16772	1000

NAME: Aristolochic acid C
PRECURSORMZ: 326.03062514783
PRECURSORTYPE: [M-H]-
INSTRUMENTTYPE: LC-ESI-QTOF
SMILES: OC(=O)C1=CC2=C(OCO2)C2=C3C=C(O)C=CC3=CC(=C12)N(=O)=O
INCHIKEY: NBFGYDJKTHENDP-UHFFFAOYSA-N
Ontology: Aristolochic acids and derivatives
COLLISIONENERGY: 10
FORMULA: C16H9NO7
RETENTIONTIME: 5.954183
IONMODE: Negative
Comment: registered in RIKEN PlaSMA
Num Peaks: 10
206.03896	9
236.04831	567
237.04965	75
237.05722	34
238.05556	6
280.03741	1000
281.04074	212
282.03186	12
282.04449	36
326.03256	191

NAME: Speciophylline
PRECURSORMZ: 367.16633084783
PRECURSORTYPE: [M-H]-
INSTRUMENTTYPE: LC-ESI-QTOF
SMILES: COC(=O)C1=COC(C)C2CN3CCC4(C3CC12)C(O)=NC1=CC=CC=C41
INCHIKEY: JMIAZDVHNCCPDM-UHFFFAOYNA-N
Ontology: Indolizidines
COLLISIONENERGY: 30
FORMULA: C21H24N2O4
RETENTIONTIME: 4.923267
IONMODE: Negative
Comment: registered in RIKEN PlaSMA
Num Peaks: 17
94.94276	109
106.06329	109
108.04211	152
122.02313	109
127.03189	418
127.04059	1000
128.04431	164
132.04623	121
144.04689	345
148.07497	127
158.05661	333
160.03828	109
170.05492	145
175.0589	109
176.06763	297
229.13438	133
367.17053	109

NAME: Aristolochic acid C
PRECURSORMZ: 326.03062514783
PRECURSORTYPE: [M-H]-
INSTRUMENTTYPE: LC-ESI-QTOF
SMILES: OC(=O)C1=CC2=C(OCO2)C2=C3C=C(O)C=CC3=CC(=C12)N(=O)=O
INCHIKEY: NBFGYDJKTHENDP-UHFFFAOYSA-N
Ontology: Aristolochic acids and derivatives
COLLISIONENERGY: 30
FORMULA: C16H9NO7
RETENTIONTIME: 5.954183
IONMODE: Negative
Comment: registered in RIKEN PlaSMA
Num Peaks: 24
151.05829	6
152.06085	19
178.04211	84
179.04535	18
180.05898	77
181.06668	31
188.58142	7
191.04761	6
206.03687	1000
207.04231	307
208.04027	17
208.05197	89
208.07037	6
209.04723	23
209.05922	23
219.04604	41
220.05013	15
221.01608	6
229.2373	6
235.03217	23
235.04376	51
236.04752	452
236.89359	6
237.04976	71

NAME: Speciophylline
PRECURSORMZ: 367.16633084783
PRECURSORTYPE: [M-H]-
INSTRUMENTTYPE: LC-ESI-QTOF
SMILES: COC(=O)C1=COC(C)C2CN3CCC4(C3CC12)C(O)=NC1=CC=CC=C41
INCHIKEY: JMIAZDVHNCCPDM-UHFFFAOYNA-N
Ontology: Indolizidines
COLLISIONENERGY: 50
FORMULA: C21H24N2O4
RETENTIONTIME: 4.923267
IONMODE: Negative
Comment: registered in RIKEN PlaSMA
Num Peaks: 4
116.04982	222
122.02096	309
144.0489	1000
148.07451	222

NAME: Aristolochic acid C
PRECURSORMZ: 326.03062514783
PRECURSORTYPE: [M-H]-
INSTRUMENTTYPE: LC-ESI-QTOF
SMILES: OC(=O)C1=CC2=C(OCO2)C2=C3C=C(O)C=CC3=CC(=C12)N(=O)=O
INCHIKEY: NBFGYDJKTHENDP-UHFFFAOYSA-N
Ontology: Aristolochic acids and derivatives
COLLISIONENERGY: 50
FORMULA: C16H9NO7
RETENTIONTIME: 5.954183
IONMODE: Negative
Comment: registered in RIKEN PlaSMA
Num Peaks: 16
149.03561	114
150.05037	78
151.05103	124
151.06003	32
167.05002	31
177.03633	56
178.04085	1000
179.05132	226
182.0359	46
188.67386	43
191.0528	32
206.03505	641
207.04175	230
207.04982	158
208.06024	54
235.04887	66

NAME: Speciophylline
PRECURSORMZ: 367.16633084783
PRECURSORTYPE: [M-H]-
INSTRUMENTTYPE: LC-ESI-QTOF
SMILES: COC(=O)C1=COC(C)C2CN3CCC4(C3CC12)C(O)=NC1=CC=CC=C41
INCHIKEY: JMIAZDVHNCCPDM-UHFFFAOYNA-N
Ontology: Indolizidines
COLLISIONENERGY: 10
FORMULA: C21H24N2O4
RETENTIONTIME: 4.923267
IONMODE: Negative
Comment: registered in RIKEN PlaSMA
Num Peaks: 9
127.04203	31
144.05147	31
149.07736	47
153.05727	35
154.05443	49
192.0696	31
213.1012	33
307.15002	47
367.1655	1000

NAME: Aristolochic acid C
PRECURSORMZ: 326.03062514783
PRECURSORTYPE: [M-H]-
INSTRUMENTTYPE: LC-ESI-QTOF
SMILES: OC(=O)C1=CC2=C(OCO2)C2=C3C=C(O)C=CC3=CC(=C12)N(=O)=O
INCHIKEY: NBFGYDJKTHENDP-UHFFFAOYSA-N
Ontology: Aristolochic acids and derivatives
COLLISIONENERGY: 10
FORMULA: C16H9NO7
RETENTIONTIME: 5.954183
IONMODE: Negative
Comment: registered in RIKEN PlaSMA
Num Peaks: 25
162.79662	6
164.15791	6
178.04259	36
179.04382	6
180.0578	32
191.0584	5
204.24379	8
206.03812	328
207.03909	79
207.04646	37
208.05273	39
209.06071	11
219.03465	5
219.04649	24
235.03723	12
236.04779	1000
237.05	113
238.04573	7
266.19141	6
280.03711	331
281.03018	14
281.04102	62
282.04453	24
283.04907	5
326.02661	40

NAME: Speciophylline
PRECURSORMZ: 367.16633084783
PRECURSORTYPE: [M-H]-
INSTRUMENTTYPE: LC-ESI-QTOF
SMILES: COC(=O)C1=COC(C)C2CN3CCC4(C3CC12)C(O)=NC1=CC=CC=C41
INCHIKEY: JMIAZDVHNCCPDM-UHFFFAOYNA-N
Ontology: Indolizidines
COLLISIONENERGY: 10
FORMULA: C21H24N2O4
RETENTIONTIME: 4.923267
IONMODE: Negative
Comment: registered in RIKEN PlaSMA
Num Peaks: 2
208.0943	18
367.16528	1000

NAME: Aristolochic acid C
PRECURSORMZ: 326.03062514783
PRECURSORTYPE: [M-H]-
INSTRUMENTTYPE: LC-ESI-QTOF
SMILES: OC(=O)C1=CC2=C(OCO2)C2=C3C=C(O)C=CC3=CC(=C12)N(=O)=O
INCHIKEY: NBFGYDJKTHENDP-UHFFFAOYSA-N
Ontology: Aristolochic acids and derivatives
COLLISIONENERGY: 10
FORMULA: C16H9NO7
RETENTIONTIME: 5.954183
IONMODE: Negative
Comment: registered in RIKEN PlaSMA
Num Peaks: 11
206.03175	5
236.04742	548
237.04794	52
237.05733	40
237.06932	8
238.04498	7
238.05264	11
280.03674	1000
281.04013	190
282.04129	70
326.03107	168

NAME: Speciophylline
PRECURSORMZ: 367.16633084783
PRECURSORTYPE: [M-H]-
INSTRUMENTTYPE: LC-ESI-QTOF
SMILES: COC(=O)C1=COC(C)C2CN3CCC4(C3CC12)C(O)=NC1=CC=CC=C41
INCHIKEY: JMIAZDVHNCCPDM-UHFFFAOYNA-N
Ontology: Indolizidines
COLLISIONENERGY: 30
FORMULA: C21H24N2O4
RETENTIONTIME: 4.923267
IONMODE: Negative
Comment: registered in RIKEN PlaSMA
Num Peaks: 15
101.02219	153
108.08357	181
127.04117	1000
129.05914	102
134.05669	141
144.04539	333
148.07278	424
158.06482	102
174.05516	237
175.08719	119
177.08035	119
251.08168	169
252.6369	164
261.09537	186
340.18802	124

NAME: Aristolochic acid C
PRECURSORMZ: 326.03062514783
PRECURSORTYPE: [M-H]-
INSTRUMENTTYPE: LC-ESI-QTOF
SMILES: OC(=O)C1=CC2=C(OCO2)C2=C3C=C(O)C=CC3=CC(=C12)N(=O)=O
INCHIKEY: NBFGYDJKTHENDP-UHFFFAOYSA-N
Ontology: Aristolochic acids and derivatives
COLLISIONENERGY: 30
FORMULA: C16H9NO7
RETENTIONTIME: 5.954183
IONMODE: Negative
Comment: registered in RIKEN PlaSMA
Num Peaks: 29
53.94827	6
119.20871	6
151.05882	11
152.07008	5
167.04547	5
167.79276	6
178.03648	20
178.04535	53
179.04979	56
180.05664	96
181.05475	19
183.0143	5
191.0585	13
199.01343	7
206.0372	1000
207.04277	322
208.04776	105
209.05261	13
209.06535	5
218.03731	11
219.04297	10
219.05336	8
223.03592	8
235.03284	31
235.04434	28
236.04689	402
237.05022	47
254.037	7
264.03851	6

NAME: Speciophylline
PRECURSORMZ: 367.16633084783
PRECURSORTYPE: [M-H]-
INSTRUMENTTYPE: LC-ESI-QTOF
SMILES: COC(=O)C1=COC(C)C2CN3CCC4(C3CC12)C(O)=NC1=CC=CC=C41
INCHIKEY: JMIAZDVHNCCPDM-UHFFFAOYNA-N
Ontology: Indolizidines
COLLISIONENERGY: 50
FORMULA: C21H24N2O4
RETENTIONTIME: 4.923267
IONMODE: Negative
Comment: registered in RIKEN PlaSMA
Num Peaks: 7
92.01189	413
122.02482	253
127.03561	627
132.04573	1000
144.03751	333
148.08148	267
246.0748	320

NAME: Aristolochic acid C
PRECURSORMZ: 326.03062514783
PRECURSORTYPE: [M-H]-
INSTRUMENTTYPE: LC-ESI-QTOF
SMILES: OC(=O)C1=CC2=C(OCO2)C2=C3C=C(O)C=CC3=CC(=C12)N(=O)=O
INCHIKEY: NBFGYDJKTHENDP-UHFFFAOYSA-N
Ontology: Aristolochic acids and derivatives
COLLISIONENERGY: 50
FORMULA: C16H9NO7
RETENTIONTIME: 5.954183
IONMODE: Negative
Comment: registered in RIKEN PlaSMA
Num Peaks: 20
137.0351	40
143.04984	50
149.03621	30
150.05429	73
151.06204	68
152.05571	40
162.03766	30
178.04099	1000
179.04617	102
179.05394	40
180.05208	87
180.06038	29
191.04636	67
192.04807	33
192.05942	33
194.03619	50
206.02596	40
206.04048	508
207.05075	177
208.0538	33

NAME: Sinomenine
PRECURSORMZ: 328.15543174783
PRECURSORTYPE: [M-H]-
INSTRUMENTTYPE: LC-ESI-QTOF
SMILES: COC1=CC2C3CC4=C(C(O)=C(OC)C=C4)C2(CCN3C)CC1=O
INCHIKEY: INYYVPJSBIVGPH-UHFFFAOYNA-N
Ontology: Morphinans
COLLISIONENERGY: 10
FORMULA: C19H23NO4
RETENTIONTIME: 3.043967
IONMODE: Negative
Comment: registered in RIKEN PlaSMA
Num Peaks: 8
162.06094	327
173.05106	164
214.09059	282
298.11194	191
312.73807	255
313.13641	191
314.13062	427
328.15939	1000

NAME: Speciofiline
PRECURSORMZ: 367.16633084783
PRECURSORTYPE: [M-H]-
INSTRUMENTTYPE: LC-ESI-QTOF
SMILES: COC(=O)C1=COC(C)C2CN3CCC4(C3CC12)C(O)=NC1=CC=CC=C41
INCHIKEY: JMIAZDVHNCCPDM-UHFFFAOYNA-N
Ontology: Indolizidines
COLLISIONENERGY: 10
FORMULA: C21H24N2O4
RETENTIONTIME: 4.08835
IONMODE: Negative
Comment: registered in RIKEN PlaSMA
Num Peaks: 4
106.02675	82
127.03355	82
367.16901	1000
367.19418	78

NAME: Sinomenine
PRECURSORMZ: 328.15543174783
PRECURSORTYPE: [M-H]-
INSTRUMENTTYPE: LC-ESI-QTOF
SMILES: COC1=CC2C3CC4=C(C(O)=C(OC)C=C4)C2(CCN3C)CC1=O
INCHIKEY: INYYVPJSBIVGPH-UHFFFAOYNA-N
Ontology: Morphinans
COLLISIONENERGY: 10
FORMULA: C19H23NO4
RETENTIONTIME: 3.043967
IONMODE: Negative
Comment: registered in RIKEN PlaSMA
Num Peaks: 6
271.11975	70
313.12515	73
314.1254	61
314.13885	55
314.16193	58
328.15698	1000

NAME: Speciofiline
PRECURSORMZ: 367.16633084783
PRECURSORTYPE: [M-H]-
INSTRUMENTTYPE: LC-ESI-QTOF
SMILES: COC(=O)C1=COC(C)C2CN3CCC4(C3CC12)C(O)=NC1=CC=CC=C41
INCHIKEY: JMIAZDVHNCCPDM-UHFFFAOYNA-N
Ontology: Indolizidines
COLLISIONENERGY: 10
FORMULA: C21H24N2O4
RETENTIONTIME: 4.08835
IONMODE: Negative
Comment: registered in RIKEN PlaSMA
Num Peaks: 3
155.06421	44
335.14972	44
367.1651	1000

NAME: Sinomenine
PRECURSORMZ: 328.15543174783
PRECURSORTYPE: [M-H]-
INSTRUMENTTYPE: LC-ESI-QTOF
SMILES: COC1=CC2C3CC4=C(C(O)=C(OC)C=C4)C2(CCN3C)CC1=O
INCHIKEY: INYYVPJSBIVGPH-UHFFFAOYNA-N
Ontology: Morphinans
COLLISIONENERGY: 30
FORMULA: C19H23NO4
RETENTIONTIME: 3.043967
IONMODE: Negative
Comment: registered in RIKEN PlaSMA
Num Peaks: 5
121.02625	463
174.04933	407
225.06053	500
240.04105	1000
313.12634	426

NAME: Speciofiline
PRECURSORMZ: 367.16633084783
PRECURSORTYPE: [M-H]-
INSTRUMENTTYPE: LC-ESI-QTOF
SMILES: COC(=O)C1=COC(C)C2CN3CCC4(C3CC12)C(O)=NC1=CC=CC=C41
INCHIKEY: JMIAZDVHNCCPDM-UHFFFAOYNA-N
Ontology: Indolizidines
COLLISIONENERGY: 30
FORMULA: C21H24N2O4
RETENTIONTIME: 4.08835
IONMODE: Negative
Comment: registered in RIKEN PlaSMA
Num Peaks: 8
67.50677	223
127.04212	1000
144.04811	162
185.07196	154
194.07651	138
201.10205	269
209.11623	300
287.14224	192

NAME: Sinomenine
PRECURSORMZ: 328.15543174783
PRECURSORTYPE: [M-H]-
INSTRUMENTTYPE: LC-ESI-QTOF
SMILES: COC1=CC2C3CC4=C(C(O)=C(OC)C=C4)C2(CCN3C)CC1=O
INCHIKEY: INYYVPJSBIVGPH-UHFFFAOYNA-N
Ontology: Morphinans
COLLISIONENERGY: 50
FORMULA: C19H23NO4
RETENTIONTIME: 3.043967
IONMODE: Negative
Comment: registered in RIKEN PlaSMA
Num Peaks: 6
93.03438	667
172.05356	741
183.04343	667
184.05031	963
196.05623	778
197.05836	1000

NAME: Speciofiline
PRECURSORMZ: 367.16633084783
PRECURSORTYPE: [M-H]-
INSTRUMENTTYPE: LC-ESI-QTOF
SMILES: COC(=O)C1=COC(C)C2CN3CCC4(C3CC12)C(O)=NC1=CC=CC=C41
INCHIKEY: JMIAZDVHNCCPDM-UHFFFAOYNA-N
Ontology: Indolizidines
COLLISIONENERGY: 50
FORMULA: C21H24N2O4
RETENTIONTIME: 4.08835
IONMODE: Negative
Comment: registered in RIKEN PlaSMA
Num Peaks: 2
116.04931	568
166.06187	1000

NAME: Sinomenine
PRECURSORMZ: 328.15543174783
PRECURSORTYPE: [M-H]-
INSTRUMENTTYPE: LC-ESI-QTOF
SMILES: COC1=CC2C3CC4=C(C(O)=C(OC)C=C4)C2(CCN3C)CC1=O
INCHIKEY: INYYVPJSBIVGPH-UHFFFAOYNA-N
Ontology: Morphinans
COLLISIONENERGY: 10
FORMULA: C19H23NO4
RETENTIONTIME: 3.043967
IONMODE: Negative
Comment: registered in RIKEN PlaSMA
Num Peaks: 7
212.04965	242
242.06575	242
270.11829	182
298.0947	505
313.12457	253
313.1369	1000
328.14139	424

NAME: Speciofiline
PRECURSORMZ: 367.16633084783
PRECURSORTYPE: [M-H]-
INSTRUMENTTYPE: LC-ESI-QTOF
SMILES: COC(=O)C1=COC(C)C2CN3CCC4(C3CC12)C(O)=NC1=CC=CC=C41
INCHIKEY: JMIAZDVHNCCPDM-UHFFFAOYNA-N
Ontology: Indolizidines
COLLISIONENERGY: 10
FORMULA: C21H24N2O4
RETENTIONTIME: 4.08835
IONMODE: Negative
Comment: registered in RIKEN PlaSMA
Num Peaks: 10
101.02565	93
127.03828	183
127.04516	123
130.05841	83
148.07875	183
154.05139	117
161.04706	60
176.07495	113
208.10017	63
367.16846	1000

NAME: Sinomenine
PRECURSORMZ: 328.15543174783
PRECURSORTYPE: [M-H]-
INSTRUMENTTYPE: LC-ESI-QTOF
SMILES: COC1=CC2C3CC4=C(C(O)=C(OC)C=C4)C2(CCN3C)CC1=O
INCHIKEY: INYYVPJSBIVGPH-UHFFFAOYNA-N
Ontology: Morphinans
COLLISIONENERGY: 10
FORMULA: C19H23NO4
RETENTIONTIME: 3.043967
IONMODE: Negative
Comment: registered in RIKEN PlaSMA
Num Peaks: 4
313.12723	435
328.12006	69
328.15063	1000
328.16644	156

NAME: Speciofiline
PRECURSORMZ: 367.16633084783
PRECURSORTYPE: [M-H]-
INSTRUMENTTYPE: LC-ESI-QTOF
SMILES: COC(=O)C1=COC(C)C2CN3CCC4(C3CC12)C(O)=NC1=CC=CC=C41
INCHIKEY: JMIAZDVHNCCPDM-UHFFFAOYNA-N
Ontology: Indolizidines
COLLISIONENERGY: 10
FORMULA: C21H24N2O4
RETENTIONTIME: 4.08835
IONMODE: Negative
Comment: registered in RIKEN PlaSMA
Num Peaks: 2
70.00066	43
367.16769	1000

NAME: Sinomenine
PRECURSORMZ: 328.15543174783
PRECURSORTYPE: [M-H]-
INSTRUMENTTYPE: LC-ESI-QTOF
SMILES: COC1=CC2C3CC4=C(C(O)=C(OC)C=C4)C2(CCN3C)CC1=O
INCHIKEY: INYYVPJSBIVGPH-UHFFFAOYNA-N
Ontology: Morphinans
COLLISIONENERGY: 30
FORMULA: C19H23NO4
RETENTIONTIME: 3.043967
IONMODE: Negative
Comment: registered in RIKEN PlaSMA
Num Peaks: 11
123.04175	282
138.05029	372
197.06355	256
199.03549	526
210.03342	333
212.04407	936
255.02692	385
255.06795	308
298.11377	1000
298.1221	346
313.13568	346

NAME: Speciofiline
PRECURSORMZ: 367.16633084783
PRECURSORTYPE: [M-H]-
INSTRUMENTTYPE: LC-ESI-QTOF
SMILES: COC(=O)C1=COC(C)C2CN3CCC4(C3CC12)C(O)=NC1=CC=CC=C41
INCHIKEY: JMIAZDVHNCCPDM-UHFFFAOYNA-N
Ontology: Indolizidines
COLLISIONENERGY: 30
FORMULA: C21H24N2O4
RETENTIONTIME: 4.08835
IONMODE: Negative
Comment: registered in RIKEN PlaSMA
Num Peaks: 15
101.02351	103
102.82459	140
102.84389	84
121.02337	93
122.02416	103
127.03691	1000
132.02988	112
133.0647	150
144.0428	131
148.07617	84
152.03728	201
158.05972	98
176.07204	238
185.07181	98
194.07979	98

NAME: Sinomenine
PRECURSORMZ: 328.15543174783
PRECURSORTYPE: [M-H]-
INSTRUMENTTYPE: LC-ESI-QTOF
SMILES: COC1=CC2C3CC4=C(C(O)=C(OC)C=C4)C2(CCN3C)CC1=O
INCHIKEY: INYYVPJSBIVGPH-UHFFFAOYNA-N
Ontology: Morphinans
COLLISIONENERGY: 50
FORMULA: C19H23NO4
RETENTIONTIME: 3.043967
IONMODE: Negative
Comment: registered in RIKEN PlaSMA
Num Peaks: 3
171.04663	453
184.0486	642
195.04865	1000

NAME: Speciofiline
PRECURSORMZ: 367.16633084783
PRECURSORTYPE: [M-H]-
INSTRUMENTTYPE: LC-ESI-QTOF
SMILES: COC(=O)C1=COC(C)C2CN3CCC4(C3CC12)C(O)=NC1=CC=CC=C41
INCHIKEY: JMIAZDVHNCCPDM-UHFFFAOYNA-N
Ontology: Indolizidines
COLLISIONENERGY: 50
FORMULA: C21H24N2O4
RETENTIONTIME: 4.08835
IONMODE: Negative
Comment: registered in RIKEN PlaSMA
Num Peaks: 5
112.01952	273
142.06325	439
144.04329	545
144.05142	1000
152.04076	333

NAME: Sinomenine
PRECURSORMZ: 328.15543174783
PRECURSORTYPE: [M-H]-
INSTRUMENTTYPE: LC-ESI-QTOF
SMILES: COC1=CC2C3CC4=C(C(O)=C(OC)C=C4)C2(CCN3C)CC1=O
INCHIKEY: INYYVPJSBIVGPH-UHFFFAOYNA-N
Ontology: Morphinans
COLLISIONENERGY: 10
FORMULA: C19H23NO4
RETENTIONTIME: 3.043967
IONMODE: Negative
Comment: registered in RIKEN PlaSMA
Num Peaks: 9
162.05992	112
224.04802	148
226.0625	166
240.04482	124
298.09769	272
298.1254	112
313.13449	272
328.14728	231
328.15897	1000

NAME: Speciofiline
PRECURSORMZ: 367.16633084783
PRECURSORTYPE: [M-H]-
INSTRUMENTTYPE: LC-ESI-QTOF
SMILES: COC(=O)C1=COC(C)C2CN3CCC4(C3CC12)C(O)=NC1=CC=CC=C41
INCHIKEY: JMIAZDVHNCCPDM-UHFFFAOYNA-N
Ontology: Indolizidines
COLLISIONENERGY: 10
FORMULA: C21H24N2O4
RETENTIONTIME: 4.08835
IONMODE: Negative
Comment: registered in RIKEN PlaSMA
Num Peaks: 5
127.03746	184
127.04744	65
144.05151	119
209.10002	54
367.16821	1000

NAME: Sinomenine
PRECURSORMZ: 328.15543174783
PRECURSORTYPE: [M-H]-
INSTRUMENTTYPE: LC-ESI-QTOF
SMILES: COC1=CC2C3CC4=C(C(O)=C(OC)C=C4)C2(CCN3C)CC1=O
INCHIKEY: INYYVPJSBIVGPH-UHFFFAOYNA-N
Ontology: Morphinans
COLLISIONENERGY: 10
FORMULA: C19H23NO4
RETENTIONTIME: 3.043967
IONMODE: Negative
Comment: registered in RIKEN PlaSMA
Num Peaks: 6
313.12384	469
313.13934	179
315.13278	74
328.11612	59
328.1503	1000
328.16071	469

NAME: Speciofiline
PRECURSORMZ: 367.16633084783
PRECURSORTYPE: [M-H]-
INSTRUMENTTYPE: LC-ESI-QTOF
SMILES: COC(=O)C1=COC(C)C2CN3CCC4(C3CC12)C(O)=NC1=CC=CC=C41
INCHIKEY: JMIAZDVHNCCPDM-UHFFFAOYNA-N
Ontology: Indolizidines
COLLISIONENERGY: 10
FORMULA: C21H24N2O4
RETENTIONTIME: 4.08835
IONMODE: Negative
Comment: registered in RIKEN PlaSMA
Num Peaks: 2
127.03756	42
367.16476	1000

NAME: Sinomenine
PRECURSORMZ: 328.15543174783
PRECURSORTYPE: [M-H]-
INSTRUMENTTYPE: LC-ESI-QTOF
SMILES: COC1=CC2C3CC4=C(C(O)=C(OC)C=C4)C2(CCN3C)CC1=O
INCHIKEY: INYYVPJSBIVGPH-UHFFFAOYNA-N
Ontology: Morphinans
COLLISIONENERGY: 30
FORMULA: C19H23NO4
RETENTIONTIME: 3.043967
IONMODE: Negative
Comment: registered in RIKEN PlaSMA
Num Peaks: 14
158.03065	517
176.06969	362
210.03712	397
212.05003	310
228.08397	397
231.06233	345
233.48563	500
240.03368	345
240.04022	862
269.06	431
313.12402	759
313.1358	1000
314.13757	345
328.11426	362

NAME: Speciofiline
PRECURSORMZ: 367.16633084783
PRECURSORTYPE: [M-H]-
INSTRUMENTTYPE: LC-ESI-QTOF
SMILES: COC(=O)C1=COC(C)C2CN3CCC4(C3CC12)C(O)=NC1=CC=CC=C41
INCHIKEY: JMIAZDVHNCCPDM-UHFFFAOYNA-N
Ontology: Indolizidines
COLLISIONENERGY: 30
FORMULA: C21H24N2O4
RETENTIONTIME: 4.08835
IONMODE: Negative
Comment: registered in RIKEN PlaSMA
Num Peaks: 10
108.04197	100
113.02184	86
122.02854	153
127.03994	1000
148.0764	100
152.04054	258
158.06656	110
201.10165	144
207.08063	86
208.1032	129

NAME: Sinomenine
PRECURSORMZ: 328.15543174783
PRECURSORTYPE: [M-H]-
INSTRUMENTTYPE: LC-ESI-QTOF
SMILES: COC1=CC2C3CC4=C(C(O)=C(OC)C=C4)C2(CCN3C)CC1=O
INCHIKEY: INYYVPJSBIVGPH-UHFFFAOYNA-N
Ontology: Morphinans
COLLISIONENERGY: 50
FORMULA: C19H23NO4
RETENTIONTIME: 3.043967
IONMODE: Negative
Comment: registered in RIKEN PlaSMA
Num Peaks: 6
160.04379	915
167.05838	511
197.04971	383
198.05374	511
211.03973	1000
211.06952	489

NAME: Speciofiline
PRECURSORMZ: 367.16633084783
PRECURSORTYPE: [M-H]-
INSTRUMENTTYPE: LC-ESI-QTOF
SMILES: COC(=O)C1=COC(C)C2CN3CCC4(C3CC12)C(O)=NC1=CC=CC=C41
INCHIKEY: JMIAZDVHNCCPDM-UHFFFAOYNA-N
Ontology: Indolizidines
COLLISIONENERGY: 50
FORMULA: C21H24N2O4
RETENTIONTIME: 4.08835
IONMODE: Negative
Comment: registered in RIKEN PlaSMA
Num Peaks: 4
122.02039	365
144.04539	1000
148.08157	692
158.06418	635

NAME: Carbazochrome sulfonate
PRECURSORMZ: 299.04556424783
PRECURSORTYPE: [M-H]-
INSTRUMENTTYPE: LC-ESI-QTOF
SMILES: CN1C(CC2=CC(=NNC(O)=N)C(=O)C=C12)S(O)(=O)=O
INCHIKEY: OZCACMPSTYQSMM-UHFFFAOYNA-N
Ontology: Indoles and derivatives
COLLISIONENERGY: 10
FORMULA: C10H12N4O5S
RETENTIONTIME: 2.686833
IONMODE: Negative
Comment: registered in RIKEN PlaSMA
Num Peaks: 43
69.31702	5
79.95599	30
80.96474	722
81.09472	7
81.93999	6
81.96459	7
82.95628	6
82.96497	8
106.54652	7
113.61893	5
130.05611	6
130.41512	6
130.44765	6
131.03944	101
132.03616	15
132.04376	5
146.06026	300
147.05785	23
147.0713	6
161.03609	8
164.08374	5
174.06586	155
175.07614	14
186.55406	7
192.06952	5
212.49646	6
217.06992	6
226.02457	8
256.03922	1000
257.04318	146
258.03433	52
261.2319	6
278.00729	5
282.01761	235
282.90463	6
283.00827	8
283.03119	13
283.66699	7
284.00366	9
284.01898	18
284.1763	6
298.26352	7
299.04453	627

NAME: Carbazochrome sulfonate
PRECURSORMZ: 299.04556424783
PRECURSORTYPE: [M-H]-
INSTRUMENTTYPE: LC-ESI-QTOF
SMILES: CN1C(CC2=CC(=NNC(O)=N)C(=O)C=C12)S(O)(=O)=O
INCHIKEY: OZCACMPSTYQSMM-UHFFFAOYNA-N
Ontology: Indoles and derivatives
COLLISIONENERGY: 10
FORMULA: C10H12N4O5S
RETENTIONTIME: 2.686833
IONMODE: Negative
Comment: registered in RIKEN PlaSMA
Num Peaks: 18
80.96473	164
82.9586	6
146.04703	5
146.06078	60
174.06467	162
175.06659	12
175.07399	10
217.06282	6
217.07428	16
256.03882	680
257.04056	99
258.03778	27
259.03769	6
282.0174	175
283.01065	17
283.02701	14
284.01941	10
299.0448	1000

NAME: Carbazochrome sulfonate
PRECURSORMZ: 299.04556424783
PRECURSORTYPE: [M-H]-
INSTRUMENTTYPE: LC-ESI-QTOF
SMILES: CN1C(CC2=CC(=NNC(O)=N)C(=O)C=C12)S(O)(=O)=O
INCHIKEY: OZCACMPSTYQSMM-UHFFFAOYNA-N
Ontology: Indoles and derivatives
COLLISIONENERGY: 30
FORMULA: C10H12N4O5S
RETENTIONTIME: 2.686833
IONMODE: Negative
Comment: registered in RIKEN PlaSMA
Num Peaks: 22
79.95834	167
80.9647	1000
81.96562	31
82.96001	73
82.96758	30
82.97292	11
97.43249	7
107.05083	10
131.03569	261
131.04129	123
132.03998	50
133.03949	8
146.06078	145
147.06802	12
148.06117	9
148.07123	12
164.08	23
165.08679	13
174.06709	24
174.07663	21
256.03195	12
258.05252	7

NAME: Carbazochrome sulfonate
PRECURSORMZ: 299.04556424783
PRECURSORTYPE: [M-H]-
INSTRUMENTTYPE: LC-ESI-QTOF
SMILES: CN1C(CC2=CC(=NNC(O)=N)C(=O)C=C12)S(O)(=O)=O
INCHIKEY: OZCACMPSTYQSMM-UHFFFAOYNA-N
Ontology: Indoles and derivatives
COLLISIONENERGY: 50
FORMULA: C10H12N4O5S
RETENTIONTIME: 2.686833
IONMODE: Negative
Comment: registered in RIKEN PlaSMA
Num Peaks: 8
79.95528	768
80.96473	1000
80.97011	209
82.60638	83
82.96036	98
131.03864	252
132.03607	106
161.03543	91

NAME: Carbazochrome sulfonate
PRECURSORMZ: 299.04556424783
PRECURSORTYPE: [M-H]-
INSTRUMENTTYPE: LC-ESI-QTOF
SMILES: CN1C(CC2=CC(=NNC(O)=N)C(=O)C=C12)S(O)(=O)=O
INCHIKEY: OZCACMPSTYQSMM-UHFFFAOYNA-N
Ontology: Indoles and derivatives
COLLISIONENERGY: 10
FORMULA: C10H12N4O5S
RETENTIONTIME: 2.686833
IONMODE: Negative
Comment: registered in RIKEN PlaSMA
Num Peaks: 52
58.09017	7
79.94986	5
79.95878	53
80.57843	7
80.96429	805
81.32979	6
81.95088	6
81.95997	5
81.97293	7
82.95974	47
109.4421	8
110.44691	8
131.02682	13
131.03735	110
132.04132	7
146.06075	201
146.07024	32
147.06509	26
152.66574	8
155.76993	6
156.30539	9
164.07361	14
164.08342	5
174.06709	206
174.08704	6
175.07004	40
175.53889	6
176.06915	14
192.07802	11
193.33162	6
198.02747	9
199.02974	9
217.07906	9
218.0831	8
226.0154	21
227.01825	7
235.7317	6
241.02003	9
254.03769	7
256.03918	1000
256.23666	6
257.0369	40
257.04791	84
258.03354	77
258.05115	8
259.05557	9
282.01904	240
282.0477	9
283.01706	39
284.03439	6
292.38449	6
299.04587	673

NAME: Carbazochrome sulfonate
PRECURSORMZ: 299.04556424783
PRECURSORTYPE: [M-H]-
INSTRUMENTTYPE: LC-ESI-QTOF
SMILES: CN1C(CC2=CC(=NNC(O)=N)C(=O)C=C12)S(O)(=O)=O
INCHIKEY: OZCACMPSTYQSMM-UHFFFAOYNA-N
Ontology: Indoles and derivatives
COLLISIONENERGY: 10
FORMULA: C10H12N4O5S
RETENTIONTIME: 2.686833
IONMODE: Negative
Comment: registered in RIKEN PlaSMA
Num Peaks: 12
80.96485	132
146.05847	98
174.06697	173
175.0665	9
217.07143	30
241.02464	9
256.03949	756
257.04123	83
258.03683	35
282.02048	222
283.01965	27
299.04517	1000

NAME: Carbazochrome sulfonate
PRECURSORMZ: 299.04556424783
PRECURSORTYPE: [M-H]-
INSTRUMENTTYPE: LC-ESI-QTOF
SMILES: CN1C(CC2=CC(=NNC(O)=N)C(=O)C=C12)S(O)(=O)=O
INCHIKEY: OZCACMPSTYQSMM-UHFFFAOYNA-N
Ontology: Indoles and derivatives
COLLISIONENERGY: 30
FORMULA: C10H12N4O5S
RETENTIONTIME: 2.686833
IONMODE: Negative
Comment: registered in RIKEN PlaSMA
Num Peaks: 21
51.97003	9
79.95647	78
80.96459	1000
81.32299	7
81.96455	9
82.95955	36
82.969	9
83.786	7
92.73371	10
131.0363	233
132.03796	20
132.04494	9
133.04231	7
133.04948	14
146.05743	64
146.06458	18
148.04974	8
164.08243	41
174.06139	7
256.03595	30
258.05005	14

NAME: Carbazochrome sulfonate
PRECURSORMZ: 299.04556424783
PRECURSORTYPE: [M-H]-
INSTRUMENTTYPE: LC-ESI-QTOF
SMILES: CN1C(CC2=CC(=NNC(O)=N)C(=O)C=C12)S(O)(=O)=O
INCHIKEY: OZCACMPSTYQSMM-UHFFFAOYNA-N
Ontology: Indoles and derivatives
COLLISIONENERGY: 50
FORMULA: C10H12N4O5S
RETENTIONTIME: 2.686833
IONMODE: Negative
Comment: registered in RIKEN PlaSMA
Num Peaks: 9
62.75119	56
72.78768	36
79.95402	294
80.96574	1000
91.02736	69
131.02968	54
131.04002	85
133.03751	46
149.05756	52

NAME: Carbazochrome sulfonate
PRECURSORMZ: 299.04556424783
PRECURSORTYPE: [M-H]-
INSTRUMENTTYPE: LC-ESI-QTOF
SMILES: CN1C(CC2=CC(=NNC(O)=N)C(=O)C=C12)S(O)(=O)=O
INCHIKEY: OZCACMPSTYQSMM-UHFFFAOYNA-N
Ontology: Indoles and derivatives
COLLISIONENERGY: 10
FORMULA: C10H12N4O5S
RETENTIONTIME: 2.686833
IONMODE: Negative
Comment: registered in RIKEN PlaSMA
Num Peaks: 41
52.05008	8
64.39667	11
79.95862	6
80.96491	658
81.97219	6
82.96292	24
131.03683	142
132.03842	5
141.8649	5
143.02478	7
146.05858	195
147.06245	13
148.06334	6
161.06012	7
164.07817	18
174.06657	150
175.06877	39
176.06136	5
176.07137	6
176.08234	5
192.06841	7
192.07784	8
217.07285	23
217.08337	6
217.17491	7
218.03201	10
226.24112	10
254.9151	5
256.03909	1000
256.28976	6
257.04172	179
258.03607	22
259.76077	6
282.00201	12
282.02063	169
282.04437	7
283.0267	21
284.02744	8
293.80441	5
296.55048	5
299.04419	500

NAME: Carbazochrome sulfonate
PRECURSORMZ: 299.04556424783
PRECURSORTYPE: [M-H]-
INSTRUMENTTYPE: LC-ESI-QTOF
SMILES: CN1C(CC2=CC(=NNC(O)=N)C(=O)C=C12)S(O)(=O)=O
INCHIKEY: OZCACMPSTYQSMM-UHFFFAOYNA-N
Ontology: Indoles and derivatives
COLLISIONENERGY: 10
FORMULA: C10H12N4O5S
RETENTIONTIME: 2.686833
IONMODE: Negative
Comment: registered in RIKEN PlaSMA
Num Peaks: 20
80.96416	177
146.05965	64
146.07016	7
147.06604	10
174.06665	170
175.06325	10
175.07339	7
217.06999	12
217.07889	11
239.01587	7
256.03873	799
257.03769	73
257.04941	41
258.03625	59
259.04666	6
273.63226	5
282.01801	261
283.02209	31
284.0145	13
299.04507	1000

NAME: Carbazochrome sulfonate
PRECURSORMZ: 299.04556424783
PRECURSORTYPE: [M-H]-
INSTRUMENTTYPE: LC-ESI-QTOF
SMILES: CN1C(CC2=CC(=NNC(O)=N)C(=O)C=C12)S(O)(=O)=O
INCHIKEY: OZCACMPSTYQSMM-UHFFFAOYNA-N
Ontology: Indoles and derivatives
COLLISIONENERGY: 30
FORMULA: C10H12N4O5S
RETENTIONTIME: 2.686833
IONMODE: Negative
Comment: registered in RIKEN PlaSMA
Num Peaks: 17
79.9576	172
80.96441	1000
81.52142	11
81.96218	9
81.9686	12
82.95818	85
82.97134	42
131.03741	262
132.03659	14
133.04312	12
146.06117	153
147.06624	25
148.06253	9
164.07939	36
175.0641	10
256.03442	57
299.03549	10

NAME: Carbazochrome sulfonate
PRECURSORMZ: 299.04556424783
PRECURSORTYPE: [M-H]-
INSTRUMENTTYPE: LC-ESI-QTOF
SMILES: CN1C(CC2=CC(=NNC(O)=N)C(=O)C=C12)S(O)(=O)=O
INCHIKEY: OZCACMPSTYQSMM-UHFFFAOYNA-N
Ontology: Indoles and derivatives
COLLISIONENERGY: 50
FORMULA: C10H12N4O5S
RETENTIONTIME: 2.686833
IONMODE: Negative
Comment: registered in RIKEN PlaSMA
Num Peaks: 7
79.95383	89
79.96105	95
80.96391	1000
81.95357	45
82.9582	37
131.03546	162
144.04173	72

NAME: Harmalol
PRECURSORMZ: 199.08768654783
PRECURSORTYPE: [M-H]-
INSTRUMENTTYPE: LC-ESI-QTOF
SMILES: CC1=C2NC3=CC(=O)C=CC3=C2CCN1
INCHIKEY: CRQDWQWZCNKKAC-UHFFFAOYSA-N
Ontology: Harmala alkaloids
COLLISIONENERGY: 10
FORMULA: C12H12N2O
RETENTIONTIME: 3.064167
IONMODE: Negative
Comment: registered in RIKEN PlaSMA
Num Peaks: 24
54.76743	17
128.04019	29
130.04164	17
131.03238	21
132.0365	29
132.04601	22
146.06242	29
153.06168	34
157.04935	79
157.05586	20
157.58841	20
158.06039	226
158.58461	19
159.06453	21
169.08067	33
171.06126	24
172.07016	24
172.07913	22
173.08057	25
183.0544	94
184.06651	141
197.07204	27
198.0802	36
199.0892	1000

NAME: Isomajdine
PRECURSORMZ: 427.18746014783
PRECURSORTYPE: [M-H]-
INSTRUMENTTYPE: LC-ESI-QTOF
SMILES: COC(=O)C1=COC(C)C2CN3CCC4(C3CC12)C(O)=NC1=C4C=CC(OC)=C1OC
INCHIKEY: TTZWEOINXHJHCY-UHFFFAOYNA-N
Ontology: Indolizidines
COLLISIONENERGY: 10
FORMULA: C23H28N2O6
RETENTIONTIME: 4.480933
IONMODE: Negative
Comment: registered in RIKEN PlaSMA
Num Peaks: 25
101.02508	31
162.02046	31
176.02687	32
176.03355	26
190.05377	93
213.03784	47
214.02972	62
214.04404	86
216.04709	28
216.57744	27
227.04848	36
230.09947	27
242.09343	28
243.07541	32
278.04315	27
309.12936	61
314.08749	78
342.0694	27
363.09756	30
369.13538	73
397.13559	163
412.15778	82
412.17252	120
414.15079	30
427.1839	1000

NAME: Harmalol
PRECURSORMZ: 199.08768654783
PRECURSORTYPE: [M-H]-
INSTRUMENTTYPE: LC-ESI-QTOF
SMILES: CC1=C2NC3=CC(=O)C=CC3=C2CCN1
INCHIKEY: CRQDWQWZCNKKAC-UHFFFAOYSA-N
Ontology: Harmala alkaloids
COLLISIONENERGY: 10
FORMULA: C12H12N2O
RETENTIONTIME: 3.064167
IONMODE: Negative
Comment: registered in RIKEN PlaSMA
Num Peaks: 15
132.0479	30
146.06027	10
157.05219	25
158.0594	87
158.06644	34
159.05931	15
159.06956	12
164.37793	8
172.07812	14
184.058	9
184.06938	9
185.06128	15
185.0686	9
198.07947	10
199.08679	1000

NAME: Isomajdine
PRECURSORMZ: 427.18746014783
PRECURSORTYPE: [M-H]-
INSTRUMENTTYPE: LC-ESI-QTOF
SMILES: COC(=O)C1=COC(C)C2CN3CCC4(C3CC12)C(O)=NC1=C4C=CC(OC)=C1OC
INCHIKEY: TTZWEOINXHJHCY-UHFFFAOYNA-N
Ontology: Indolizidines
COLLISIONENERGY: 10
FORMULA: C23H28N2O6
RETENTIONTIME: 4.480933
IONMODE: Negative
Comment: registered in RIKEN PlaSMA
Num Peaks: 6
285.12155	11
383.17508	20
412.15778	38
412.17258	13
413.16992	14
427.18729	1000

NAME: Harmalol
PRECURSORMZ: 199.08768654783
PRECURSORTYPE: [M-H]-
INSTRUMENTTYPE: LC-ESI-QTOF
SMILES: CC1=C2NC3=CC(=O)C=CC3=C2CCN1
INCHIKEY: CRQDWQWZCNKKAC-UHFFFAOYSA-N
Ontology: Harmala alkaloids
COLLISIONENERGY: 30
FORMULA: C12H12N2O
RETENTIONTIME: 3.064167
IONMODE: Negative
Comment: registered in RIKEN PlaSMA
Num Peaks: 18
131.03407	602
131.04193	212
131.35869	186
132.04842	1000
155.05511	301
157.04803	159
157.0601	230
158.04428	186
158.06538	177
169.27739	221
170.05499	212
171.07056	522
172.07162	478
172.90262	204
182.04607	274
183.05594	549
197.06874	239
198.06905	177

NAME: Isomajdine
PRECURSORMZ: 427.18746014783
PRECURSORTYPE: [M-H]-
INSTRUMENTTYPE: LC-ESI-QTOF
SMILES: COC(=O)C1=COC(C)C2CN3CCC4(C3CC12)C(O)=NC1=C4C=CC(OC)=C1OC
INCHIKEY: TTZWEOINXHJHCY-UHFFFAOYNA-N
Ontology: Indolizidines
COLLISIONENERGY: 30
FORMULA: C23H28N2O6
RETENTIONTIME: 4.480933
IONMODE: Negative
Comment: registered in RIKEN PlaSMA
Num Peaks: 44
152.0359	121
163.03268	67
175.01843	80
175.0291	93
175.04071	80
177.04189	70
186.01595	64
189.03584	77
190.05032	58
208.0896	77
214.02721	93
214.03819	73
215.05176	93
217.0611	83
227.04257	58
227.05402	67
228.06219	77
229.05864	109
232.06839	77
241.05424	64
256.56903	64
259.10016	70
283.09702	70
295.10156	70
310.05759	99
310.13495	80
310.43765	67
311.13733	64
321.12311	105
326.06818	80
342.0791	61
365.11603	118
368.13846	58
369.14926	125
395.11887	163
395.13614	58
397.12442	220
397.14233	1000
398.13885	208
411.15051	58
411.17511	86
412.15097	204
413.16422	102
427.19092	137

NAME: Harmalol
PRECURSORMZ: 199.08768654783
PRECURSORTYPE: [M-H]-
INSTRUMENTTYPE: LC-ESI-QTOF
SMILES: CC1=C2NC3=CC(=O)C=CC3=C2CCN1
INCHIKEY: CRQDWQWZCNKKAC-UHFFFAOYSA-N
Ontology: Harmala alkaloids
COLLISIONENERGY: 50
FORMULA: C12H12N2O
RETENTIONTIME: 3.064167
IONMODE: Negative
Comment: registered in RIKEN PlaSMA
Num Peaks: 1
172.01474	1000

NAME: Isomajdine
PRECURSORMZ: 427.18746014783
PRECURSORTYPE: [M-H]-
INSTRUMENTTYPE: LC-ESI-QTOF
SMILES: COC(=O)C1=COC(C)C2CN3CCC4(C3CC12)C(O)=NC1=C4C=CC(OC)=C1OC
INCHIKEY: TTZWEOINXHJHCY-UHFFFAOYNA-N
Ontology: Indolizidines
COLLISIONENERGY: 50
FORMULA: C23H28N2O6
RETENTIONTIME: 4.480933
IONMODE: Negative
Comment: registered in RIKEN PlaSMA
Num Peaks: 7
148.07828	280
149.01039	355
175.02234	1000
176.03204	323
210.05666	387
229.05841	312
395.1293	237

NAME: Harmalol
PRECURSORMZ: 199.08768654783
PRECURSORTYPE: [M-H]-
INSTRUMENTTYPE: LC-ESI-QTOF
SMILES: CC1=C2NC3=CC(=O)C=CC3=C2CCN1
INCHIKEY: CRQDWQWZCNKKAC-UHFFFAOYSA-N
Ontology: Harmala alkaloids
COLLISIONENERGY: 10
FORMULA: C12H12N2O
RETENTIONTIME: 3.064167
IONMODE: Negative
Comment: registered in RIKEN PlaSMA
Num Peaks: 24
130.06502	26
131.03581	93
132.04607	90
146.05493	19
156.03168	45
156.04683	18
157.04045	99
157.04971	114
158.05843	174
158.06741	117
159.06647	50
171.06131	26
171.08963	17
173.07147	38
182.04713	19
183.04681	20
183.05739	27
184.05896	31
184.06445	73
197.06123	20
197.07076	50
198.07901	23
199.0881	1000
199.11105	31

NAME: Isomajdine
PRECURSORMZ: 427.18746014783
PRECURSORTYPE: [M-H]-
INSTRUMENTTYPE: LC-ESI-QTOF
SMILES: COC(=O)C1=COC(C)C2CN3CCC4(C3CC12)C(O)=NC1=C4C=CC(OC)=C1OC
INCHIKEY: TTZWEOINXHJHCY-UHFFFAOYNA-N
Ontology: Indolizidines
COLLISIONENERGY: 10
FORMULA: C23H28N2O6
RETENTIONTIME: 4.480933
IONMODE: Negative
Comment: registered in RIKEN PlaSMA
Num Peaks: 30
175.01834	21
175.02759	25
190.05708	75
191.05904	29
201.0406	39
208.09456	53
213.02284	29
214.08876	23
215.04166	29
216.06854	35
240.04872	28
242.07219	21
243.08249	36
267.09842	22
273.52917	23
284.08038	35
284.11963	24
285.11481	24
310.0614	23
317.07825	31
323.06189	25
353.18787	24
355.13138	23
383.16483	44
397.14185	122
398.14749	27
412.16214	80
413.15106	27
413.18799	27
427.18576	1000

NAME: Harmalol
PRECURSORMZ: 199.08768654783
PRECURSORTYPE: [M-H]-
INSTRUMENTTYPE: LC-ESI-QTOF
SMILES: CC1=C2NC3=CC(=O)C=CC3=C2CCN1
INCHIKEY: CRQDWQWZCNKKAC-UHFFFAOYSA-N
Ontology: Harmala alkaloids
COLLISIONENERGY: 10
FORMULA: C12H12N2O
RETENTIONTIME: 3.064167
IONMODE: Negative
Comment: registered in RIKEN PlaSMA
Num Peaks: 20
77.8123	10
132.03751	6
132.04611	24
145.96361	6
154.34142	10
156.04492	8
158.06206	52
159.06171	11
159.07164	10
172.06868	7
172.07599	12
184.05785	10
184.06635	24
185.06259	6
185.07103	6
197.07048	8
198.07663	14
198.08792	7
199.08737	1000
199.2227	6

NAME: Isomajdine
PRECURSORMZ: 427.18746014783
PRECURSORTYPE: [M-H]-
INSTRUMENTTYPE: LC-ESI-QTOF
SMILES: COC(=O)C1=COC(C)C2CN3CCC4(C3CC12)C(O)=NC1=C4C=CC(OC)=C1OC
INCHIKEY: TTZWEOINXHJHCY-UHFFFAOYNA-N
Ontology: Indolizidines
COLLISIONENERGY: 10
FORMULA: C23H28N2O6
RETENTIONTIME: 4.480933
IONMODE: Negative
Comment: registered in RIKEN PlaSMA
Num Peaks: 7
127.04354	25
178.62083	11
335.19943	20
397.96033	11
412.15747	12
425.08597	13
427.18625	1000

NAME: Harmalol
PRECURSORMZ: 199.08768654783
PRECURSORTYPE: [M-H]-
INSTRUMENTTYPE: LC-ESI-QTOF
SMILES: CC1=C2NC3=CC(=O)C=CC3=C2CCN1
INCHIKEY: CRQDWQWZCNKKAC-UHFFFAOYSA-N
Ontology: Harmala alkaloids
COLLISIONENERGY: 30
FORMULA: C12H12N2O
RETENTIONTIME: 3.064167
IONMODE: Negative
Comment: registered in RIKEN PlaSMA
Num Peaks: 22
104.0461	154
131.03447	1000
132.04251	245
142.03738	128
142.06165	106
144.07817	128
154.05363	96
155.0399	229
157.05263	739
158.062	122
169.0343	112
169.04454	165
170.05829	101
171.07231	154
172.06784	112
181.05972	112
182.05325	106
183.05521	367
184.05798	271
196.06642	96
197.07101	144
199.0862	133

NAME: Isomajdine
PRECURSORMZ: 427.18746014783
PRECURSORTYPE: [M-H]-
INSTRUMENTTYPE: LC-ESI-QTOF
SMILES: COC(=O)C1=COC(C)C2CN3CCC4(C3CC12)C(O)=NC1=C4C=CC(OC)=C1OC
INCHIKEY: TTZWEOINXHJHCY-UHFFFAOYNA-N
Ontology: Indolizidines
COLLISIONENERGY: 30
FORMULA: C23H28N2O6
RETENTIONTIME: 4.480933
IONMODE: Negative
Comment: registered in RIKEN PlaSMA
Num Peaks: 36
127.04196	127
128.04102	53
148.08081	46
148.09119	51
150.01448	119
153.05269	56
163.02277	46
175.02512	48
190.04938	102
208.09622	69
214.0416	56
216.06325	66
217.06134	104
229.05836	53
231.0403	53
243.07516	94
243.08464	96
252.07106	63
285.08487	51
298.07291	51
303.06729	51
314.09329	74
355.13495	66
365.10098	58
365.11765	46
366.84488	96
369.14499	63
381.16699	89
395.11719	53
395.15643	74
396.11514	53
396.14417	46
396.66159	51
397.1409	1000
411.13858	81
411.16458	173

NAME: Harmalol
PRECURSORMZ: 199.08768654783
PRECURSORTYPE: [M-H]-
INSTRUMENTTYPE: LC-ESI-QTOF
SMILES: CC1=C2NC3=CC(=O)C=CC3=C2CCN1
INCHIKEY: CRQDWQWZCNKKAC-UHFFFAOYSA-N
Ontology: Harmala alkaloids
COLLISIONENERGY: 50
FORMULA: C12H12N2O
RETENTIONTIME: 3.064167
IONMODE: Negative
Comment: registered in RIKEN PlaSMA
Num Peaks: 1
137.01469	1000

NAME: Isomajdine
PRECURSORMZ: 427.18746014783
PRECURSORTYPE: [M-H]-
INSTRUMENTTYPE: LC-ESI-QTOF
SMILES: COC(=O)C1=COC(C)C2CN3CCC4(C3CC12)C(O)=NC1=C4C=CC(OC)=C1OC
INCHIKEY: TTZWEOINXHJHCY-UHFFFAOYNA-N
Ontology: Indolizidines
COLLISIONENERGY: 50
FORMULA: C23H28N2O6
RETENTIONTIME: 4.480933
IONMODE: Negative
Comment: registered in RIKEN PlaSMA
Num Peaks: 26
67.02171	268
90.03282	146
133.02376	179
152.03284	146
158.04468	203
160.03426	187
173.04675	236
173.05299	146
175.02826	1000
185.02858	220
185.03687	171
186.0385	220
188.02585	195
201.04352	439
209.0679	195
213.02661	268
214.0349	187
215.05498	171
216.05038	171
224.06125	146
228.06758	187
229.05052	195
251.04773	195
253.07999	301
268.1246	146
309.05078	179

NAME: Harmalol
PRECURSORMZ: 199.08768654783
PRECURSORTYPE: [M-H]-
INSTRUMENTTYPE: LC-ESI-QTOF
SMILES: CC1=C2NC3=CC(=O)C=CC3=C2CCN1
INCHIKEY: CRQDWQWZCNKKAC-UHFFFAOYSA-N
Ontology: Harmala alkaloids
COLLISIONENERGY: 10
FORMULA: C12H12N2O
RETENTIONTIME: 3.064167
IONMODE: Negative
Comment: registered in RIKEN PlaSMA
Num Peaks: 22
89.02648	23
114.03239	21
130.0647	17
130.07114	23
131.03606	77
132.03334	20
132.04459	73
146.06354	22
157.04498	24
157.05527	70
158.05792	121
158.06738	41
172.07082	122
173.06021	32
173.07436	17
182.05968	53
184.0661	133
196.0675	29
196.07974	26
197.07608	36
198.08131	48
199.08679	1000

NAME: Isomajdine
PRECURSORMZ: 427.18746014783
PRECURSORTYPE: [M-H]-
INSTRUMENTTYPE: LC-ESI-QTOF
SMILES: COC(=O)C1=COC(C)C2CN3CCC4(C3CC12)C(O)=NC1=C4C=CC(OC)=C1OC
INCHIKEY: TTZWEOINXHJHCY-UHFFFAOYNA-N
Ontology: Indolizidines
COLLISIONENERGY: 10
FORMULA: C23H28N2O6
RETENTIONTIME: 4.480933
IONMODE: Negative
Comment: registered in RIKEN PlaSMA
Num Peaks: 27
152.03542	26
190.05588	68
191.06013	23
204.06686	27
208.09549	27
208.10411	25
216.06561	27
217.07375	34
218.0641	23
227.04916	30
229.06296	70
243.07242	31
244.08034	23
257.09769	47
284.05466	35
311.13205	25
322.70569	32
396.1355	28
397.12311	28
397.14581	111
398.1489	27
406.90512	32
412.14893	35
412.16492	84
413.16098	30
413.18732	36
427.18594	1000

NAME: Harmalol
PRECURSORMZ: 199.08768654783
PRECURSORTYPE: [M-H]-
INSTRUMENTTYPE: LC-ESI-QTOF
SMILES: CC1=C2NC3=CC(=O)C=CC3=C2CCN1
INCHIKEY: CRQDWQWZCNKKAC-UHFFFAOYSA-N
Ontology: Harmala alkaloids
COLLISIONENERGY: 10
FORMULA: C12H12N2O
RETENTIONTIME: 3.064167
IONMODE: Negative
Comment: registered in RIKEN PlaSMA
Num Peaks: 13
131.03961	11
132.04427	7
156.03421	6
157.05734	9
158.05653	19
158.06488	18
159.06035	8
159.06863	8
169.06892	8
171.0564	9
172.07899	18
184.06134	7
199.08781	1000

NAME: Isomajdine
PRECURSORMZ: 427.18746014783
PRECURSORTYPE: [M-H]-
INSTRUMENTTYPE: LC-ESI-QTOF
SMILES: COC(=O)C1=COC(C)C2CN3CCC4(C3CC12)C(O)=NC1=C4C=CC(OC)=C1OC
INCHIKEY: TTZWEOINXHJHCY-UHFFFAOYNA-N
Ontology: Indolizidines
COLLISIONENERGY: 10
FORMULA: C23H28N2O6
RETENTIONTIME: 4.480933
IONMODE: Negative
Comment: registered in RIKEN PlaSMA
Num Peaks: 8
190.0498	24
224.19846	31
259.62262	10
393.89328	14
412.15952	13
412.18167	11
417.91113	15
427.18533	1000

NAME: Harmalol
PRECURSORMZ: 199.08768654783
PRECURSORTYPE: [M-H]-
INSTRUMENTTYPE: LC-ESI-QTOF
SMILES: CC1=C2NC3=CC(=O)C=CC3=C2CCN1
INCHIKEY: CRQDWQWZCNKKAC-UHFFFAOYSA-N
Ontology: Harmala alkaloids
COLLISIONENERGY: 30
FORMULA: C12H12N2O
RETENTIONTIME: 3.064167
IONMODE: Negative
Comment: registered in RIKEN PlaSMA
Num Peaks: 17
131.03816	305
132.04634	152
154.05438	166
155.03352	166
157.03299	172
157.05379	1000
158.05327	119
158.06683	278
169.04114	232
169.04985	377
171.06554	152
171.07179	212
172.07895	159
184.05455	159
184.07845	179
196.06949	119
197.07483	470

NAME: Isomajdine
PRECURSORMZ: 427.18746014783
PRECURSORTYPE: [M-H]-
INSTRUMENTTYPE: LC-ESI-QTOF
SMILES: COC(=O)C1=COC(C)C2CN3CCC4(C3CC12)C(O)=NC1=C4C=CC(OC)=C1OC
INCHIKEY: TTZWEOINXHJHCY-UHFFFAOYNA-N
Ontology: Indolizidines
COLLISIONENERGY: 30
FORMULA: C23H28N2O6
RETENTIONTIME: 4.480933
IONMODE: Negative
Comment: registered in RIKEN PlaSMA
Num Peaks: 39
101.02374	52
175.02406	52
175.03114	63
176.07201	86
187.68399	52
189.03798	47
190.04916	107
201.04645	55
203.06076	60
215.03099	52
215.04565	57
216.04112	50
216.06238	131
228.05412	52
229.05241	73
229.06396	128
243.07346	178
259.10416	68
270.04074	63
270.09537	97
277.0824	50
283.10876	99
308.03943	55
351.1044	76
364.09329	60
365.10718	50
365.12708	57
369.14954	172
369.18515	60
384.15814	91
395.14072	60
397.1402	1000
398.12469	73
398.14194	204
398.15588	110
411.14261	52
411.15472	52
413.16046	117
427.18213	55

NAME: Harmalol
PRECURSORMZ: 199.08768654783
PRECURSORTYPE: [M-H]-
INSTRUMENTTYPE: LC-ESI-QTOF
SMILES: CC1=C2NC3=CC(=O)C=CC3=C2CCN1
INCHIKEY: CRQDWQWZCNKKAC-UHFFFAOYSA-N
Ontology: Harmala alkaloids
COLLISIONENERGY: 50
FORMULA: C12H12N2O
RETENTIONTIME: 3.064167
IONMODE: Negative
Comment: registered in RIKEN PlaSMA
Num Peaks: 1
97.0674	1000

NAME: Isomajdine
PRECURSORMZ: 427.18746014783
PRECURSORTYPE: [M-H]-
INSTRUMENTTYPE: LC-ESI-QTOF
SMILES: COC(=O)C1=COC(C)C2CN3CCC4(C3CC12)C(O)=NC1=C4C=CC(OC)=C1OC
INCHIKEY: TTZWEOINXHJHCY-UHFFFAOYNA-N
Ontology: Indolizidines
COLLISIONENERGY: 50
FORMULA: C23H28N2O6
RETENTIONTIME: 4.480933
IONMODE: Negative
Comment: registered in RIKEN PlaSMA
Num Peaks: 21
95.05103	287
101.02164	217
144.0639	202
174.06596	194
175.02394	1000
188.03094	140
189.04184	217
200.06212	209
202.04651	295
226.04202	349
228.05345	155
237.022	155
239.05263	155
255.0925	163
272.06012	147
280.05426	163
281.05576	186
309.04315	140
309.12589	163
324.07797	155
337.12875	202

NAME: Evodiamine
PRECURSORMZ: 302.12988574783
PRECURSORTYPE: [M-H]-
INSTRUMENTTYPE: LC-ESI-QTOF
SMILES: CN1C2N(CCC3=C2NC2=CC=CC=C32)C(=O)C2=CC=CC=C12
INCHIKEY: TXDUTHBFYKGSAH-UHFFFAOYNA-N
Ontology: Beta carbolines
COLLISIONENERGY: 10
FORMULA: C19H17N3O
RETENTIONTIME: 7.774967
IONMODE: Negative
Comment: registered in RIKEN PlaSMA
Num Peaks: 9
116.05025	16
142.0659	158
143.06497	6
143.07101	9
154.05136	11
167.05669	6
169.07651	1000
170.07967	113
302.12891	596

NAME: Evodiamine
PRECURSORMZ: 302.12988574783
PRECURSORTYPE: [M-H]-
INSTRUMENTTYPE: LC-ESI-QTOF
SMILES: CN1C2N(CCC3=C2NC2=CC=CC=C32)C(=O)C2=CC=CC=C12
INCHIKEY: TXDUTHBFYKGSAH-UHFFFAOYNA-N
Ontology: Beta carbolines
COLLISIONENERGY: 10
FORMULA: C19H17N3O
RETENTIONTIME: 7.774967
IONMODE: Negative
Comment: registered in RIKEN PlaSMA
Num Peaks: 3
169.07649	196
170.07928	31
302.12973	1000

NAME: Evodiamine
PRECURSORMZ: 302.12988574783
PRECURSORTYPE: [M-H]-
INSTRUMENTTYPE: LC-ESI-QTOF
SMILES: CN1C2N(CCC3=C2NC2=CC=CC=C32)C(=O)C2=CC=CC=C12
INCHIKEY: TXDUTHBFYKGSAH-UHFFFAOYNA-N
Ontology: Beta carbolines
COLLISIONENERGY: 30
FORMULA: C19H17N3O
RETENTIONTIME: 7.774967
IONMODE: Negative
Comment: registered in RIKEN PlaSMA
Num Peaks: 8
116.05038	39
141.04443	8
142.0658	279
143.0701	26
154.05458	14
169.07681	1000
170.07956	146
171.08064	8

NAME: Evodiamine
PRECURSORMZ: 302.12988574783
PRECURSORTYPE: [M-H]-
INSTRUMENTTYPE: LC-ESI-QTOF
SMILES: CN1C2N(CCC3=C2NC2=CC=CC=C32)C(=O)C2=CC=CC=C12
INCHIKEY: TXDUTHBFYKGSAH-UHFFFAOYNA-N
Ontology: Beta carbolines
COLLISIONENERGY: 50
FORMULA: C19H17N3O
RETENTIONTIME: 7.774967
IONMODE: Negative
Comment: registered in RIKEN PlaSMA
Num Peaks: 12
116.04993	160
117.05445	16
140.04866	36
141.04674	90
142.06552	1000
143.06728	112
144.07558	5
154.0529	84
167.06187	30
168.06654	17
169.07639	93
170.08179	18

NAME: Evodiamine
PRECURSORMZ: 302.12988574783
PRECURSORTYPE: [M-H]-
INSTRUMENTTYPE: LC-ESI-QTOF
SMILES: CN1C2N(CCC3=C2NC2=CC=CC=C32)C(=O)C2=CC=CC=C12
INCHIKEY: TXDUTHBFYKGSAH-UHFFFAOYNA-N
Ontology: Beta carbolines
COLLISIONENERGY: 10
FORMULA: C19H17N3O
RETENTIONTIME: 7.774967
IONMODE: Negative
Comment: registered in RIKEN PlaSMA
Num Peaks: 9
116.05198	15
142.06621	178
143.06633	19
143.07439	5
154.05106	7
169.07658	1000
170.07883	139
171.0836	9
302.13049	571

NAME: Evodiamine
PRECURSORMZ: 302.12988574783
PRECURSORTYPE: [M-H]-
INSTRUMENTTYPE: LC-ESI-QTOF
SMILES: CN1C2N(CCC3=C2NC2=CC=CC=C32)C(=O)C2=CC=CC=C12
INCHIKEY: TXDUTHBFYKGSAH-UHFFFAOYNA-N
Ontology: Beta carbolines
COLLISIONENERGY: 10
FORMULA: C19H17N3O
RETENTIONTIME: 7.774967
IONMODE: Negative
Comment: registered in RIKEN PlaSMA
Num Peaks: 3
169.07671	200
170.07964	30
302.13016	1000

NAME: Evodiamine
PRECURSORMZ: 302.12988574783
PRECURSORTYPE: [M-H]-
INSTRUMENTTYPE: LC-ESI-QTOF
SMILES: CN1C2N(CCC3=C2NC2=CC=CC=C32)C(=O)C2=CC=CC=C12
INCHIKEY: TXDUTHBFYKGSAH-UHFFFAOYNA-N
Ontology: Beta carbolines
COLLISIONENERGY: 30
FORMULA: C19H17N3O
RETENTIONTIME: 7.774967
IONMODE: Negative
Comment: registered in RIKEN PlaSMA
Num Peaks: 10
116.05023	34
142.06548	308
143.06041	7
143.06857	22
154.05194	16
154.05986	5
167.0621	6
169.07634	1000
170.08011	152
171.08244	9

NAME: Evodiamine
PRECURSORMZ: 302.12988574783
PRECURSORTYPE: [M-H]-
INSTRUMENTTYPE: LC-ESI-QTOF
SMILES: CN1C2N(CCC3=C2NC2=CC=CC=C32)C(=O)C2=CC=CC=C12
INCHIKEY: TXDUTHBFYKGSAH-UHFFFAOYNA-N
Ontology: Beta carbolines
COLLISIONENERGY: 50
FORMULA: C19H17N3O
RETENTIONTIME: 7.774967
IONMODE: Negative
Comment: registered in RIKEN PlaSMA
Num Peaks: 18
116.05009	221
117.05228	22
118.06422	5
131.06519	8
140.04596	12
140.05096	33
141.04604	45
141.05246	23
142.0654	1000
143.06998	102
144.07162	6
145.04076	5
154.05292	33
155.05605	5
167.06003	37
169.07893	105
169.09099	5
260.75024	7

NAME: Evodiamine
PRECURSORMZ: 302.12988574783
PRECURSORTYPE: [M-H]-
INSTRUMENTTYPE: LC-ESI-QTOF
SMILES: CN1C2N(CCC3=C2NC2=CC=CC=C32)C(=O)C2=CC=CC=C12
INCHIKEY: TXDUTHBFYKGSAH-UHFFFAOYNA-N
Ontology: Beta carbolines
COLLISIONENERGY: 10
FORMULA: C19H17N3O
RETENTIONTIME: 7.774967
IONMODE: Negative
Comment: registered in RIKEN PlaSMA
Num Peaks: 8
116.05207	17
142.06581	190
143.06953	17
154.05177	7
169.07703	1000
170.08051	132
171.07918	6
302.12912	543

NAME: Evodiamine
PRECURSORMZ: 302.12988574783
PRECURSORTYPE: [M-H]-
INSTRUMENTTYPE: LC-ESI-QTOF
SMILES: CN1C2N(CCC3=C2NC2=CC=CC=C32)C(=O)C2=CC=CC=C12
INCHIKEY: TXDUTHBFYKGSAH-UHFFFAOYNA-N
Ontology: Beta carbolines
COLLISIONENERGY: 10
FORMULA: C19H17N3O
RETENTIONTIME: 7.774967
IONMODE: Negative
Comment: registered in RIKEN PlaSMA
Num Peaks: 3
169.07605	196
170.07962	17
302.12854	1000

NAME: Evodiamine
PRECURSORMZ: 302.12988574783
PRECURSORTYPE: [M-H]-
INSTRUMENTTYPE: LC-ESI-QTOF
SMILES: CN1C2N(CCC3=C2NC2=CC=CC=C32)C(=O)C2=CC=CC=C12
INCHIKEY: TXDUTHBFYKGSAH-UHFFFAOYNA-N
Ontology: Beta carbolines
COLLISIONENERGY: 30
FORMULA: C19H17N3O
RETENTIONTIME: 7.774967
IONMODE: Negative
Comment: registered in RIKEN PlaSMA
Num Peaks: 10
116.05008	32
142.06625	276
143.06914	35
154.05273	13
154.06496	5
167.05562	7
167.06201	7
169.07718	1000
170.07951	162
171.08313	11

NAME: Evodiamine
PRECURSORMZ: 302.12988574783
PRECURSORTYPE: [M-H]-
INSTRUMENTTYPE: LC-ESI-QTOF
SMILES: CN1C2N(CCC3=C2NC2=CC=CC=C32)C(=O)C2=CC=CC=C12
INCHIKEY: TXDUTHBFYKGSAH-UHFFFAOYNA-N
Ontology: Beta carbolines
COLLISIONENERGY: 50
FORMULA: C19H17N3O
RETENTIONTIME: 7.774967
IONMODE: Negative
Comment: registered in RIKEN PlaSMA
Num Peaks: 23
76.58672	9
102.03394	5
116.04919	140
116.05436	60
117.04054	6
118.05585	8
140.04774	26
140.05267	14
141.04031	19
141.05145	29
141.05928	8
142.06552	1000
143.0535	8
143.06885	103
144.07741	13
154.04482	13
154.05432	56
155.04776	6
155.05444	23
167.06105	32
168.06462	8
169.0775	155
170.0788	25

NAME: Kainic acid
PRECURSORMZ: 212.09283154783
PRECURSORTYPE: [M-H]-
INSTRUMENTTYPE: LC-ESI-QTOF
SMILES: CC(=C)C1CNC(C1CC(O)=O)C(O)=O
INCHIKEY: VLSMHEGGTFMBBZ-UHFFFAOYNA-N
Ontology: Kainoids
COLLISIONENERGY: 10
FORMULA: C10H15NO4
RETENTIONTIME: 2.445
IONMODE: Negative
Comment: registered in RIKEN PlaSMA
Num Peaks: 39
74.02417	9
78.03527	8
80.0526	8
82.0255	32
82.02923	80
86.02066	13
86.02546	8
93.03419	10
94.02573	10
95.03842	10
106.06613	126
107.04618	10
108.04012	8
108.07993	8
120.08539	15
122.10046	10
126.01337	13
130.06021	18
132.08134	88
135.0708	8
148.07475	34
150.05043	10
150.088	90
150.099	53
150.98911	8
151.09366	8
167.09418	16
168.06277	15
168.10298	1000
168.26984	8
168.52045	10
169.10582	61
169.11552	21
169.26645	9
181.02504	9
194.08113	192
195.09277	15
196.08389	8
212.09315	956

NAME: Amygdalin
PRECURSORMZ: 456.15113424783
PRECURSORTYPE: [M-H]-
INSTRUMENTTYPE: LC-ESI-QTOF
SMILES: OCC1OC(OCC2OC(OC(C#N)C3=CC=CC=C3)C(O)C(O)C2O)C(O)C(O)C1O
INCHIKEY: XUCIJNAGGSZNQT-UHFFFAOYNA-N
Ontology: Cyanogenic glycosides
COLLISIONENERGY: 10
FORMULA: C20H27NO11
RETENTIONTIME: 3.327617
IONMODE: Negative
Comment: registered in RIKEN PlaSMA
Num Peaks: 76
59.01311	31
71.01235	55
71.01883	15
85.0295	10
87.00549	13
89.02412	195
90.02238	23
90.02761	32
95.00938	24
97.02857	11
97.03357	8
98.03104	17
99.0473	13
101.02393	352
102.02718	10
103.03301	16
110.71078	10
111.01053	10
111.04733	10
113.02346	253
114.02628	8
119.03471	189
120.03165	8
122.0298	13
125.02361	266
125.25253	11
126.02621	16
127.02406	10
127.03841	8
131.03358	73
133.06473	10
135.04802	10
136.4622	12
137.02325	11
143.03386	161
144.03708	8
145.04826	14
147.04192	9
149.03912	21
159.03162	22
160.02654	10
161.04694	277
163.05186	9
167.03166	11
173.04266	10
177.05424	8
179.05534	221
180.06485	10
181.05873	9
185.06747	8
188.05244	18
188.06119	11
203.05409	17
215.86186	8
221.06256	141
222.07094	8
223.07216	9
229.50932	15
233.06068	17
233.07289	13
245.06705	41
263.07092	44
263.07953	52
264.07678	31
294.10077	12
317.11377	10
322.97333	10
323.09799	1000
323.15375	8
324.09134	24
324.10519	119
324.11444	48
325.09427	26
429.1492	9
456.1535	480
456.20026	10

NAME: Amygdalin
PRECURSORMZ: 502.15661355183
PRECURSORTYPE: [M+FA-H]-
INSTRUMENTTYPE: LC-ESI-QTOF
SMILES: OCC1OC(OCC2OC(OC(C#N)C3=CC=CC=C3)C(O)C(O)C2O)C(O)C(O)C1O
INCHIKEY: XUCIJNAGGSZNQT-UHFFFAOYNA-N
Ontology: Cyanogenic glycosides
COLLISIONENERGY: 10
FORMULA: C20H27NO11
RETENTIONTIME: 3.327617
IONMODE: Negative
Comment: registered in RIKEN PlaSMA
Num Peaks: 72
59.01286	12
71.01414	66
73.02663	8
73.03033	24
75.37637	8
81.03564	10
87.00871	33
89.02456	169
89.14269	8
99.00588	10
101.02307	152
109.02289	10
111.00438	10
112.01633	8
113.02378	98
114.0307	11
119.03471	139
120.03775	12
125.01895	20
125.02657	67
126.03315	9
127.038	12
131.0332	59
131.04147	18
132.03844	9
140.04245	11
143.02925	22
143.03694	30
144.03474	17
145.05434	13
149.04018	8
161.0437	102
162.05	18
175.04239	9
179.05568	203
180.0621	10
181.06065	10
189.05196	16
198.95689	9
203.05551	15
203.06407	12
221.05096	8
221.0661	90
221.08305	12
222.07759	16
224.07709	9
231.08376	11
232.07047	9
245.06541	51
246.616	11
263.06497	8
263.08401	54
268.77078	9
294.08994	17
295.09937	10
323.09781	839
323.1243	15
324.10214	162
325.10455	23
411.13681	11
415.07361	11
456.14706	1000
456.18747	12
457.15036	298
457.17798	64
458.15594	54
459.1286	11
459.17816	13
460.14764	13
502.12357	8
502.16129	28
502.18121	22

NAME: Vincanidine
PRECURSORMZ: 307.14520144783
PRECURSORTYPE: [M-H]-
INSTRUMENTTYPE: LC-ESI-QTOF
SMILES: CC=C1CN2CCC34C2CC1C(C=O)=C3NC1=C4C=CC=C1O
INCHIKEY: JDOFCMASVRMYJU-UHFFFAOYNA-N
Ontology: Strychnos alkaloids
COLLISIONENERGY: 10
FORMULA: C19H20N2O2
RETENTIONTIME: 3.39095
IONMODE: Negative
Comment: registered in RIKEN PlaSMA
Num Peaks: 34
160.03873	19
170.0592	58
180.08894	29
184.07208	20
195.06973	20
199.0524	27
208.0713	49
208.08214	32
209.07979	28
210.06288	19
211.07745	30
211.09076	49
220.06863	32
221.08524	25
222.05772	69
223.05798	35
224.07623	19
225.07765	22
225.11168	21
235.05995	27
236.07539	43
237.08432	56
238.07709	22
239.0919	196
239.10577	16
239.60605	19
240.09818	86
247.07568	53
250.09215	48
252.10243	52
253.10551	29
263.12204	28
279.19385	19
307.1427	1000

NAME: Kainic acid
PRECURSORMZ: 212.09283154783
PRECURSORTYPE: [M-H]-
INSTRUMENTTYPE: LC-ESI-QTOF
SMILES: CC(=C)C1CNC(C1CC(O)=O)C(O)=O
INCHIKEY: VLSMHEGGTFMBBZ-UHFFFAOYNA-N
Ontology: Kainoids
COLLISIONENERGY: 10
FORMULA: C10H15NO4
RETENTIONTIME: 2.445
IONMODE: Negative
Comment: registered in RIKEN PlaSMA
Num Peaks: 14
82.02776	40
83.04704	6
86.02106	12
86.02596	7
106.06846	34
122.09645	11
132.0808	12
150.09235	112
151.09937	10
168.10248	651
169.10538	80
194.08095	206
195.08582	30
212.09276	1000

NAME: Amygdalin
PRECURSORMZ: 456.15113424783
PRECURSORTYPE: [M-H]-
INSTRUMENTTYPE: LC-ESI-QTOF
SMILES: OCC1OC(OCC2OC(OC(C#N)C3=CC=CC=C3)C(O)C(O)C2O)C(O)C(O)C1O
INCHIKEY: XUCIJNAGGSZNQT-UHFFFAOYNA-N
Ontology: Cyanogenic glycosides
COLLISIONENERGY: 10
FORMULA: C20H27NO11
RETENTIONTIME: 3.327617
IONMODE: Negative
Comment: registered in RIKEN PlaSMA
Num Peaks: 40
71.01398	18
85.035	6
89.02391	55
101.02357	32
113.02349	17
119.03402	36
120.03159	5
125.02327	34
131.02739	7
131.03464	9
132.03491	9
139.04556	7
143.03369	50
149.04509	12
161.04533	76
162.04704	7
167.03888	6
175.0428	8
179.05699	192
180.0563	9
188.05417	13
203.06071	8
205.18729	6
221.06808	114
222.0663	7
222.07416	15
225.28886	5
233.06134	12
245.06612	11
263.07401	42
263.08469	33
264.07941	12
294.09558	11
305.08237	6
323.09894	1000
324.10205	159
325.10129	25
325.11536	6
456.15189	535
456.19907	8

NAME: Amygdalin
PRECURSORMZ: 502.15661355183
PRECURSORTYPE: [M+FA-H]-
INSTRUMENTTYPE: LC-ESI-QTOF
SMILES: OCC1OC(OCC2OC(OC(C#N)C3=CC=CC=C3)C(O)C(O)C2O)C(O)C(O)C1O
INCHIKEY: XUCIJNAGGSZNQT-UHFFFAOYNA-N
Ontology: Cyanogenic glycosides
COLLISIONENERGY: 10
FORMULA: C20H27NO11
RETENTIONTIME: 3.327617
IONMODE: Negative
Comment: registered in RIKEN PlaSMA
Num Peaks: 15
125.0272	5
179.04863	6
179.05704	12
263.08014	10
323.09753	315
324.09152	12
324.10486	58
325.10159	9
456.15118	1000
457.15485	239
458.14899	25
458.16858	15
459.15503	8
459.51248	5
502.15665	129

NAME: Vincanidine
PRECURSORMZ: 307.14520144783
PRECURSORTYPE: [M-H]-
INSTRUMENTTYPE: LC-ESI-QTOF
SMILES: CC=C1CN2CCC34C2CC1C(C=O)=C3NC1=C4C=CC=C1O
INCHIKEY: JDOFCMASVRMYJU-UHFFFAOYNA-N
Ontology: Strychnos alkaloids
COLLISIONENERGY: 10
FORMULA: C19H20N2O2
RETENTIONTIME: 3.39095
IONMODE: Negative
Comment: registered in RIKEN PlaSMA
Num Peaks: 10
166.67627	8
177.01012	11
219.91884	11
237.08534	20
251.0995	9
264.0968	8
265.10324	8
279.11713	12
307.14581	1000
307.17404	12

NAME: Kainic acid
PRECURSORMZ: 212.09283154783
PRECURSORTYPE: [M-H]-
INSTRUMENTTYPE: LC-ESI-QTOF
SMILES: CC(=C)C1CNC(C1CC(O)=O)C(O)=O
INCHIKEY: VLSMHEGGTFMBBZ-UHFFFAOYNA-N
Ontology: Kainoids
COLLISIONENERGY: 30
FORMULA: C10H15NO4
RETENTIONTIME: 2.445
IONMODE: Negative
Comment: registered in RIKEN PlaSMA
Num Peaks: 9
66.03688	476
72.00576	889
86.02615	397
91.05029	349
92.04915	286
106.0628	302
122.1015	1000
126.05903	317
168.1021	333

NAME: Amygdalin
PRECURSORMZ: 456.15113424783
PRECURSORTYPE: [M-H]-
INSTRUMENTTYPE: LC-ESI-QTOF
SMILES: OCC1OC(OCC2OC(OC(C#N)C3=CC=CC=C3)C(O)C(O)C2O)C(O)C(O)C1O
INCHIKEY: XUCIJNAGGSZNQT-UHFFFAOYNA-N
Ontology: Cyanogenic glycosides
COLLISIONENERGY: 30
FORMULA: C20H27NO11
RETENTIONTIME: 3.327617
IONMODE: Negative
Comment: registered in RIKEN PlaSMA
Num Peaks: 56
59.01406	214
69.0363	48
71.01115	300
71.01771	41
71.35487	27
73.02932	204
81.03648	28
83.01575	64
85.02947	104
87.00465	92
87.01101	35
87.04383	50
89.02371	1000
90.0288	88
95.00984	25
97.02526	196
98.99563	28
99.00659	28
101.02441	602
102.02241	27
102.02628	62
103.05224	78
107.00919	78
111.005	36
111.01064	53
113.02242	786
114.02785	49
117.8981	41
119.02569	39
119.03445	216
121.03506	43
125.02453	569
126.78025	35
128.84116	27
131.02924	43
131.03831	183
132.03542	63
132.0439	28
133.06482	32
135.04512	27
139.00124	42
141.01164	28
143.03329	294
149.03966	25
159.02782	38
161.04247	567
161.19516	28
173.04575	35
175.03223	60
175.04468	48
180.06219	29
203.06578	83
221.06114	35
221.0733	35
233.07143	28
245.07162	32

NAME: Amygdalin
PRECURSORMZ: 502.15661355183
PRECURSORTYPE: [M+FA-H]-
INSTRUMENTTYPE: LC-ESI-QTOF
SMILES: OCC1OC(OCC2OC(OC(C#N)C3=CC=CC=C3)C(O)C(O)C2O)C(O)C(O)C1O
INCHIKEY: XUCIJNAGGSZNQT-UHFFFAOYNA-N
Ontology: Cyanogenic glycosides
COLLISIONENERGY: 30
FORMULA: C20H27NO11
RETENTIONTIME: 3.327617
IONMODE: Negative
Comment: registered in RIKEN PlaSMA
Num Peaks: 50
59.01197	32
59.01456	59
71.01277	57
71.01689	56
73.0303	54
85.02814	53
85.0319	119
87.00352	34
87.01151	26
89.02333	1000
95.01528	40
96.02061	32
97.02778	95
99.00298	26
101.0231	777
101.03267	37
102.02699	26
113.02293	301
119.03384	474
120.04271	29
121.03445	88
125.01875	184
125.02489	301
126.02443	48
129.02017	32
131.03293	236
131.0451	112
139.0386	59
141.95354	29
143.03535	225
147.04532	34
149.04254	37
149.86497	34
151.04485	35
159.03372	28
159.04529	38
161.0455	692
162.04468	34
175.03954	91
179.05472	82
189.05536	29
203.07535	40
221.06609	194
221.07587	82
222.07513	35
245.07249	216
245.99698	90
246.0634	26
263.06354	26
263.07751	132

NAME: Vincanidine
PRECURSORMZ: 307.14520144783
PRECURSORTYPE: [M-H]-
INSTRUMENTTYPE: LC-ESI-QTOF
SMILES: CC=C1CN2CCC34C2CC1C(C=O)=C3NC1=C4C=CC=C1O
INCHIKEY: JDOFCMASVRMYJU-UHFFFAOYNA-N
Ontology: Strychnos alkaloids
COLLISIONENERGY: 30
FORMULA: C19H20N2O2
RETENTIONTIME: 3.39095
IONMODE: Negative
Comment: registered in RIKEN PlaSMA
Num Peaks: 31
169.05371	99
171.05753	121
182.06114	269
183.043	110
183.05537	192
183.06232	99
196.05852	170
199.09003	137
208.07521	1000
208.09201	165
209.07074	104
209.07845	137
210.05519	104
222.04919	104
222.06108	104
222.09209	110
222.51228	99
223.06267	198
223.07559	286
223.09943	99
224.06609	396
224.07719	165
224.10478	115
236.06737	577
236.08774	110
237.11501	198
237.31404	104
238.08736	104
238.10104	115
252.10468	132
261.10995	121

NAME: Amygdalin
PRECURSORMZ: 456.15113424783
PRECURSORTYPE: [M-H]-
INSTRUMENTTYPE: LC-ESI-QTOF
SMILES: OCC1OC(OCC2OC(OC(C#N)C3=CC=CC=C3)C(O)C(O)C2O)C(O)C(O)C1O
INCHIKEY: XUCIJNAGGSZNQT-UHFFFAOYNA-N
Ontology: Cyanogenic glycosides
COLLISIONENERGY: 50
FORMULA: C20H27NO11
RETENTIONTIME: 3.327617
IONMODE: Negative
Comment: registered in RIKEN PlaSMA
Num Peaks: 13
59.01462	1000
71.0122	370
73.02635	260
74.03329	146
83.01788	94
85.02976	281
86.03336	172
95.01579	266
99.00538	323
111.00882	229
113.02544	94
125.02742	234
148.09219	167

NAME: Amygdalin
PRECURSORMZ: 502.15661355183
PRECURSORTYPE: [M+FA-H]-
INSTRUMENTTYPE: LC-ESI-QTOF
SMILES: OCC1OC(OCC2OC(OC(C#N)C3=CC=CC=C3)C(O)C(O)C2O)C(O)C(O)C1O
INCHIKEY: XUCIJNAGGSZNQT-UHFFFAOYNA-N
Ontology: Cyanogenic glycosides
COLLISIONENERGY: 50
FORMULA: C20H27NO11
RETENTIONTIME: 3.327617
IONMODE: Negative
Comment: registered in RIKEN PlaSMA
Num Peaks: 24
59.01334	833
61.01465	150
71.01476	667
71.02233	150
72.01881	150
81.03347	158
83.01212	242
85.02503	558
85.02898	200
86.0323	217
89.02102	450
89.02853	433
95.6284	175
99.00725	350
100.01662	167
101.02237	892
113.02086	583
119.03471	175
125.02287	1000
126.0279	483
131.03601	175
135.04723	283
161.04671	150
175.03407	217

NAME: Vincanidine
PRECURSORMZ: 307.14520144783
PRECURSORTYPE: [M-H]-
INSTRUMENTTYPE: LC-ESI-QTOF
SMILES: CC=C1CN2CCC34C2CC1C(C=O)=C3NC1=C4C=CC=C1O
INCHIKEY: JDOFCMASVRMYJU-UHFFFAOYNA-N
Ontology: Strychnos alkaloids
COLLISIONENERGY: 50
FORMULA: C19H20N2O2
RETENTIONTIME: 3.39095
IONMODE: Negative
Comment: registered in RIKEN PlaSMA
Num Peaks: 7
69.03372	355
154.05734	1000
155.03857	435
180.08334	484
197.0631	323
219.06024	290
222.09694	355

NAME: Kainic acid
PRECURSORMZ: 212.09283154783
PRECURSORTYPE: [M-H]-
INSTRUMENTTYPE: LC-ESI-QTOF
SMILES: CC(=C)C1CNC(C1CC(O)=O)C(O)=O
INCHIKEY: VLSMHEGGTFMBBZ-UHFFFAOYNA-N
Ontology: Kainoids
COLLISIONENERGY: 10
FORMULA: C10H15NO4
RETENTIONTIME: 2.445
IONMODE: Negative
Comment: registered in RIKEN PlaSMA
Num Peaks: 28
71.05195	15
72.0062	13
82.02973	69
86.02316	48
86.02843	25
94.02926	9
106.06573	74
112.9115	9
118.06995	19
122.09911	25
122.10335	10
125.01448	16
125.1128	9
132.08057	31
133.08301	9
150.09143	86
151.08478	9
151.09821	10
152.0722	9
166.09119	12
167.91345	8
168.10283	810
168.38414	9
169.10306	49
169.10977	44
170.10614	10
194.08076	160
212.09181	1000

NAME: Amygdalin
PRECURSORMZ: 456.15113424783
PRECURSORTYPE: [M-H]-
INSTRUMENTTYPE: LC-ESI-QTOF
SMILES: OCC1OC(OCC2OC(OC(C#N)C3=CC=CC=C3)C(O)C(O)C2O)C(O)C(O)C1O
INCHIKEY: XUCIJNAGGSZNQT-UHFFFAOYNA-N
Ontology: Cyanogenic glycosides
COLLISIONENERGY: 10
FORMULA: C20H27NO11
RETENTIONTIME: 3.327617
IONMODE: Negative
Comment: registered in RIKEN PlaSMA
Num Peaks: 83
56.98534	8
59.01119	7
59.01586	8
71.01273	63
73.03166	12
75.89476	10
83.01476	13
85.02814	66
87.00095	7
87.00945	9
89.02246	236
89.02846	75
90.02554	19
91.02604	7
95.01012	7
97.02776	13
99.00492	8
101.02335	316
102.02396	7
107.03184	8
112.01033	9
113.01862	26
113.02537	89
115.00404	7
115.03056	7
115.39169	7
119.03457	235
120.03632	7
125.02253	223
126.02642	15
131.03581	94
133.03824	9
135.04523	8
137.02753	7
139.03458	12
139.04425	8
143.03035	65
144.03943	9
149.04106	9
149.04977	21
150.0481	8
152.21945	7
155.03455	16
158.06367	7
160.0358	9
161.04594	281
161.06259	7
162.04411	24
162.05322	26
167.03273	16
171.02783	7
171.8138	8
175.04541	13
179.05455	246
180.05116	22
180.05913	19
188.05574	50
189.0567	9
191.93805	9
203.05951	11
215.06076	8
221.06566	110
222.06915	42
231.05731	7
233.06561	9
234.07204	7
245.04858	7
245.0583	20
245.0735	17
261.44763	8
263.07751	65
265.08456	11
294.08752	8
322.37677	7
323.09781	1000
324.09598	73
324.11023	25
325.09027	16
325.10587	18
328.8598	7
390.31805	9
456.15158	358
456.29559	7

NAME: Amygdalin
PRECURSORMZ: 502.15661355183
PRECURSORTYPE: [M+FA-H]-
INSTRUMENTTYPE: LC-ESI-QTOF
SMILES: OCC1OC(OCC2OC(OC(C#N)C3=CC=CC=C3)C(O)C(O)C2O)C(O)C(O)C1O
INCHIKEY: XUCIJNAGGSZNQT-UHFFFAOYNA-N
Ontology: Cyanogenic glycosides
COLLISIONENERGY: 10
FORMULA: C20H27NO11
RETENTIONTIME: 3.327617
IONMODE: Negative
Comment: registered in RIKEN PlaSMA
Num Peaks: 70
59.01191	44
85.02527	8
87.01193	9
89.01715	13
89.02373	49
97.02575	9
98.17924	8
99.04527	9
99.42368	9
101.02345	158
102.02789	8
103.01809	10
111.01246	9
113.0236	53
119.03191	74
121.04312	9
125.02482	104
126.02993	10
131.03072	18
131.03622	29
131.05177	16
132.0433	11
143.03651	34
144.03429	9
145.05196	9
149.04622	8
149.05432	14
161.04324	151
173.04292	9
175.03986	20
179.03815	9
179.05453	115
179.06392	22
180.05351	11
180.06755	13
182.05946	7
188.05647	9
189.05649	9
189.06628	7
192.27791	15
192.33638	10
198.63377	9
215.05876	8
221.05286	8
221.06836	121
222.06859	19
245.0535	9
245.06409	17
245.07594	8
246.07106	9
256.49933	13
260.02325	16
263.0748	18
263.08868	16
287.00958	8
305.08585	8
323.095	564
323.11032	114
324.08868	25
324.10938	51
325.57916	12
336.1015	9
411.1431	9
456.15094	1000
457.1517	206
458.14487	12
458.16171	31
459.16409	13
502.14624	43
502.16907	8

NAME: Vincanidine
PRECURSORMZ: 307.14520144783
PRECURSORTYPE: [M-H]-
INSTRUMENTTYPE: LC-ESI-QTOF
SMILES: CC=C1CN2CCC34C2CC1C(C=O)=C3NC1=C4C=CC=C1O
INCHIKEY: JDOFCMASVRMYJU-UHFFFAOYNA-N
Ontology: Strychnos alkaloids
COLLISIONENERGY: 10
FORMULA: C19H20N2O2
RETENTIONTIME: 3.39095
IONMODE: Negative
Comment: registered in RIKEN PlaSMA
Num Peaks: 42
152.9709	18
160.04256	29
171.03336	19
173.05031	23
173.86833	24
195.06621	71
196.07274	38
197.05954	21
197.06717	15
208.07379	44
209.07719	24
210.052	17
210.07907	16
211.09558	19
222.06053	19
223.06998	23
223.09309	29
224.06189	34
224.0771	17
224.10403	18
224.11786	35
225.11201	19
227.0808	23
236.07455	37
236.10158	20
237.07413	24
237.08607	32
238.08206	55
238.09021	97
239.08992	68
240.1022	34
251.09285	49
254.70572	25
263.09125	17
263.12619	15
263.13629	36
279.14532	27
279.15936	57
280.13596	26
280.14923	20
297.99271	22
307.14612	1000

NAME: Kainic acid
PRECURSORMZ: 212.09283154783
PRECURSORTYPE: [M-H]-
INSTRUMENTTYPE: LC-ESI-QTOF
SMILES: CC(=C)C1CNC(C1CC(O)=O)C(O)=O
INCHIKEY: VLSMHEGGTFMBBZ-UHFFFAOYNA-N
Ontology: Kainoids
COLLISIONENERGY: 10
FORMULA: C10H15NO4
RETENTIONTIME: 2.445
IONMODE: Negative
Comment: registered in RIKEN PlaSMA
Num Peaks: 13
82.03291	17
86.02622	19
106.06677	34
126.01589	8
132.07797	17
150.09299	65
151.09698	12
168.10188	676
169.10359	67
194.0809	195
195.08275	10
195.08971	5
212.09244	1000

NAME: Amygdalin
PRECURSORMZ: 456.15113424783
PRECURSORTYPE: [M-H]-
INSTRUMENTTYPE: LC-ESI-QTOF
SMILES: OCC1OC(OCC2OC(OC(C#N)C3=CC=CC=C3)C(O)C(O)C2O)C(O)C(O)C1O
INCHIKEY: XUCIJNAGGSZNQT-UHFFFAOYNA-N
Ontology: Cyanogenic glycosides
COLLISIONENERGY: 10
FORMULA: C20H27NO11
RETENTIONTIME: 3.327617
IONMODE: Negative
Comment: registered in RIKEN PlaSMA
Num Peaks: 29
59.01234	7
87.01243	7
89.02364	37
89.03138	7
101.02156	13
101.02802	17
113.02276	15
119.03571	59
125.02416	60
131.0361	14
143.03711	29
144.03528	9
149.04044	7
161.04617	86
179.05606	174
188.05663	13
189.05356	10
203.05641	6
211.45949	5
221.06761	104
222.07379	15
245.0744	7
263.07587	64
323.09833	1000
324.10388	135
325.10602	55
326.10236	5
378.00888	6
456.15115	528

NAME: Amygdalin
PRECURSORMZ: 502.15661355183
PRECURSORTYPE: [M+FA-H]-
INSTRUMENTTYPE: LC-ESI-QTOF
SMILES: OCC1OC(OCC2OC(OC(C#N)C3=CC=CC=C3)C(O)C(O)C2O)C(O)C(O)C1O
INCHIKEY: XUCIJNAGGSZNQT-UHFFFAOYNA-N
Ontology: Cyanogenic glycosides
COLLISIONENERGY: 10
FORMULA: C20H27NO11
RETENTIONTIME: 3.327617
IONMODE: Negative
Comment: registered in RIKEN PlaSMA
Num Peaks: 15
101.02512	6
119.03108	8
161.04811	6
179.05757	9
221.06477	9
323.09897	345
324.10025	49
325.10281	12
390.2746	5
456.15106	1000
457.14441	63
457.15714	196
458.12683	6
458.15369	35
502.15759	124

NAME: Vincanidine
PRECURSORMZ: 307.14520144783
PRECURSORTYPE: [M-H]-
INSTRUMENTTYPE: LC-ESI-QTOF
SMILES: CC=C1CN2CCC34C2CC1C(C=O)=C3NC1=C4C=CC=C1O
INCHIKEY: JDOFCMASVRMYJU-UHFFFAOYNA-N
Ontology: Strychnos alkaloids
COLLISIONENERGY: 10
FORMULA: C19H20N2O2
RETENTIONTIME: 3.39095
IONMODE: Negative
Comment: registered in RIKEN PlaSMA
Num Peaks: 18
120.07468	5
176.68054	5
179.73305	6
200.09198	9
210.05322	11
223.07289	7
224.11774	7
237.07314	9
237.08806	22
238.08508	6
238.1156	19
239.08675	10
240.08745	5
240.10172	6
264.12494	6
278.10519	6
303.4371	7
307.14514	1000

NAME: Kainic acid
PRECURSORMZ: 212.09283154783
PRECURSORTYPE: [M-H]-
INSTRUMENTTYPE: LC-ESI-QTOF
SMILES: CC(=C)C1CNC(C1CC(O)=O)C(O)=O
INCHIKEY: VLSMHEGGTFMBBZ-UHFFFAOYNA-N
Ontology: Kainoids
COLLISIONENERGY: 30
FORMULA: C10H15NO4
RETENTIONTIME: 2.445
IONMODE: Negative
Comment: registered in RIKEN PlaSMA
Num Peaks: 5
67.01733	209
82.02914	1000
86.02957	349
94.04196	209
132.07433	279

NAME: Amygdalin
PRECURSORMZ: 456.15113424783
PRECURSORTYPE: [M-H]-
INSTRUMENTTYPE: LC-ESI-QTOF
SMILES: OCC1OC(OCC2OC(OC(C#N)C3=CC=CC=C3)C(O)C(O)C2O)C(O)C(O)C1O
INCHIKEY: XUCIJNAGGSZNQT-UHFFFAOYNA-N
Ontology: Cyanogenic glycosides
COLLISIONENERGY: 30
FORMULA: C20H27NO11
RETENTIONTIME: 3.327617
IONMODE: Negative
Comment: registered in RIKEN PlaSMA
Num Peaks: 60
51.51466	21
55.01906	33
59.01234	281
67.05162	22
71.01248	320
71.04405	30
73.0277	43
79.0137	41
79.02012	38
81.03432	28
83.01511	62
83.02067	21
85.02614	87
87.00937	26
89.02339	821
89.03122	44
90.02721	26
92.39172	19
96.01897	25
97.02438	21
97.03147	74
99.01012	23
100.02129	40
101.0239	1000
102.0267	21
109.03165	21
111.04219	60
113.0228	650
114.02718	19
115.03349	23
119.03578	291
119.04744	47
125.02461	252
126.02595	70
131.02579	36
131.03578	331
132.14369	26
133.06966	30
138.03035	30
139.04971	24
141.00903	23
143.02939	20
143.03993	56
145.05507	24
153.06049	30
155.0321	44
159.03059	28
160.03255	23
161.03569	83
161.04532	250
161.05927	19
163.05653	25
171.02112	19
175.03603	47
176.04315	21
180.06392	31
189.06094	25
203.05614	26
213.05562	22
379.90131	21

NAME: Amygdalin
PRECURSORMZ: 502.15661355183
PRECURSORTYPE: [M+FA-H]-
INSTRUMENTTYPE: LC-ESI-QTOF
SMILES: OCC1OC(OCC2OC(OC(C#N)C3=CC=CC=C3)C(O)C(O)C2O)C(O)C(O)C1O
INCHIKEY: XUCIJNAGGSZNQT-UHFFFAOYNA-N
Ontology: Cyanogenic glycosides
COLLISIONENERGY: 30
FORMULA: C20H27NO11
RETENTIONTIME: 3.327617
IONMODE: Negative
Comment: registered in RIKEN PlaSMA
Num Peaks: 51
59.0134	95
69.49894	24
71.01276	518
71.34811	25
73.02917	29
81.03561	45
85.02696	44
85.03352	89
89.02298	743
90.02509	25
97.03246	77
101.02347	1000
101.04005	31
111.00701	36
111.03955	29
113.02412	707
115.02686	29
116.37958	27
119.03494	502
121.0332	28
123.03977	33
125.02282	249
129.02161	32
131.03288	256
132.03047	24
138.03552	47
141.01845	56
142.01939	36
143.03183	60
143.03717	69
147.04536	32
149.04985	97
159.03171	76
159.04922	27
161.04446	471
162.05208	33
162.05655	84
175.03511	27
175.04591	67
178.06136	52
179.06236	93
185.05194	52
186.04277	25
189.05156	107
189.06256	51
203.0609	28
221.05531	29
221.06883	128
245.07027	242
263.07651	116
323.10049	29

NAME: Vincanidine
PRECURSORMZ: 307.14520144783
PRECURSORTYPE: [M-H]-
INSTRUMENTTYPE: LC-ESI-QTOF
SMILES: CC=C1CN2CCC34C2CC1C(C=O)=C3NC1=C4C=CC=C1O
INCHIKEY: JDOFCMASVRMYJU-UHFFFAOYNA-N
Ontology: Strychnos alkaloids
COLLISIONENERGY: 30
FORMULA: C19H20N2O2
RETENTIONTIME: 3.39095
IONMODE: Negative
Comment: registered in RIKEN PlaSMA
Num Peaks: 47
70.02718	112
91.05432	91
156.0517	87
159.06721	154
173.04959	87
182.04688	83
182.05618	183
182.10207	79
184.07828	83
195.06935	162
195.10196	91
198.04584	112
207.0728	75
208.07321	353
208.08037	290
209.08899	83
210.05548	124
210.08743	158
211.09328	91
222.05179	95
222.05896	91
222.10402	91
223.05812	108
223.06937	129
223.09969	112
224.06596	1000
224.10504	83
224.11499	203
224.24194	203
225.11613	166
233.07315	116
236.05969	83
236.06917	299
236.11339	100
237.08032	290
238.08606	295
238.11055	145
239.0791	232
239.09435	216
246.08052	137
249.0975	95
250.08321	170
261.10553	75
262.10022	95
263.11932	137
279.14209	83
307.14099	91

NAME: Kainic acid
PRECURSORMZ: 212.09283154783
PRECURSORTYPE: [M-H]-
INSTRUMENTTYPE: LC-ESI-QTOF
SMILES: CC(=C)C1CNC(C1CC(O)=O)C(O)=O
INCHIKEY: VLSMHEGGTFMBBZ-UHFFFAOYNA-N
Ontology: Kainoids
COLLISIONENERGY: 50
FORMULA: C10H15NO4
RETENTIONTIME: 2.445
IONMODE: Negative
Comment: registered in RIKEN PlaSMA
Num Peaks: 1
137.01778	1000

NAME: Amygdalin
PRECURSORMZ: 456.15113424783
PRECURSORTYPE: [M-H]-
INSTRUMENTTYPE: LC-ESI-QTOF
SMILES: OCC1OC(OCC2OC(OC(C#N)C3=CC=CC=C3)C(O)C(O)C2O)C(O)C(O)C1O
INCHIKEY: XUCIJNAGGSZNQT-UHFFFAOYNA-N
Ontology: Cyanogenic glycosides
COLLISIONENERGY: 50
FORMULA: C20H27NO11
RETENTIONTIME: 3.327617
IONMODE: Negative
Comment: registered in RIKEN PlaSMA
Num Peaks: 19
55.01547	74
59.01238	209
69.03229	234
71.01341	1000
80.0211	90
83.01418	246
85.02884	189
89.02281	82
95.01067	127
97.03166	74
98.00309	90
99.00599	119
101.02537	94
111.01351	127
113.02481	90
116.05058	74
125.02367	86
126.02659	94
169.05589	94

NAME: Amygdalin
PRECURSORMZ: 502.15661355183
PRECURSORTYPE: [M+FA-H]-
INSTRUMENTTYPE: LC-ESI-QTOF
SMILES: OCC1OC(OCC2OC(OC(C#N)C3=CC=CC=C3)C(O)C(O)C2O)C(O)C(O)C1O
INCHIKEY: XUCIJNAGGSZNQT-UHFFFAOYNA-N
Ontology: Cyanogenic glycosides
COLLISIONENERGY: 50
FORMULA: C20H27NO11
RETENTIONTIME: 3.327617
IONMODE: Negative
Comment: registered in RIKEN PlaSMA
Num Peaks: 25
59.01265	263
71.01477	547
73.02898	105
79.02163	111
83.0145	268
85.02718	411
85.03371	321
89.02269	226
95.01693	195
96.01629	116
97.02892	232
99.00563	226
101.02429	1000
110.03941	121
111.00919	211
113.02254	368
113.02885	84
114.02872	105
119.04128	158
119.0486	95
131.03703	500
136.04791	142
145.04762	174
161.03508	126
161.05507	95

NAME: Vincanidine
PRECURSORMZ: 307.14520144783
PRECURSORTYPE: [M-H]-
INSTRUMENTTYPE: LC-ESI-QTOF
SMILES: CC=C1CN2CCC34C2CC1C(C=O)=C3NC1=C4C=CC=C1O
INCHIKEY: JDOFCMASVRMYJU-UHFFFAOYNA-N
Ontology: Strychnos alkaloids
COLLISIONENERGY: 50
FORMULA: C19H20N2O2
RETENTIONTIME: 3.39095
IONMODE: Negative
Comment: registered in RIKEN PlaSMA
Num Peaks: 14
82.28467	135
102.03301	206
116.05058	255
144.04666	340
153.05406	213
154.06651	199
158.06639	156
171.05569	170
194.06677	135
195.06529	1000
208.08408	234
234.09996	128
236.06538	142
249.09456	142

NAME: Kainic acid
PRECURSORMZ: 212.09283154783
PRECURSORTYPE: [M-H]-
INSTRUMENTTYPE: LC-ESI-QTOF
SMILES: CC(=C)C1CNC(C1CC(O)=O)C(O)=O
INCHIKEY: VLSMHEGGTFMBBZ-UHFFFAOYNA-N
Ontology: Kainoids
COLLISIONENERGY: 10
FORMULA: C10H15NO4
RETENTIONTIME: 2.445
IONMODE: Negative
Comment: registered in RIKEN PlaSMA
Num Peaks: 33
72.00591	26
74.02408	13
82.02747	74
86.02337	56
106.06619	44
107.08967	12
108.0841	10
109.064	9
120.04431	10
120.08581	35
122.09659	20
126.02269	11
130.05858	9
130.06621	11
132.08267	47
133.08185	9
133.0925	20
135.06586	9
150.05273	9
150.09279	113
150.10051	20
168.103	1000
169.09447	8
169.10559	103
169.11125	38
193.45882	8
194.08403	273
195.08139	9
196.06647	9
196.08609	26
207.06975	9
212.0632	9
212.0916	823

NAME: Amygdalin
PRECURSORMZ: 456.15113424783
PRECURSORTYPE: [M-H]-
INSTRUMENTTYPE: LC-ESI-QTOF
SMILES: OCC1OC(OCC2OC(OC(C#N)C3=CC=CC=C3)C(O)C(O)C2O)C(O)C(O)C1O
INCHIKEY: XUCIJNAGGSZNQT-UHFFFAOYNA-N
Ontology: Cyanogenic glycosides
COLLISIONENERGY: 10
FORMULA: C20H27NO11
RETENTIONTIME: 3.327617
IONMODE: Negative
Comment: registered in RIKEN PlaSMA
Num Peaks: 80
53.03852	8
59.0127	16
59.01582	14
71.014	69
73.02614	7
75.00858	8
78.11195	7
83.01124	8
87.01039	10
89.02407	263
89.04314	8
90.02444	15
90.02893	11
97.03047	25
99.00653	45
99.04576	7
101.02367	252
103.02956	8
107.03056	10
111.00694	33
111.20551	7
113.02541	199
114.02966	21
115.03156	8
119.03403	257
120.03283	22
123.00296	9
124.68487	7
125.02323	146
131.03658	108
137.02504	7
140.01332	8
143.0352	181
144.03569	15
145.05437	12
149.04706	67
150.04774	8
155.03171	10
159.02473	7
159.03653	7
161.04213	156
161.04802	153
162.04631	15
162.06654	7
163.05199	9
167.03096	21
168.03624	19
173.0433	17
175.03978	7
176.03563	12
179.05652	244
180.05112	24
185.04604	8
188.04808	7
188.06174	11
189.05496	18
195.16231	9
203.05463	14
204.06081	10
221.06506	174
222.07724	23
228.64517	8
231.06673	8
233.06212	8
236.43436	7
245.06639	33
245.08388	9
246.07709	7
263.07782	180
264.07364	9
264.08377	10
265.07159	8
285.46512	12
293.08954	10
323.0976	1000
323.24576	9
324.10168	107
325.09793	19
325.1116	6
456.14926	377

NAME: Amygdalin
PRECURSORMZ: 502.15661355183
PRECURSORTYPE: [M+FA-H]-
INSTRUMENTTYPE: LC-ESI-QTOF
SMILES: OCC1OC(OCC2OC(OC(C#N)C3=CC=CC=C3)C(O)C(O)C2O)C(O)C(O)C1O
INCHIKEY: XUCIJNAGGSZNQT-UHFFFAOYNA-N
Ontology: Cyanogenic glycosides
COLLISIONENERGY: 10
FORMULA: C20H27NO11
RETENTIONTIME: 3.327617
IONMODE: Negative
Comment: registered in RIKEN PlaSMA
Num Peaks: 61
59.01561	14
71.01157	11
81.03337	11
87.0097	10
89.02134	70
89.02651	39
91.34222	15
97.02568	10
98.02906	9
99.04913	9
100.99191	10
101.02407	121
101.03012	24
102.02781	11
107.03795	13
111.04143	9
113.02531	191
113.03851	14
114.02833	12
115.04102	12
119.03382	180
119.05	16
120.03783	17
120.29182	15
125.01944	18
125.02653	85
126.03045	11
131.02806	12
131.03452	30
132.03734	10
143.03401	60
153.02461	12
153.50771	10
159.02803	23
161.04517	154
162.05211	26
167.03856	9
175.61894	10
178.06366	10
179.05515	173
180.05901	11
185.0526	11
185.98279	9
205.84595	11
217.54846	13
221.0643	114
222.73152	10
263.07474	82
264.08377	10
323.09698	713
324.08194	15
324.09854	63
324.1124	40
326.1098	10
456.14749	1000
457.1355	46
457.15167	152
458.14499	37
458.66754	9
502.15283	87
502.1763	23

NAME: Vincanidine
PRECURSORMZ: 307.14520144783
PRECURSORTYPE: [M-H]-
INSTRUMENTTYPE: LC-ESI-QTOF
SMILES: CC=C1CN2CCC34C2CC1C(C=O)=C3NC1=C4C=CC=C1O
INCHIKEY: JDOFCMASVRMYJU-UHFFFAOYNA-N
Ontology: Strychnos alkaloids
COLLISIONENERGY: 10
FORMULA: C19H20N2O2
RETENTIONTIME: 3.39095
IONMODE: Negative
Comment: registered in RIKEN PlaSMA
Num Peaks: 39
121.08138	21
138.34605	23
183.05165	32
184.06729	25
187.06174	26
195.07274	23
210.05124	17
212.0723	24
221.06235	23
222.04881	24
222.08923	51
222.09824	24
224.07414	84
224.08354	19
224.61832	23
227.07753	25
234.07372	19
234.09064	29
235.07643	17
236.10216	49
237.08292	97
237.0954	15
238.0898	73
239.08594	54
239.0977	75
240.09889	34
249.08978	17
249.10448	25
250.08824	59
251.08824	24
252.09956	18
252.15591	20
263.09268	27
279.13794	20
279.15356	47
299.43976	19
307.11832	20
307.1431	1000
307.21994	26

NAME: Kainic acid
PRECURSORMZ: 212.09283154783
PRECURSORTYPE: [M-H]-
INSTRUMENTTYPE: LC-ESI-QTOF
SMILES: CC(=C)C1CNC(C1CC(O)=O)C(O)=O
INCHIKEY: VLSMHEGGTFMBBZ-UHFFFAOYNA-N
Ontology: Kainoids
COLLISIONENERGY: 10
FORMULA: C10H15NO4
RETENTIONTIME: 2.445
IONMODE: Negative
Comment: registered in RIKEN PlaSMA
Num Peaks: 12
72.00793	10
82.02882	7
86.024	14
96.79279	7
106.06678	31
150.09004	53
168.10176	539
169.10445	65
170.11049	6
194.08064	209
195.08165	9
212.09082	1000

NAME: Amygdalin
PRECURSORMZ: 456.15113424783
PRECURSORTYPE: [M-H]-
INSTRUMENTTYPE: LC-ESI-QTOF
SMILES: OCC1OC(OCC2OC(OC(C#N)C3=CC=CC=C3)C(O)C(O)C2O)C(O)C(O)C1O
INCHIKEY: XUCIJNAGGSZNQT-UHFFFAOYNA-N
Ontology: Cyanogenic glycosides
COLLISIONENERGY: 10
FORMULA: C20H27NO11
RETENTIONTIME: 3.327617
IONMODE: Negative
Comment: registered in RIKEN PlaSMA
Num Peaks: 35
59.01165	5
89.02341	37
101.02461	41
113.0197	15
119.03072	23
119.03625	27
125.01942	14
125.02695	26
131.03481	15
139.04527	7
143.03636	43
144.03955	7
146.85677	5
149.04828	5
161.04439	74
167.03384	9
179.05487	176
188.05392	8
189.05678	9
221.06705	96
222.0713	6
223.06735	5
233.06163	5
245.05075	7
245.06609	8
263.07501	40
263.08768	7
264.07718	6
294.08963	7
294.10324	17
323.09744	1000
324.1015	145
325.08548	6
325.10831	18
456.15082	516

NAME: Amygdalin
PRECURSORMZ: 502.15661355183
PRECURSORTYPE: [M+FA-H]-
INSTRUMENTTYPE: LC-ESI-QTOF
SMILES: OCC1OC(OCC2OC(OC(C#N)C3=CC=CC=C3)C(O)C(O)C2O)C(O)C(O)C1O
INCHIKEY: XUCIJNAGGSZNQT-UHFFFAOYNA-N
Ontology: Cyanogenic glycosides
COLLISIONENERGY: 10
FORMULA: C20H27NO11
RETENTIONTIME: 3.327617
IONMODE: Negative
Comment: registered in RIKEN PlaSMA
Num Peaks: 20
149.04617	10
161.04729	11
179.05009	7
179.05965	11
188.05717	9
221.0712	7
263.07614	9
263.08426	6
294.0925	6
323.0968	379
324.0997	61
325.09976	14
325.11752	7
442.99802	6
456.1503	1000
457.15378	312
458.15335	54
459.15182	10
482.5824	5
502.15729	116

NAME: Vincanidine
PRECURSORMZ: 307.14520144783
PRECURSORTYPE: [M-H]-
INSTRUMENTTYPE: LC-ESI-QTOF
SMILES: CC=C1CN2CCC34C2CC1C(C=O)=C3NC1=C4C=CC=C1O
INCHIKEY: JDOFCMASVRMYJU-UHFFFAOYNA-N
Ontology: Strychnos alkaloids
COLLISIONENERGY: 10
FORMULA: C19H20N2O2
RETENTIONTIME: 3.39095
IONMODE: Negative
Comment: registered in RIKEN PlaSMA
Num Peaks: 11
209.08382	10
210.05357	8
224.10422	7
225.10587	10
226.06862	7
237.07521	15
239.09543	13
252.09248	9
279.14084	8
279.15814	14
307.14297	1000

NAME: Kainic acid
PRECURSORMZ: 212.09283154783
PRECURSORTYPE: [M-H]-
INSTRUMENTTYPE: LC-ESI-QTOF
SMILES: CC(=C)C1CNC(C1CC(O)=O)C(O)=O
INCHIKEY: VLSMHEGGTFMBBZ-UHFFFAOYNA-N
Ontology: Kainoids
COLLISIONENERGY: 30
FORMULA: C10H15NO4
RETENTIONTIME: 2.445
IONMODE: Negative
Comment: registered in RIKEN PlaSMA
Num Peaks: 7
66.03492	254
71.04993	507
82.02859	704
86.02402	944
106.06541	1000
122.09882	282
135.06688	338

NAME: Amygdalin
PRECURSORMZ: 456.15113424783
PRECURSORTYPE: [M-H]-
INSTRUMENTTYPE: LC-ESI-QTOF
SMILES: OCC1OC(OCC2OC(OC(C#N)C3=CC=CC=C3)C(O)C(O)C2O)C(O)C(O)C1O
INCHIKEY: XUCIJNAGGSZNQT-UHFFFAOYNA-N
Ontology: Cyanogenic glycosides
COLLISIONENERGY: 30
FORMULA: C20H27NO11
RETENTIONTIME: 3.327617
IONMODE: Negative
Comment: registered in RIKEN PlaSMA
Num Peaks: 58
55.01913	20
59.0134	250
59.70465	24
68.99912	28
71.01321	485
72.26853	19
81.03802	85
83.01434	25
83.05024	24
85.02809	141
85.03306	54
87.0513	37
87.35944	22
89.02437	440
95.01416	47
97.02156	21
97.03025	154
99.00892	159
101.02304	1000
101.83544	38
102.02558	34
102.03065	19
109.02853	27
111.01081	69
113.02461	417
114.03045	42
114.03533	44
115.0421	37
119.03237	343
123.008	28
125.02355	436
126.03188	20
126.89331	26
129.03201	20
131.03529	311
131.04491	25
132.03003	20
132.03954	87
133.02957	25
133.0367	24
135.04605	19
137.24359	19
140.0161	22
141.01929	21
143.03107	83
143.04173	39
144.03589	21
145.04996	53
155.03259	21
161.0435	532
161.06297	38
174.04189	29
175.03139	21
179.05589	22
221.06801	44
222.06807	21
245.07309	40
263.07831	38

NAME: Amygdalin
PRECURSORMZ: 502.15661355183
PRECURSORTYPE: [M+FA-H]-
INSTRUMENTTYPE: LC-ESI-QTOF
SMILES: OCC1OC(OCC2OC(OC(C#N)C3=CC=CC=C3)C(O)C(O)C2O)C(O)C(O)C1O
INCHIKEY: XUCIJNAGGSZNQT-UHFFFAOYNA-N
Ontology: Cyanogenic glycosides
COLLISIONENERGY: 30
FORMULA: C20H27NO11
RETENTIONTIME: 3.327617
IONMODE: Negative
Comment: registered in RIKEN PlaSMA
Num Peaks: 51
59.0112	60
59.02026	63
71.01411	269
71.6512	40
72.01368	26
73.03207	111
83.01205	38
85.02611	73
89.02336	663
90.02323	27
90.30466	53
91.02867	33
97.02813	147
99.01049	37
101.02405	1000
102.0247	34
111.00452	84
111.04347	26
113.02383	664
115.04599	26
119.03487	349
120.04331	50
125.01883	139
125.02436	196
126.0296	33
127.03189	36
127.03774	60
131.0367	324
137.02487	34
140.03606	28
141.02058	43
143.03633	191
144.04044	28
146.06837	28
155.03574	101
161.0433	607
161.05396	114
162.05251	44
163.02571	26
167.02997	36
179.05516	199
180.05632	26
185.03827	28
203.05615	55
221.06583	330
222.06773	28
223.07097	30
233.06395	57
245.05052	48
245.06435	245
263.07419	65

NAME: Vincanidine
PRECURSORMZ: 307.14520144783
PRECURSORTYPE: [M-H]-
INSTRUMENTTYPE: LC-ESI-QTOF
SMILES: CC=C1CN2CCC34C2CC1C(C=O)=C3NC1=C4C=CC=C1O
INCHIKEY: JDOFCMASVRMYJU-UHFFFAOYNA-N
Ontology: Strychnos alkaloids
COLLISIONENERGY: 30
FORMULA: C19H20N2O2
RETENTIONTIME: 3.39095
IONMODE: Negative
Comment: registered in RIKEN PlaSMA
Num Peaks: 44
91.0529	99
158.067	158
159.06789	88
167.07405	99
171.076	211
172.08023	148
183.05226	141
195.06783	102
195.08075	106
197.07744	70
197.08597	116
198.05719	67
208.06546	67
208.08173	232
209.08333	268
210.05595	70
210.07869	63
210.09117	70
211.09621	81
220.06992	74
222.05565	338
222.08202	92
223.0529	88
223.06496	85
223.0782	120
224.07088	1000
224.10533	148
237.06644	106
237.08882	180
237.12508	85
238.07475	151
238.08496	74
239.0925	148
239.10332	134
249.11055	99
250.08069	134
250.09737	74
250.10568	70
252.10016	106
254.11076	67
263.13184	70
279.15903	92
289.14279	99
307.14587	194

NAME: Kainic acid
PRECURSORMZ: 212.09283154783
PRECURSORTYPE: [M-H]-
INSTRUMENTTYPE: LC-ESI-QTOF
SMILES: CC(=C)C1CNC(C1CC(O)=O)C(O)=O
INCHIKEY: VLSMHEGGTFMBBZ-UHFFFAOYNA-N
Ontology: Kainoids
COLLISIONENERGY: 50
FORMULA: C10H15NO4
RETENTIONTIME: 2.445
IONMODE: Negative
Comment: registered in RIKEN PlaSMA
Num Peaks: 1
72.00842	1000

NAME: Amygdalin
PRECURSORMZ: 456.15113424783
PRECURSORTYPE: [M-H]-
INSTRUMENTTYPE: LC-ESI-QTOF
SMILES: OCC1OC(OCC2OC(OC(C#N)C3=CC=CC=C3)C(O)C(O)C2O)C(O)C(O)C1O
INCHIKEY: XUCIJNAGGSZNQT-UHFFFAOYNA-N
Ontology: Cyanogenic glycosides
COLLISIONENERGY: 50
FORMULA: C20H27NO11
RETENTIONTIME: 3.327617
IONMODE: Negative
Comment: registered in RIKEN PlaSMA
Num Peaks: 20
59.01208	926
60.01834	154
71.01266	1000
71.01942	101
73.03239	101
77.03698	117
83.01414	574
85.02608	239
86.03344	176
89.02329	112
95.01226	149
97.0256	431
101.02325	489
104.05702	149
108.02485	128
113.02209	574
123.00904	138
125.02263	154
131.03299	122
173.06296	154

NAME: Amygdalin
PRECURSORMZ: 502.15661355183
PRECURSORTYPE: [M+FA-H]-
INSTRUMENTTYPE: LC-ESI-QTOF
SMILES: OCC1OC(OCC2OC(OC(C#N)C3=CC=CC=C3)C(O)C(O)C2O)C(O)C(O)C1O
INCHIKEY: XUCIJNAGGSZNQT-UHFFFAOYNA-N
Ontology: Cyanogenic glycosides
COLLISIONENERGY: 50
FORMULA: C20H27NO11
RETENTIONTIME: 3.327617
IONMODE: Negative
Comment: registered in RIKEN PlaSMA
Num Peaks: 23
57.03424	120
59.01175	115
59.01618	200
60.01509	95
71.01379	1000
73.02368	105
73.02882	95
79.01656	260
83.01291	140
85.02702	665
85.03226	150
89.02203	365
89.02708	195
97.02605	205
97.03056	240
101.02098	300
101.02636	555
113.01296	120
113.02352	120
113.0287	215
125.02299	315
131.03299	155
145.05031	110

NAME: Vincanidine
PRECURSORMZ: 307.14520144783
PRECURSORTYPE: [M-H]-
INSTRUMENTTYPE: LC-ESI-QTOF
SMILES: CC=C1CN2CCC34C2CC1C(C=O)=C3NC1=C4C=CC=C1O
INCHIKEY: JDOFCMASVRMYJU-UHFFFAOYNA-N
Ontology: Strychnos alkaloids
COLLISIONENERGY: 50
FORMULA: C19H20N2O2
RETENTIONTIME: 3.39095
IONMODE: Negative
Comment: registered in RIKEN PlaSMA
Num Peaks: 13
144.04945	490
145.04939	373
154.07065	490
156.06883	529
166.06264	392
180.07463	824
183.05049	549
194.09247	431
195.06648	431
208.07298	1000
210.05409	392
225.08643	373
232.07404	627

NAME: 4-Hydroxyquinoline
PRECURSORMZ: 144.04548734783
PRECURSORTYPE: [M-H]-
INSTRUMENTTYPE: LC-ESI-QTOF
SMILES: O=C1C=CNC2=CC=CC=C12
INCHIKEY: PMZDQRJGMBOQBF-UHFFFAOYSA-N
Ontology: Hydroquinolones
COLLISIONENERGY: 10
FORMULA: C9H7NO
RETENTIONTIME: 2.933217
IONMODE: Negative
Comment: registered in RIKEN PlaSMA
Num Peaks: 3
101.94046	11
116.05345	8
144.0455	1000

NAME: 4-Hydroxyquinoline
PRECURSORMZ: 144.04548734783
PRECURSORTYPE: [M-H]-
INSTRUMENTTYPE: LC-ESI-QTOF
SMILES: O=C1C=CNC2=CC=CC=C12
INCHIKEY: PMZDQRJGMBOQBF-UHFFFAOYSA-N
Ontology: Hydroquinolones
COLLISIONENERGY: 30
FORMULA: C9H7NO
RETENTIONTIME: 2.933217
IONMODE: Negative
Comment: registered in RIKEN PlaSMA
Num Peaks: 3
102.0362	132
115.03487	126
144.04636	1000

NAME: 4-Hydroxyquinoline
PRECURSORMZ: 144.04548734783
PRECURSORTYPE: [M-H]-
INSTRUMENTTYPE: LC-ESI-QTOF
SMILES: O=C1C=CNC2=CC=CC=C12
INCHIKEY: PMZDQRJGMBOQBF-UHFFFAOYSA-N
Ontology: Hydroquinolones
COLLISIONENERGY: 10
FORMULA: C9H7NO
RETENTIONTIME: 2.933217
IONMODE: Negative
Comment: registered in RIKEN PlaSMA
Num Peaks: 4
102.03464	8
102.95177	7
144.04478	1000
144.06412	7

NAME: 4-Hydroxyquinoline
PRECURSORMZ: 144.04548734783
PRECURSORTYPE: [M-H]-
INSTRUMENTTYPE: LC-ESI-QTOF
SMILES: O=C1C=CNC2=CC=CC=C12
INCHIKEY: PMZDQRJGMBOQBF-UHFFFAOYSA-N
Ontology: Hydroquinolones
COLLISIONENERGY: 30
FORMULA: C9H7NO
RETENTIONTIME: 2.933217
IONMODE: Negative
Comment: registered in RIKEN PlaSMA
Num Peaks: 2
65.9967	149
144.04602	1000

NAME: 4-Hydroxyquinoline
PRECURSORMZ: 144.04548734783
PRECURSORTYPE: [M-H]-
INSTRUMENTTYPE: LC-ESI-QTOF
SMILES: O=C1C=CNC2=CC=CC=C12
INCHIKEY: PMZDQRJGMBOQBF-UHFFFAOYSA-N
Ontology: Hydroquinolones
COLLISIONENERGY: 10
FORMULA: C9H7NO
RETENTIONTIME: 2.933217
IONMODE: Negative
Comment: registered in RIKEN PlaSMA
Num Peaks: 2
102.03298	8
144.04527	1000

NAME: 4-Hydroxyquinoline
PRECURSORMZ: 144.04548734783
PRECURSORTYPE: [M-H]-
INSTRUMENTTYPE: LC-ESI-QTOF
SMILES: O=C1C=CNC2=CC=CC=C12
INCHIKEY: PMZDQRJGMBOQBF-UHFFFAOYSA-N
Ontology: Hydroquinolones
COLLISIONENERGY: 30
FORMULA: C9H7NO
RETENTIONTIME: 2.933217
IONMODE: Negative
Comment: registered in RIKEN PlaSMA
Num Peaks: 2
116.05236	167
144.04509	1000

NAME: Harmine
PRECURSORMZ: 211.08768654783
PRECURSORTYPE: [M-H]-
INSTRUMENTTYPE: LC-ESI-QTOF
SMILES: COC1=CC2=C(C=C1)C1=CC=NC(C)=C1N2
INCHIKEY: BXNJHAXVSOCGBA-UHFFFAOYSA-N
Ontology: Harmala alkaloids
COLLISIONENERGY: 10
FORMULA: C13H12N2O
RETENTIONTIME: 4.08115
IONMODE: Negative
Comment: registered in RIKEN PlaSMA
Num Peaks: 12
118.99116	18
168.0663	25
168.0728	55
169.0704	19
195.05415	21
196.0647	1000
197.06622	124
197.07687	40
198.06772	26
199.082	20
211.08087	115
211.08983	210

NAME: Speciosine
PRECURSORMZ: 476.20786124783
PRECURSORTYPE: [M-H]-
INSTRUMENTTYPE: LC-ESI-QTOF
SMILES: COC1=C(OC)C(OC)=C2C(CCC(N(C)CC3=CC=CC=C3O)C3=CC(=O)C(OC)=CC=C23)=C1
INCHIKEY: SOFSXTKPGSIDCI-UHFFFAOYNA-N
Ontology: Tropones
COLLISIONENERGY: 10
FORMULA: C28H31NO6
RETENTIONTIME: 5.034633
IONMODE: Negative
Comment: registered in RIKEN PlaSMA
Num Peaks: 65
136.07944	19
226.07246	13
247.09752	25
251.06355	11
267.01624	11
280.09766	12
280.1109	13
281.07715	11
281.09888	13
282.0369	10
283.0571	11
283.09662	11
284.13303	11
293.0741	22
294.06989	12
295.12015	21
296.06769	20
297.06485	10
297.8793	10
298.06448	11
300.12296	10
308.08728	16
308.10361	11
310.07632	37
310.08585	14
310.14664	21
310.15836	13
311.06717	10
311.15643	15
312.08221	24
312.10428	38
313.08841	13
314.13269	15
323.10803	42
323.3894	11
325.09891	57
325.10861	22
327.10385	21
327.12836	11
328.11096	12
329.10934	11
338.14151	202
338.17465	13
339.14719	34
339.18216	12
340.11801	139
341.1113	13
341.13144	11
341.14209	15
342.12335	10
354.13821	11
355.13968	162
355.15918	34
355.90656	10
356.14514	47
370.16467	1000
370.20782	13
371.16806	176
371.18875	22
372.17166	37
444.17908	10
445.17551	10
476.18195	12
476.19882	28
476.22617	44

NAME: Harmine
PRECURSORMZ: 211.08768654783
PRECURSORTYPE: [M-H]-
INSTRUMENTTYPE: LC-ESI-QTOF
SMILES: COC1=CC2=C(C=C1)C1=CC=NC(C)=C1N2
INCHIKEY: BXNJHAXVSOCGBA-UHFFFAOYSA-N
Ontology: Harmala alkaloids
COLLISIONENERGY: 10
FORMULA: C13H12N2O
RETENTIONTIME: 4.08115
IONMODE: Negative
Comment: registered in RIKEN PlaSMA
Num Peaks: 8
85.08432	15
158.03365	15
193.07637	13
196.06277	1000
197.05511	11
197.06578	50
198.06154	30
211.0874	714

NAME: Speciosine
PRECURSORMZ: 476.20786124783
PRECURSORTYPE: [M-H]-
INSTRUMENTTYPE: LC-ESI-QTOF
SMILES: COC1=C(OC)C(OC)=C2C(CCC(N(C)CC3=CC=CC=C3O)C3=CC(=O)C(OC)=CC=C23)=C1
INCHIKEY: SOFSXTKPGSIDCI-UHFFFAOYNA-N
Ontology: Tropones
COLLISIONENERGY: 10
FORMULA: C28H31NO6
RETENTIONTIME: 5.034633
IONMODE: Negative
Comment: registered in RIKEN PlaSMA
Num Peaks: 16
184.74789	9
310.14682	15
338.13791	110
338.1633	6
339.14246	15
339.15717	5
355.14511	10
370.16599	1000
370.19998	5
371.15668	46
371.17056	221
371.19577	6
372.15497	10
372.17908	62
444.17059	12
476.20575	118

NAME: Harmine
PRECURSORMZ: 211.08768654783
PRECURSORTYPE: [M-H]-
INSTRUMENTTYPE: LC-ESI-QTOF
SMILES: COC1=CC2=C(C=C1)C1=CC=NC(C)=C1N2
INCHIKEY: BXNJHAXVSOCGBA-UHFFFAOYSA-N
Ontology: Harmala alkaloids
COLLISIONENERGY: 30
FORMULA: C13H12N2O
RETENTIONTIME: 4.08115
IONMODE: Negative
Comment: registered in RIKEN PlaSMA
Num Peaks: 8
168.06413	558
168.07169	628
169.06467	61
169.07529	67
195.05574	276
195.06995	64
196.0639	1000
198.06737	67

NAME: Speciosine
PRECURSORMZ: 476.20786124783
PRECURSORTYPE: [M-H]-
INSTRUMENTTYPE: LC-ESI-QTOF
SMILES: COC1=C(OC)C(OC)=C2C(CCC(N(C)CC3=CC=CC=C3O)C3=CC(=O)C(OC)=CC=C23)=C1
INCHIKEY: SOFSXTKPGSIDCI-UHFFFAOYNA-N
Ontology: Tropones
COLLISIONENERGY: 30
FORMULA: C28H31NO6
RETENTIONTIME: 5.034633
IONMODE: Negative
Comment: registered in RIKEN PlaSMA
Num Peaks: 52
132.02505	15
256.0929	23
280.08679	16
280.09979	49
281.1087	43
284.07275	15
285.88217	14
286.12497	14
293.0762	14
294.11411	17
294.20535	15
295.1235	19
296.08145	15
296.13409	17
297.09143	31
298.0954	15
298.11023	14
308.04776	18
308.0932	46
309.10022	26
310.06406	33
310.13461	16
310.14871	17
312.08801	343
313.09753	15
314.09665	23
323.11234	93
324.11911	59
325.09363	36
325.10785	30
325.1337	17
326.11627	17
326.13336	37
327.11621	147
328.10889	50
336.13074	18
337.14688	17
338.14178	57
338.15323	17
339.14645	15
340.11865	1000
341.12448	152
342.12164	52
353.01645	17
355.13776	516
356.14163	162
356.16183	26
370.15692	39
370.16675	109
371.10175	19
371.16306	20
371.17807	27

NAME: Harmine
PRECURSORMZ: 211.08768654783
PRECURSORTYPE: [M-H]-
INSTRUMENTTYPE: LC-ESI-QTOF
SMILES: COC1=CC2=C(C=C1)C1=CC=NC(C)=C1N2
INCHIKEY: BXNJHAXVSOCGBA-UHFFFAOYSA-N
Ontology: Harmala alkaloids
COLLISIONENERGY: 50
FORMULA: C13H12N2O
RETENTIONTIME: 4.08115
IONMODE: Negative
Comment: registered in RIKEN PlaSMA
Num Peaks: 1
168.04944	1000

NAME: Speciosine
PRECURSORMZ: 476.20786124783
PRECURSORTYPE: [M-H]-
INSTRUMENTTYPE: LC-ESI-QTOF
SMILES: COC1=C(OC)C(OC)=C2C(CCC(N(C)CC3=CC=CC=C3O)C3=CC(=O)C(OC)=CC=C23)=C1
INCHIKEY: SOFSXTKPGSIDCI-UHFFFAOYNA-N
Ontology: Tropones
COLLISIONENERGY: 50
FORMULA: C28H31NO6
RETENTIONTIME: 5.034633
IONMODE: Negative
Comment: registered in RIKEN PlaSMA
Num Peaks: 81
180.05632	74
186.88954	57
194.05881	54
206.4194	80
209.09158	68
210.03127	71
211.045	108
225.05559	123
227.03687	60
228.05629	57
232.07654	57
238.02011	83
242.10257	66
248.04228	60
250.05199	71
250.06812	54
251.05925	171
252.05116	51
252.06427	128
254.04305	51
254.08844	504
264.07053	54
265.07117	145
265.086	134
266.04501	66
266.07147	54
266.08221	162
267.0545	174
267.0715	83
268.05325	177
269.06531	140
269.10406	254
270.10226	80
270.12656	111
277.07672	63
279.09503	77
280.03101	68
280.09402	74
281.0206	68
282.02881	177
282.04773	399
282.07321	490
282.08426	248
283.04626	177
283.08487	66
284.12885	51
292.05652	57
293.03384	71
293.05841	131
293.07611	77
294.06567	140
295.03958	54
295.06064	151
295.07584	51
295.08966	111
296.05493	111
296.09006	51
296.10303	54
297.05539	202
297.07623	114
297.0874	71
298.07071	77
299.06787	57
306.0976	60
308.09329	54
309.07654	60
310.07263	1000
310.93301	100
311.07956	131
311.11252	51
312.07343	117
312.0885	131
313.1109	63
325.09354	245
325.10965	77
326.09149	68
326.10675	51
338.0997	63
340.11676	234
340.13028	83
384.07669	51

NAME: Harmine
PRECURSORMZ: 211.08768654783
PRECURSORTYPE: [M-H]-
INSTRUMENTTYPE: LC-ESI-QTOF
SMILES: COC1=CC2=C(C=C1)C1=CC=NC(C)=C1N2
INCHIKEY: BXNJHAXVSOCGBA-UHFFFAOYSA-N
Ontology: Harmala alkaloids
COLLISIONENERGY: 10
FORMULA: C13H12N2O
RETENTIONTIME: 4.08115
IONMODE: Negative
Comment: registered in RIKEN PlaSMA
Num Peaks: 8
157.07687	32
168.06894	72
169.07387	49
195.05618	16
196.06255	1000
196.87898	15
197.06734	190
211.08707	270

NAME: Speciosine
PRECURSORMZ: 476.20786124783
PRECURSORTYPE: [M-H]-
INSTRUMENTTYPE: LC-ESI-QTOF
SMILES: COC1=C(OC)C(OC)=C2C(CCC(N(C)CC3=CC=CC=C3O)C3=CC(=O)C(OC)=CC=C23)=C1
INCHIKEY: SOFSXTKPGSIDCI-UHFFFAOYNA-N
Ontology: Tropones
COLLISIONENERGY: 10
FORMULA: C28H31NO6
RETENTIONTIME: 5.034633
IONMODE: Negative
Comment: registered in RIKEN PlaSMA
Num Peaks: 68
250.05257	11
251.03728	9
253.09105	13
255.06151	11
266.04855	9
267.05887	10
267.07281	9
268.07501	10
269.0986	12
270.12357	16
280.09729	11
282.08051	9
282.09229	10
284.12979	21
291.05478	12
291.08621	16
295.06442	10
296.09531	10
297.07028	31
297.08765	9
298.06363	9
298.077	10
306.10333	14
308.0939	45
308.11868	11
309.08127	19
309.09659	9
310.06332	12
310.11392	10
310.13141	11
310.14554	11
310.15506	12
311.13901	9
311.15332	9
311.89151	10
312.09158	89
312.11624	9
314.09543	9
323.10977	27
324.11798	12
325.09784	73
325.63629	10
326.10596	29
326.14417	10
327.10886	43
328.11566	9
338.13977	118
339.11835	12
339.13412	19
339.16235	19
340.12119	227
340.14377	14
341.10837	10
341.11911	13
341.12994	9
344.15656	9
354.15237	9
355.14194	180
356.14572	66
356.9046	9
370.16641	1000
371.16849	222
372.17413	30
374.17706	14
374.29959	10
444.18869	9
476.18689	10
476.20828	51

NAME: Harmine
PRECURSORMZ: 211.08768654783
PRECURSORTYPE: [M-H]-
INSTRUMENTTYPE: LC-ESI-QTOF
SMILES: COC1=CC2=C(C=C1)C1=CC=NC(C)=C1N2
INCHIKEY: BXNJHAXVSOCGBA-UHFFFAOYSA-N
Ontology: Harmala alkaloids
COLLISIONENERGY: 10
FORMULA: C13H12N2O
RETENTIONTIME: 4.08115
IONMODE: Negative
Comment: registered in RIKEN PlaSMA
Num Peaks: 7
123.08304	21
155.13383	13
196.064	837
197.06779	123
208.50294	16
211.02988	20
211.08827	1000

NAME: Speciosine
PRECURSORMZ: 476.20786124783
PRECURSORTYPE: [M-H]-
INSTRUMENTTYPE: LC-ESI-QTOF
SMILES: COC1=C(OC)C(OC)=C2C(CCC(N(C)CC3=CC=CC=C3O)C3=CC(=O)C(OC)=CC=C23)=C1
INCHIKEY: SOFSXTKPGSIDCI-UHFFFAOYNA-N
Ontology: Tropones
COLLISIONENERGY: 10
FORMULA: C28H31NO6
RETENTIONTIME: 5.034633
IONMODE: Negative
Comment: registered in RIKEN PlaSMA
Num Peaks: 19
136.07591	6
268.22168	8
310.1442	9
312.14578	6
338.13971	61
339.14468	18
370.02164	5
370.16431	1000
370.19882	9
370.2186	8
371.16541	224
371.1821	36
371.46161	8
372.17233	33
444.17053	14
444.19553	5
445.18228	5
476.20953	131
476.24075	5

NAME: Harmine
PRECURSORMZ: 211.08768654783
PRECURSORTYPE: [M-H]-
INSTRUMENTTYPE: LC-ESI-QTOF
SMILES: COC1=CC2=C(C=C1)C1=CC=NC(C)=C1N2
INCHIKEY: BXNJHAXVSOCGBA-UHFFFAOYSA-N
Ontology: Harmala alkaloids
COLLISIONENERGY: 30
FORMULA: C13H12N2O
RETENTIONTIME: 4.08115
IONMODE: Negative
Comment: registered in RIKEN PlaSMA
Num Peaks: 5
168.06509	1000
173.85071	65
195.05354	102
196.0625	509
196.07489	153

NAME: Speciosine
PRECURSORMZ: 476.20786124783
PRECURSORTYPE: [M-H]-
INSTRUMENTTYPE: LC-ESI-QTOF
SMILES: COC1=C(OC)C(OC)=C2C(CCC(N(C)CC3=CC=CC=C3O)C3=CC(=O)C(OC)=CC=C23)=C1
INCHIKEY: SOFSXTKPGSIDCI-UHFFFAOYNA-N
Ontology: Tropones
COLLISIONENERGY: 30
FORMULA: C28H31NO6
RETENTIONTIME: 5.034633
IONMODE: Negative
Comment: registered in RIKEN PlaSMA
Num Peaks: 72
108.01902	25
109.0257	21
142.06317	21
217.05859	17
220.10416	23
220.11815	18
225.05968	23
230.9919	19
231.0887	20
240.08061	22
253.05664	26
265.04889	19
270.04608	17
277.06799	20
278.0712	23
280.09616	33
280.59268	19
281.1058	21
284.12753	22
293.06824	18
294.08954	17
295.10565	18
295.12399	36
296.11633	27
297.07614	21
297.1113	46
308.08868	19
308.09863	19
308.11157	17
310.1416	19
311.09039	21
312.08716	218
312.12326	100
313.08817	32
313.12103	18
314.09714	41
314.14136	19
316.8772	20
322.12268	37
323.11252	143
324.11569	42
325.09027	95
325.11252	89
325.17426	20
326.103	43
326.14224	36
327.10834	62
328.11417	71
338.14014	35
338.15469	19
339.13126	20
340.11688	1000
341.1235	264
342.10645	19
342.11984	22
342.15457	24
342.16696	18
354.15213	20
355.14151	600
355.16196	58
355.41016	19
356.13284	17
356.14905	130
357.14606	47
357.16943	19
370.15518	56
370.16858	135
371.16748	17
371.18423	22
372.17352	18
410.83038	20
414.13116	19

NAME: Harmine
PRECURSORMZ: 211.08768654783
PRECURSORTYPE: [M-H]-
INSTRUMENTTYPE: LC-ESI-QTOF
SMILES: COC1=CC2=C(C=C1)C1=CC=NC(C)=C1N2
INCHIKEY: BXNJHAXVSOCGBA-UHFFFAOYSA-N
Ontology: Harmala alkaloids
COLLISIONENERGY: 50
FORMULA: C13H12N2O
RETENTIONTIME: 4.08115
IONMODE: Negative
Comment: registered in RIKEN PlaSMA
Num Peaks: 2
168.07066	1000
195.05849	721

NAME: Speciosine
PRECURSORMZ: 476.20786124783
PRECURSORTYPE: [M-H]-
INSTRUMENTTYPE: LC-ESI-QTOF
SMILES: COC1=C(OC)C(OC)=C2C(CCC(N(C)CC3=CC=CC=C3O)C3=CC(=O)C(OC)=CC=C23)=C1
INCHIKEY: SOFSXTKPGSIDCI-UHFFFAOYNA-N
Ontology: Tropones
COLLISIONENERGY: 50
FORMULA: C28H31NO6
RETENTIONTIME: 5.034633
IONMODE: Negative
Comment: registered in RIKEN PlaSMA
Num Peaks: 81
167.0811	48
169.06404	109
183.77196	76
208.08774	58
209.05486	46
222.05219	53
223.05719	61
226.04686	58
226.05733	63
226.84518	48
231.06061	51
231.3065	69
234.02942	61
239.06844	94
242.0811	46
249.05167	69
250.05417	46
251.06085	69
251.07181	117
252.03807	48
252.07384	104
252.43483	51
254.04457	183
254.0939	53
263.02713	53
263.0632	99
263.78778	51
264.06046	51
265.0686	282
266.07458	66
266.08432	48
267.00198	61
267.01483	51
267.0437	53
267.05457	91
268.06015	51
268.09329	48
269.0769	86
269.11053	315
270.06586	58
270.11383	107
279.0321	63
282.02899	157
282.04449	376
282.07812	58
283.03928	51
283.08524	119
283.11646	86
284.08987	51
284.12274	168
285.07794	76
289.82013	48
291.07037	58
292.05093	66
292.06564	145
293.0593	140
293.07935	180
294.04755	51
294.07712	46
295.04184	152
295.05737	61
295.08511	53
295.12	107
296.04111	61
296.06009	51
296.10129	56
297.05521	157
297.07059	137
297.10242	51
298.06201	63
298.07272	96
308.0625	51
308.08633	51
310.07004	1000
310.10608	56
311.07623	112
324.08954	63
325.09573	330
326.13193	119
340.12134	51
354.13797	61

NAME: Harmine
PRECURSORMZ: 211.08768654783
PRECURSORTYPE: [M-H]-
INSTRUMENTTYPE: LC-ESI-QTOF
SMILES: COC1=CC2=C(C=C1)C1=CC=NC(C)=C1N2
INCHIKEY: BXNJHAXVSOCGBA-UHFFFAOYSA-N
Ontology: Harmala alkaloids
COLLISIONENERGY: 10
FORMULA: C13H12N2O
RETENTIONTIME: 4.08115
IONMODE: Negative
Comment: registered in RIKEN PlaSMA
Num Peaks: 9
168.06429	17
168.07588	19
195.05936	22
196.06395	1000
196.08424	19
197.07028	111
198.05963	12
198.07121	47
211.0874	231

NAME: Speciosine
PRECURSORMZ: 476.20786124783
PRECURSORTYPE: [M-H]-
INSTRUMENTTYPE: LC-ESI-QTOF
SMILES: COC1=C(OC)C(OC)=C2C(CCC(N(C)CC3=CC=CC=C3O)C3=CC(=O)C(OC)=CC=C23)=C1
INCHIKEY: SOFSXTKPGSIDCI-UHFFFAOYNA-N
Ontology: Tropones
COLLISIONENERGY: 10
FORMULA: C28H31NO6
RETENTIONTIME: 5.034633
IONMODE: Negative
Comment: registered in RIKEN PlaSMA
Num Peaks: 63
131.04532	15
233.01564	14
239.05095	12
247.09734	11
255.09685	11
255.48885	12
263.0621	11
265.07602	14
267.0658	11
269.10556	34
270.11023	14
280.08472	16
280.09604	17
281.10187	11
282.04227	27
291.07968	11
293.08392	12
296.09317	11
297.06131	12
297.12216	11
307.13391	12
309.0965	30
310.06973	23
310.08929	12
310.12399	17
310.14255	47
311.08093	17
312.08539	58
312.0947	48
312.11572	11
313.10077	11
313.12155	11
321.09589	11
322.10776	11
323.11707	12
323.13434	12
324.12701	12
325.10037	12
327.09195	11
327.11002	47
327.13544	17
328.09546	20
329.11688	11
338.1373	127
339.14325	27
339.15201	14
340.11801	161
340.15186	24
341.11108	22
341.12747	60
343.13068	12
348.68506	19
355.1423	173
356.13379	27
356.1514	43
369.00098	11
370.16309	1000
371.17017	163
371.65549	11
372.17496	57
384.99585	11
476.19073	18
476.2179	25

NAME: Harmine
PRECURSORMZ: 211.08768654783
PRECURSORTYPE: [M-H]-
INSTRUMENTTYPE: LC-ESI-QTOF
SMILES: COC1=CC2=C(C=C1)C1=CC=NC(C)=C1N2
INCHIKEY: BXNJHAXVSOCGBA-UHFFFAOYSA-N
Ontology: Harmala alkaloids
COLLISIONENERGY: 10
FORMULA: C13H12N2O
RETENTIONTIME: 4.08115
IONMODE: Negative
Comment: registered in RIKEN PlaSMA
Num Peaks: 7
130.02602	21
161.84908	16
196.04617	18
196.06372	1000
197.06979	160
211.04614	16
211.08908	697

NAME: Speciosine
PRECURSORMZ: 476.20786124783
PRECURSORTYPE: [M-H]-
INSTRUMENTTYPE: LC-ESI-QTOF
SMILES: COC1=C(OC)C(OC)=C2C(CCC(N(C)CC3=CC=CC=C3O)C3=CC(=O)C(OC)=CC=C23)=C1
INCHIKEY: SOFSXTKPGSIDCI-UHFFFAOYNA-N
Ontology: Tropones
COLLISIONENERGY: 10
FORMULA: C28H31NO6
RETENTIONTIME: 5.034633
IONMODE: Negative
Comment: registered in RIKEN PlaSMA
Num Peaks: 19
310.14175	18
311.14331	5
328.87878	11
336.85522	6
338.13388	66
339.12695	7
339.14877	13
355.14136	7
358.65131	7
370.16678	1000
371.16965	225
372.16064	13
372.17706	7
373.1828	7
382.819	6
444.1846	6
444.19769	5
476.20227	154
476.2309	22

NAME: Harmine
PRECURSORMZ: 211.08768654783
PRECURSORTYPE: [M-H]-
INSTRUMENTTYPE: LC-ESI-QTOF
SMILES: COC1=CC2=C(C=C1)C1=CC=NC(C)=C1N2
INCHIKEY: BXNJHAXVSOCGBA-UHFFFAOYSA-N
Ontology: Harmala alkaloids
COLLISIONENERGY: 30
FORMULA: C13H12N2O
RETENTIONTIME: 4.08115
IONMODE: Negative
Comment: registered in RIKEN PlaSMA
Num Peaks: 8
168.06735	1000
169.08443	114
183.04359	92
195.04254	99
195.05147	74
196.05919	74
196.0686	151
197.0587	70

NAME: Speciosine
PRECURSORMZ: 476.20786124783
PRECURSORTYPE: [M-H]-
INSTRUMENTTYPE: LC-ESI-QTOF
SMILES: COC1=C(OC)C(OC)=C2C(CCC(N(C)CC3=CC=CC=C3O)C3=CC(=O)C(OC)=CC=C23)=C1
INCHIKEY: SOFSXTKPGSIDCI-UHFFFAOYNA-N
Ontology: Tropones
COLLISIONENERGY: 30
FORMULA: C28H31NO6
RETENTIONTIME: 5.034633
IONMODE: Negative
Comment: registered in RIKEN PlaSMA
Num Peaks: 61
109.02965	19
146.50525	17
248.10185	25
256.0509	32
264.06329	32
265.0636	22
266.0838	38
277.05188	21
277.11273	19
280.09308	82
281.09113	52
281.10291	20
284.13254	17
290.07138	40
292.08197	17
293.07877	22
296.12885	17
297.09543	17
297.10956	17
307.08731	19
308.08817	74
308.10104	49
310.12329	20
310.1405	37
311.08737	17
312.08539	177
312.09869	56
312.12961	20
313.09653	17
322.12003	29
323.11017	18
323.12134	36
323.13907	23
324.11444	39
324.12704	23
325.08972	87
325.10666	60
326.08798	19
326.1322	25
326.1442	42
327.11743	162
327.13693	21
328.12173	18
338.12863	22
338.14096	23
340.11792	1000
340.18268	20
341.1156	56
341.12955	115
342.12674	83
354.13159	50
355.05469	17
355.14365	462
356.13242	20
356.14905	43
356.16187	43
359.52582	27
370.15417	46
370.17178	77
371.15204	19
371.16602	20

NAME: Speciosine
PRECURSORMZ: 476.20786124783
PRECURSORTYPE: [M-H]-
INSTRUMENTTYPE: LC-ESI-QTOF
SMILES: COC1=C(OC)C(OC)=C2C(CCC(N(C)CC3=CC=CC=C3O)C3=CC(=O)C(OC)=CC=C23)=C1
INCHIKEY: SOFSXTKPGSIDCI-UHFFFAOYNA-N
Ontology: Tropones
COLLISIONENERGY: 50
FORMULA: C28H31NO6
RETENTIONTIME: 5.034633
IONMODE: Negative
Comment: registered in RIKEN PlaSMA
Num Peaks: 85
109.02858	58
136.08185	55
168.0584	61
209.25693	55
210.0338	58
215.04568	52
217.06129	52
225.05028	55
226.08165	98
226.09604	58
233.06374	58
234.02751	58
236.05197	75
237.08563	61
238.08209	127
239.08946	61
241.07092	58
249.07915	69
250.032	61
251.05782	58
252.04124	61
253.05492	58
253.06973	61
253.08286	55
254.05481	61
254.06789	55
254.08766	107
255.08578	167
263.02179	61
265.04321	55
265.07675	182
266.05774	55
266.08023	115
267.02277	69
267.05017	66
267.06268	130
267.08508	133
268.05194	52
268.05991	58
268.07333	84
268.08658	130
269.07309	78
269.11105	303
270.11493	52
278.05457	72
280.08929	52
281.07486	58
281.41766	66
282.04285	219
282.07629	222
283.0459	58
283.08765	63
283.647	52
284.13593	58
284.48654	72
286.08951	66
292.06198	52
292.41309	55
293.0719	55
295.04837	75
295.06192	110
296.04617	118
296.09286	196
297.06558	124
297.08234	112
297.09573	144
297.11099	58
298.07608	55
298.10803	55
306.07687	63
308.09363	52
310.03738	58
310.07413	1000
311.0759	78
312.08447	170
324.07843	61
324.0943	69
325.09247	360
325.12292	58
325.13312	61
333.33682	95
338.5079	58
340.11407	262
341.11191	58
354.14172	61

NAME: Captopril
PRECURSORMZ: 216.06998804783
PRECURSORTYPE: [M-H]-
INSTRUMENTTYPE: LC-ESI-QTOF
SMILES: CC(CS)C(=O)N1CCCC1C(O)=O
INCHIKEY: FAKRSMQSSFJEIM-UHFFFAOYNA-N
Ontology: N-acyl-alpha amino acids
COLLISIONENERGY: 10
FORMULA: C9H15NO3S
RETENTIONTIME: 4.043817
IONMODE: Negative
Comment: registered in RIKEN PlaSMA
Num Peaks: 15
108.08106	30
114.05734	423
115.06229	28
127.094	63
130.03348	28
132.03137	28
136.0723	28
138.0892	66
152.07552	28
170.08531	158
171.08525	37
172.07718	25
182.08311	1000
211.74838	35
216.07162	27

NAME: Captopril
PRECURSORMZ: 216.06998804783
PRECURSORTYPE: [M-H]-
INSTRUMENTTYPE: LC-ESI-QTOF
SMILES: CC(CS)C(=O)N1CCCC1C(O)=O
INCHIKEY: FAKRSMQSSFJEIM-UHFFFAOYNA-N
Ontology: N-acyl-alpha amino acids
COLLISIONENERGY: 10
FORMULA: C9H15NO3S
RETENTIONTIME: 4.043817
IONMODE: Negative
Comment: registered in RIKEN PlaSMA
Num Peaks: 13
114.05521	532
115.05958	13
127.09015	12
130.02953	38
138.08955	15
170.07973	27
170.09256	12
171.20555	12
182.0806	1000
183.0817	81
184.09518	12
216.06279	48
216.07028	166

NAME: Captopril
PRECURSORMZ: 216.06998804783
PRECURSORTYPE: [M-H]-
INSTRUMENTTYPE: LC-ESI-QTOF
SMILES: CC(CS)C(=O)N1CCCC1C(O)=O
INCHIKEY: FAKRSMQSSFJEIM-UHFFFAOYNA-N
Ontology: N-acyl-alpha amino acids
COLLISIONENERGY: 30
FORMULA: C9H15NO3S
RETENTIONTIME: 4.043817
IONMODE: Negative
Comment: registered in RIKEN PlaSMA
Num Peaks: 1
114.05548	1000

NAME: Captopril
PRECURSORMZ: 216.06998804783
PRECURSORTYPE: [M-H]-
INSTRUMENTTYPE: LC-ESI-QTOF
SMILES: CC(CS)C(=O)N1CCCC1C(O)=O
INCHIKEY: FAKRSMQSSFJEIM-UHFFFAOYNA-N
Ontology: N-acyl-alpha amino acids
COLLISIONENERGY: 10
FORMULA: C9H15NO3S
RETENTIONTIME: 4.043817
IONMODE: Negative
Comment: registered in RIKEN PlaSMA
Num Peaks: 7
114.05756	390
126.09151	28
138.0948	28
170.07953	71
182.08307	1000
183.08461	82
216.07054	84

NAME: Captopril
PRECURSORMZ: 216.06998804783
PRECURSORTYPE: [M-H]-
INSTRUMENTTYPE: LC-ESI-QTOF
SMILES: CC(CS)C(=O)N1CCCC1C(O)=O
INCHIKEY: FAKRSMQSSFJEIM-UHFFFAOYNA-N
Ontology: N-acyl-alpha amino acids
COLLISIONENERGY: 10
FORMULA: C9H15NO3S
RETENTIONTIME: 4.043817
IONMODE: Negative
Comment: registered in RIKEN PlaSMA
Num Peaks: 15
114.05583	420
114.06615	18
115.06074	23
130.02875	38
138.08783	13
138.09392	14
152.07062	13
170.08223	11
171.09477	12
182.08177	1000
183.08505	92
183.09656	13
187.54819	15
216.05489	42
216.06998	133

NAME: Captopril
PRECURSORMZ: 216.06998804783
PRECURSORTYPE: [M-H]-
INSTRUMENTTYPE: LC-ESI-QTOF
SMILES: CC(CS)C(=O)N1CCCC1C(O)=O
INCHIKEY: FAKRSMQSSFJEIM-UHFFFAOYNA-N
Ontology: N-acyl-alpha amino acids
COLLISIONENERGY: 30
FORMULA: C9H15NO3S
RETENTIONTIME: 4.043817
IONMODE: Negative
Comment: registered in RIKEN PlaSMA
Num Peaks: 4
108.04655	121
114.05835	1000
130.03485	174
183.07977	154

NAME: Captopril
PRECURSORMZ: 216.06998804783
PRECURSORTYPE: [M-H]-
INSTRUMENTTYPE: LC-ESI-QTOF
SMILES: CC(CS)C(=O)N1CCCC1C(O)=O
INCHIKEY: FAKRSMQSSFJEIM-UHFFFAOYNA-N
Ontology: N-acyl-alpha amino acids
COLLISIONENERGY: 50
FORMULA: C9H15NO3S
RETENTIONTIME: 4.043817
IONMODE: Negative
Comment: registered in RIKEN PlaSMA
Num Peaks: 1
75.14907	1000

NAME: Captopril
PRECURSORMZ: 216.06998804783
PRECURSORTYPE: [M-H]-
INSTRUMENTTYPE: LC-ESI-QTOF
SMILES: CC(CS)C(=O)N1CCCC1C(O)=O
INCHIKEY: FAKRSMQSSFJEIM-UHFFFAOYNA-N
Ontology: N-acyl-alpha amino acids
COLLISIONENERGY: 10
FORMULA: C9H15NO3S
RETENTIONTIME: 4.043817
IONMODE: Negative
Comment: registered in RIKEN PlaSMA
Num Peaks: 10
114.05621	606
115.06058	27
126.08962	36
130.02991	54
136.08	27
138.09395	36
153.69655	36
182.0829	1000
183.07108	31
216.08395	43

NAME: Captopril
PRECURSORMZ: 216.06998804783
PRECURSORTYPE: [M-H]-
INSTRUMENTTYPE: LC-ESI-QTOF
SMILES: CC(CS)C(=O)N1CCCC1C(O)=O
INCHIKEY: FAKRSMQSSFJEIM-UHFFFAOYNA-N
Ontology: N-acyl-alpha amino acids
COLLISIONENERGY: 10
FORMULA: C9H15NO3S
RETENTIONTIME: 4.043817
IONMODE: Negative
Comment: registered in RIKEN PlaSMA
Num Peaks: 10
85.69756	13
114.05533	192
126.09291	55
130.03432	16
152.06863	12
152.08049	18
170.07663	13
182.08211	1000
183.08405	129
216.0688	119

NAME: Captopril
PRECURSORMZ: 216.06998804783
PRECURSORTYPE: [M-H]-
INSTRUMENTTYPE: LC-ESI-QTOF
SMILES: CC(CS)C(=O)N1CCCC1C(O)=O
INCHIKEY: FAKRSMQSSFJEIM-UHFFFAOYNA-N
Ontology: N-acyl-alpha amino acids
COLLISIONENERGY: 30
FORMULA: C9H15NO3S
RETENTIONTIME: 4.043817
IONMODE: Negative
Comment: registered in RIKEN PlaSMA
Num Peaks: 2
114.05704	1000
116.06307	225

NAME: Pseudojervine
PRECURSORMZ: 632.344020404
PRECURSORTYPE: [M+FA-H]-
INSTRUMENTTYPE: LC-ESI-QTOF
SMILES: CC1C2NCC(C)CC2OC11CCC2C3CC=C4CC(CCC4(C)C3C(=O)C2=C1C)OC1OC(CO)C(O)C(O)C1O
INCHIKEY: HYDDDNUKNMMWBD-UHFFFAOYNA-N
Ontology: Steroidal saponins
COLLISIONENERGY: 10
FORMULA: C33H49NO8
RETENTIONTIME: 4.009517
IONMODE: Negative
Comment: registered in RIKEN PlaSMA
Num Peaks: 7
179.05861	10
324.85181	11
584.31232	11
622.32123	13
632.34576	1000
632.38837	26
632.46619	11

NAME: Corynanthine
PRECURSORMZ: 353.18706624783
PRECURSORTYPE: [M-H]-
INSTRUMENTTYPE: LC-ESI-QTOF
SMILES: COC(=O)C1C(O)CCC2CN3CCC4=C(NC5=CC=CC=C45)C3CC12
INCHIKEY: BLGXFZZNTVWLAY-UHFFFAOYNA-N
Ontology: Yohimbine alkaloids
COLLISIONENERGY: 10
FORMULA: C21H26N2O3
RETENTIONTIME: 4.345333
IONMODE: Negative
Comment: registered in RIKEN PlaSMA
Num Peaks: 13
144.07759	46
169.07054	72
169.08081	34
179.07468	36
179.091	44
183.08711	80
234.09416	38
236.10298	38
257.11841	34
259.12479	36
291.14987	34
293.16724	38
353.18796	1000

NAME: Corynanthine
PRECURSORMZ: 399.19254555183
PRECURSORTYPE: [M+FA-H]-
INSTRUMENTTYPE: LC-ESI-QTOF
SMILES: COC(=O)C1C(O)CCC2CN3CCC4=C(NC5=CC=CC=C45)C3CC12
INCHIKEY: BLGXFZZNTVWLAY-UHFFFAOYNA-N
Ontology: Yohimbine alkaloids
COLLISIONENERGY: 10
FORMULA: C21H26N2O3
RETENTIONTIME: 4.345333
IONMODE: Negative
Comment: registered in RIKEN PlaSMA
Num Peaks: 5
294.16638	220
353.18884	1000
353.20923	354
354.1846	150
355.18869	142

NAME: Pseudojervine
PRECURSORMZ: 632.344020404
PRECURSORTYPE: [M+FA-H]-
INSTRUMENTTYPE: LC-ESI-QTOF
SMILES: CC1C2NCC(C)CC2OC11CCC2C3CC=C4CC(CCC4(C)C3C(=O)C2=C1C)OC1OC(CO)C(O)C(O)C1O
INCHIKEY: HYDDDNUKNMMWBD-UHFFFAOYNA-N
Ontology: Steroidal saponins
COLLISIONENERGY: 10
FORMULA: C33H49NO8
RETENTIONTIME: 4.009517
IONMODE: Negative
Comment: registered in RIKEN PlaSMA
Num Peaks: 3
586.33765	8
632.34424	1000
632.40125	9

NAME: Corynanthine
PRECURSORMZ: 399.19254555183
PRECURSORTYPE: [M+FA-H]-
INSTRUMENTTYPE: LC-ESI-QTOF
SMILES: COC(=O)C1C(O)CCC2CN3CCC4=C(NC5=CC=CC=C45)C3CC12
INCHIKEY: BLGXFZZNTVWLAY-UHFFFAOYNA-N
Ontology: Yohimbine alkaloids
COLLISIONENERGY: 10
FORMULA: C21H26N2O3
RETENTIONTIME: 4.345333
IONMODE: Negative
Comment: registered in RIKEN PlaSMA
Num Peaks: 5
334.96783	72
353.18634	1000
354.18591	155
399.18652	259
399.20068	183

NAME: Pseudojervine
PRECURSORMZ: 632.344020404
PRECURSORTYPE: [M+FA-H]-
INSTRUMENTTYPE: LC-ESI-QTOF
SMILES: CC1C2NCC(C)CC2OC11CCC2C3CC=C4CC(CCC4(C)C3C(=O)C2=C1C)OC1OC(CO)C(O)C(O)C1O
INCHIKEY: HYDDDNUKNMMWBD-UHFFFAOYNA-N
Ontology: Steroidal saponins
COLLISIONENERGY: 30
FORMULA: C33H49NO8
RETENTIONTIME: 4.009517
IONMODE: Negative
Comment: registered in RIKEN PlaSMA
Num Peaks: 4
113.02472	229
622.30377	285
632.34406	1000
632.37598	292

NAME: Corynanthine
PRECURSORMZ: 353.18706624783
PRECURSORTYPE: [M-H]-
INSTRUMENTTYPE: LC-ESI-QTOF
SMILES: COC(=O)C1C(O)CCC2CN3CCC4=C(NC5=CC=CC=C45)C3CC12
INCHIKEY: BLGXFZZNTVWLAY-UHFFFAOYNA-N
Ontology: Yohimbine alkaloids
COLLISIONENERGY: 30
FORMULA: C21H26N2O3
RETENTIONTIME: 4.345333
IONMODE: Negative
Comment: registered in RIKEN PlaSMA
Num Peaks: 19
118.06389	171
142.06384	171
142.08229	146
156.07901	138
156.08884	634
169.07069	732
169.08209	211
182.05861	146
194.09753	163
221.11833	512
234.11172	146
265.13565	154
277.11816	228
291.14993	179
293.16507	1000
294.15652	171
303.14685	146
321.14917	163
353.18509	154

NAME: Corynanthine
PRECURSORMZ: 399.19254555183
PRECURSORTYPE: [M+FA-H]-
INSTRUMENTTYPE: LC-ESI-QTOF
SMILES: COC(=O)C1C(O)CCC2CN3CCC4=C(NC5=CC=CC=C45)C3CC12
INCHIKEY: BLGXFZZNTVWLAY-UHFFFAOYNA-N
Ontology: Yohimbine alkaloids
COLLISIONENERGY: 30
FORMULA: C21H26N2O3
RETENTIONTIME: 4.345333
IONMODE: Negative
Comment: registered in RIKEN PlaSMA
Num Peaks: 6
277.14233	284
293.16211	196
321.15607	186
323.17093	294
353.17398	294
353.18713	1000

NAME: Pseudojervine
PRECURSORMZ: 632.344020404
PRECURSORTYPE: [M+FA-H]-
INSTRUMENTTYPE: LC-ESI-QTOF
SMILES: CC1C2NCC(C)CC2OC11CCC2C3CC=C4CC(CCC4(C)C3C(=O)C2=C1C)OC1OC(CO)C(O)C(O)C1O
INCHIKEY: HYDDDNUKNMMWBD-UHFFFAOYNA-N
Ontology: Steroidal saponins
COLLISIONENERGY: 50
FORMULA: C33H49NO8
RETENTIONTIME: 4.009517
IONMODE: Negative
Comment: registered in RIKEN PlaSMA
Num Peaks: 1
101.02056	1000

NAME: Corynanthine
PRECURSORMZ: 353.18706624783
PRECURSORTYPE: [M-H]-
INSTRUMENTTYPE: LC-ESI-QTOF
SMILES: COC(=O)C1C(O)CCC2CN3CCC4=C(NC5=CC=CC=C45)C3CC12
INCHIKEY: BLGXFZZNTVWLAY-UHFFFAOYNA-N
Ontology: Yohimbine alkaloids
COLLISIONENERGY: 50
FORMULA: C21H26N2O3
RETENTIONTIME: 4.345333
IONMODE: Negative
Comment: registered in RIKEN PlaSMA
Num Peaks: 8
142.07016	1000
156.07869	500
169.05685	214
180.07104	286
181.08917	357
208.11678	274
219.09122	238
285.10687	238

NAME: Corynanthine
PRECURSORMZ: 399.19254555183
PRECURSORTYPE: [M+FA-H]-
INSTRUMENTTYPE: LC-ESI-QTOF
SMILES: COC(=O)C1C(O)CCC2CN3CCC4=C(NC5=CC=CC=C45)C3CC12
INCHIKEY: BLGXFZZNTVWLAY-UHFFFAOYNA-N
Ontology: Yohimbine alkaloids
COLLISIONENERGY: 50
FORMULA: C21H26N2O3
RETENTIONTIME: 4.345333
IONMODE: Negative
Comment: registered in RIKEN PlaSMA
Num Peaks: 2
156.08199	1000
169.07199	438

NAME: Pseudojervine
PRECURSORMZ: 632.344020404
PRECURSORTYPE: [M+FA-H]-
INSTRUMENTTYPE: LC-ESI-QTOF
SMILES: CC1C2NCC(C)CC2OC11CCC2C3CC=C4CC(CCC4(C)C3C(=O)C2=C1C)OC1OC(CO)C(O)C(O)C1O
INCHIKEY: HYDDDNUKNMMWBD-UHFFFAOYNA-N
Ontology: Steroidal saponins
COLLISIONENERGY: 10
FORMULA: C33H49NO8
RETENTIONTIME: 4.009517
IONMODE: Negative
Comment: registered in RIKEN PlaSMA
Num Peaks: 5
143.03998	14
161.04668	18
632.30438	11
632.34344	1000
632.53156	12

NAME: Corynanthine
PRECURSORMZ: 353.18706624783
PRECURSORTYPE: [M-H]-
INSTRUMENTTYPE: LC-ESI-QTOF
SMILES: COC(=O)C1C(O)CCC2CN3CCC4=C(NC5=CC=CC=C45)C3CC12
INCHIKEY: BLGXFZZNTVWLAY-UHFFFAOYNA-N
Ontology: Yohimbine alkaloids
COLLISIONENERGY: 10
FORMULA: C21H26N2O3
RETENTIONTIME: 4.345333
IONMODE: Negative
Comment: registered in RIKEN PlaSMA
Num Peaks: 14
144.04141	58
169.07312	135
207.74716	58
237.12247	89
251.14366	52
279.18436	55
293.15787	153
293.18155	61
317.00613	63
321.1665	58
322.1619	55
336.18808	72
353.17612	340
353.18808	1000

NAME: Corynanthine
PRECURSORMZ: 399.19254555183
PRECURSORTYPE: [M+FA-H]-
INSTRUMENTTYPE: LC-ESI-QTOF
SMILES: COC(=O)C1C(O)CCC2CN3CCC4=C(NC5=CC=CC=C45)C3CC12
INCHIKEY: BLGXFZZNTVWLAY-UHFFFAOYNA-N
Ontology: Yohimbine alkaloids
COLLISIONENERGY: 10
FORMULA: C21H26N2O3
RETENTIONTIME: 4.345333
IONMODE: Negative
Comment: registered in RIKEN PlaSMA
Num Peaks: 8
89.07079	215
107.85802	200
169.07629	170
194.68553	163
321.15906	156
353.17038	178
353.18649	1000
354.19434	133

NAME: Pseudojervine
PRECURSORMZ: 632.344020404
PRECURSORTYPE: [M+FA-H]-
INSTRUMENTTYPE: LC-ESI-QTOF
SMILES: CC1C2NCC(C)CC2OC11CCC2C3CC=C4CC(CCC4(C)C3C(=O)C2=C1C)OC1OC(CO)C(O)C(O)C1O
INCHIKEY: HYDDDNUKNMMWBD-UHFFFAOYNA-N
Ontology: Steroidal saponins
COLLISIONENERGY: 10
FORMULA: C33H49NO8
RETENTIONTIME: 4.009517
IONMODE: Negative
Comment: registered in RIKEN PlaSMA
Num Peaks: 4
143.03761	5
362.35352	6
586.34973	7
632.34625	1000

NAME: Corynanthine
PRECURSORMZ: 353.18706624783
PRECURSORTYPE: [M-H]-
INSTRUMENTTYPE: LC-ESI-QTOF
SMILES: COC(=O)C1C(O)CCC2CN3CCC4=C(NC5=CC=CC=C45)C3CC12
INCHIKEY: BLGXFZZNTVWLAY-UHFFFAOYNA-N
Ontology: Yohimbine alkaloids
COLLISIONENERGY: 10
FORMULA: C21H26N2O3
RETENTIONTIME: 4.345333
IONMODE: Negative
Comment: registered in RIKEN PlaSMA
Num Peaks: 5
212.42181	22
294.18503	28
321.16977	21
353.18649	1000
353.23557	27

NAME: Corynanthine
PRECURSORMZ: 399.19254555183
PRECURSORTYPE: [M+FA-H]-
INSTRUMENTTYPE: LC-ESI-QTOF
SMILES: COC(=O)C1C(O)CCC2CN3CCC4=C(NC5=CC=CC=C45)C3CC12
INCHIKEY: BLGXFZZNTVWLAY-UHFFFAOYNA-N
Ontology: Yohimbine alkaloids
COLLISIONENERGY: 10
FORMULA: C21H26N2O3
RETENTIONTIME: 4.345333
IONMODE: Negative
Comment: registered in RIKEN PlaSMA
Num Peaks: 9
353.17557	223
353.18951	1000
353.21103	89
354.18393	89
354.1937	193
354.20593	94
359.96454	89
399.18063	193
399.20316	144

NAME: Pseudojervine
PRECURSORMZ: 632.344020404
PRECURSORTYPE: [M+FA-H]-
INSTRUMENTTYPE: LC-ESI-QTOF
SMILES: CC1C2NCC(C)CC2OC11CCC2C3CC=C4CC(CCC4(C)C3C(=O)C2=C1C)OC1OC(CO)C(O)C(O)C1O
INCHIKEY: HYDDDNUKNMMWBD-UHFFFAOYNA-N
Ontology: Steroidal saponins
COLLISIONENERGY: 30
FORMULA: C33H49NO8
RETENTIONTIME: 4.009517
IONMODE: Negative
Comment: registered in RIKEN PlaSMA
Num Peaks: 2
89.02472	226
632.33289	1000

NAME: Corynanthine
PRECURSORMZ: 353.18706624783
PRECURSORTYPE: [M-H]-
INSTRUMENTTYPE: LC-ESI-QTOF
SMILES: COC(=O)C1C(O)CCC2CN3CCC4=C(NC5=CC=CC=C45)C3CC12
INCHIKEY: BLGXFZZNTVWLAY-UHFFFAOYNA-N
Ontology: Yohimbine alkaloids
COLLISIONENERGY: 30
FORMULA: C21H26N2O3
RETENTIONTIME: 4.345333
IONMODE: Negative
Comment: registered in RIKEN PlaSMA
Num Peaks: 16
69.03539	211
130.06277	253
169.06761	189
183.09222	221
193.10603	211
209.08809	263
222.11954	189
235.10013	200
245.10774	326
276.15482	232
293.14807	189
293.16669	1000
294.17096	232
303.14957	432
353.17569	305
353.1911	926

NAME: Corynanthine
PRECURSORMZ: 399.19254555183
PRECURSORTYPE: [M+FA-H]-
INSTRUMENTTYPE: LC-ESI-QTOF
SMILES: COC(=O)C1C(O)CCC2CN3CCC4=C(NC5=CC=CC=C45)C3CC12
INCHIKEY: BLGXFZZNTVWLAY-UHFFFAOYNA-N
Ontology: Yohimbine alkaloids
COLLISIONENERGY: 30
FORMULA: C21H26N2O3
RETENTIONTIME: 4.345333
IONMODE: Negative
Comment: registered in RIKEN PlaSMA
Num Peaks: 7
169.0831	259
278.11777	216
293.16061	345
321.16138	379
322.15714	155
353.18665	1000
354.20163	155

NAME: Pseudojervine
PRECURSORMZ: 632.344020404
PRECURSORTYPE: [M+FA-H]-
INSTRUMENTTYPE: LC-ESI-QTOF
SMILES: CC1C2NCC(C)CC2OC11CCC2C3CC=C4CC(CCC4(C)C3C(=O)C2=C1C)OC1OC(CO)C(O)C(O)C1O
INCHIKEY: HYDDDNUKNMMWBD-UHFFFAOYNA-N
Ontology: Steroidal saponins
COLLISIONENERGY: 50
FORMULA: C33H49NO8
RETENTIONTIME: 4.009517
IONMODE: Negative
Comment: registered in RIKEN PlaSMA
Num Peaks: 4
182.00844	284
632.32306	1000
632.35529	273
632.3797	205

NAME: Corynanthine
PRECURSORMZ: 353.18706624783
PRECURSORTYPE: [M-H]-
INSTRUMENTTYPE: LC-ESI-QTOF
SMILES: COC(=O)C1C(O)CCC2CN3CCC4=C(NC5=CC=CC=C45)C3CC12
INCHIKEY: BLGXFZZNTVWLAY-UHFFFAOYNA-N
Ontology: Yohimbine alkaloids
COLLISIONENERGY: 50
FORMULA: C21H26N2O3
RETENTIONTIME: 4.345333
IONMODE: Negative
Comment: registered in RIKEN PlaSMA
Num Peaks: 12
116.05354	304
121.03312	176
142.06523	471
142.07137	206
158.08458	245
166.06125	196
169.07808	1000
169.08275	324
179.07506	176
192.08246	196
233.11281	186
236.10335	235

NAME: Corynanthine
PRECURSORMZ: 399.19254555183
PRECURSORTYPE: [M+FA-H]-
INSTRUMENTTYPE: LC-ESI-QTOF
SMILES: COC(=O)C1C(O)CCC2CN3CCC4=C(NC5=CC=CC=C45)C3CC12
INCHIKEY: BLGXFZZNTVWLAY-UHFFFAOYNA-N
Ontology: Yohimbine alkaloids
COLLISIONENERGY: 50
FORMULA: C21H26N2O3
RETENTIONTIME: 4.345333
IONMODE: Negative
Comment: registered in RIKEN PlaSMA
Num Peaks: 4
145.07631	444
156.08406	1000
169.07454	422
237.10655	444

NAME: Pseudojervine
PRECURSORMZ: 632.344020404
PRECURSORTYPE: [M+FA-H]-
INSTRUMENTTYPE: LC-ESI-QTOF
SMILES: CC1C2NCC(C)CC2OC11CCC2C3CC=C4CC(CCC4(C)C3C(=O)C2=C1C)OC1OC(CO)C(O)C(O)C1O
INCHIKEY: HYDDDNUKNMMWBD-UHFFFAOYNA-N
Ontology: Steroidal saponins
COLLISIONENERGY: 10
FORMULA: C33H49NO8
RETENTIONTIME: 4.009517
IONMODE: Negative
Comment: registered in RIKEN PlaSMA
Num Peaks: 4
59.01295	21
89.02108	15
586.34332	12
632.34485	1000

NAME: Corynanthine
PRECURSORMZ: 353.18706624783
PRECURSORTYPE: [M-H]-
INSTRUMENTTYPE: LC-ESI-QTOF
SMILES: COC(=O)C1C(O)CCC2CN3CCC4=C(NC5=CC=CC=C45)C3CC12
INCHIKEY: BLGXFZZNTVWLAY-UHFFFAOYNA-N
Ontology: Yohimbine alkaloids
COLLISIONENERGY: 10
FORMULA: C21H26N2O3
RETENTIONTIME: 4.345333
IONMODE: Negative
Comment: registered in RIKEN PlaSMA
Num Peaks: 10
140.07251	46
142.06496	44
156.08365	96
169.07159	40
206.09943	48
221.10815	100
293.16537	82
321.16348	40
353.05429	50
353.18503	1000

NAME: Corynanthine
PRECURSORMZ: 399.19254555183
PRECURSORTYPE: [M+FA-H]-
INSTRUMENTTYPE: LC-ESI-QTOF
SMILES: COC(=O)C1C(O)CCC2CN3CCC4=C(NC5=CC=CC=C45)C3CC12
INCHIKEY: BLGXFZZNTVWLAY-UHFFFAOYNA-N
Ontology: Yohimbine alkaloids
COLLISIONENERGY: 10
FORMULA: C21H26N2O3
RETENTIONTIME: 4.345333
IONMODE: Negative
Comment: registered in RIKEN PlaSMA
Num Peaks: 5
303.15515	128
319.14224	103
353.18173	1000
354.18744	108
354.20154	103

NAME: Pseudojervine
PRECURSORMZ: 632.344020404
PRECURSORTYPE: [M+FA-H]-
INSTRUMENTTYPE: LC-ESI-QTOF
SMILES: CC1C2NCC(C)CC2OC11CCC2C3CC=C4CC(CCC4(C)C3C(=O)C2=C1C)OC1OC(CO)C(O)C(O)C1O
INCHIKEY: HYDDDNUKNMMWBD-UHFFFAOYNA-N
Ontology: Steroidal saponins
COLLISIONENERGY: 10
FORMULA: C33H49NO8
RETENTIONTIME: 4.009517
IONMODE: Negative
Comment: registered in RIKEN PlaSMA
Num Peaks: 4
586.33783	12
587.34161	6
589.84717	5
632.34387	1000

NAME: Corynanthine
PRECURSORMZ: 353.18706624783
PRECURSORTYPE: [M-H]-
INSTRUMENTTYPE: LC-ESI-QTOF
SMILES: COC(=O)C1C(O)CCC2CN3CCC4=C(NC5=CC=CC=C45)C3CC12
INCHIKEY: BLGXFZZNTVWLAY-UHFFFAOYNA-N
Ontology: Yohimbine alkaloids
COLLISIONENERGY: 10
FORMULA: C21H26N2O3
RETENTIONTIME: 4.345333
IONMODE: Negative
Comment: registered in RIKEN PlaSMA
Num Peaks: 4
91.00212	15
321.13983	18
346.47421	18
353.18454	1000

NAME: Corynanthine
PRECURSORMZ: 399.19254555183
PRECURSORTYPE: [M+FA-H]-
INSTRUMENTTYPE: LC-ESI-QTOF
SMILES: COC(=O)C1C(O)CCC2CN3CCC4=C(NC5=CC=CC=C45)C3CC12
INCHIKEY: BLGXFZZNTVWLAY-UHFFFAOYNA-N
Ontology: Yohimbine alkaloids
COLLISIONENERGY: 10
FORMULA: C21H26N2O3
RETENTIONTIME: 4.345333
IONMODE: Negative
Comment: registered in RIKEN PlaSMA
Num Peaks: 6
353.16226	227
353.19806	1000
354.17502	89
354.19968	227
398.02649	118
399.19794	340

NAME: Pseudojervine
PRECURSORMZ: 632.344020404
PRECURSORTYPE: [M+FA-H]-
INSTRUMENTTYPE: LC-ESI-QTOF
SMILES: CC1C2NCC(C)CC2OC11CCC2C3CC=C4CC(CCC4(C)C3C(=O)C2=C1C)OC1OC(CO)C(O)C(O)C1O
INCHIKEY: HYDDDNUKNMMWBD-UHFFFAOYNA-N
Ontology: Steroidal saponins
COLLISIONENERGY: 30
FORMULA: C33H49NO8
RETENTIONTIME: 4.009517
IONMODE: Negative
Comment: registered in RIKEN PlaSMA
Num Peaks: 5
116.92751	61
625.29779	64
625.32599	64
632.32904	238
632.34808	1000

NAME: Corynanthine
PRECURSORMZ: 353.18706624783
PRECURSORTYPE: [M-H]-
INSTRUMENTTYPE: LC-ESI-QTOF
SMILES: COC(=O)C1C(O)CCC2CN3CCC4=C(NC5=CC=CC=C45)C3CC12
INCHIKEY: BLGXFZZNTVWLAY-UHFFFAOYNA-N
Ontology: Yohimbine alkaloids
COLLISIONENERGY: 30
FORMULA: C21H26N2O3
RETENTIONTIME: 4.345333
IONMODE: Negative
Comment: registered in RIKEN PlaSMA
Num Peaks: 19
124.90825	118
156.08344	118
157.08826	118
169.06783	118
169.08035	671
170.10724	132
183.0536	217
221.0876	118
222.10985	171
233.1176	138
236.10825	132
250.13736	184
266.13568	138
275.15869	237
277.19009	191
293.16141	1000
303.15109	493
353.17871	125
353.19708	230

NAME: Corynanthine
PRECURSORMZ: 399.19254555183
PRECURSORTYPE: [M+FA-H]-
INSTRUMENTTYPE: LC-ESI-QTOF
SMILES: COC(=O)C1C(O)CCC2CN3CCC4=C(NC5=CC=CC=C45)C3CC12
INCHIKEY: BLGXFZZNTVWLAY-UHFFFAOYNA-N
Ontology: Yohimbine alkaloids
COLLISIONENERGY: 30
FORMULA: C21H26N2O3
RETENTIONTIME: 4.345333
IONMODE: Negative
Comment: registered in RIKEN PlaSMA
Num Peaks: 3
293.15021	136
321.15402	174
353.189	1000

NAME: Corynanthine
PRECURSORMZ: 353.18706624783
PRECURSORTYPE: [M-H]-
INSTRUMENTTYPE: LC-ESI-QTOF
SMILES: COC(=O)C1C(O)CCC2CN3CCC4=C(NC5=CC=CC=C45)C3CC12
INCHIKEY: BLGXFZZNTVWLAY-UHFFFAOYNA-N
Ontology: Yohimbine alkaloids
COLLISIONENERGY: 50
FORMULA: C21H26N2O3
RETENTIONTIME: 4.345333
IONMODE: Negative
Comment: registered in RIKEN PlaSMA
Num Peaks: 9
116.04868	258
142.06425	1000
142.0724	419
143.07283	204
156.08672	204
163.98828	258
166.07356	204
167.0517	258
196.09541	237

NAME: Corynanthine
PRECURSORMZ: 399.19254555183
PRECURSORTYPE: [M+FA-H]-
INSTRUMENTTYPE: LC-ESI-QTOF
SMILES: COC(=O)C1C(O)CCC2CN3CCC4=C(NC5=CC=CC=C45)C3CC12
INCHIKEY: BLGXFZZNTVWLAY-UHFFFAOYNA-N
Ontology: Yohimbine alkaloids
COLLISIONENERGY: 50
FORMULA: C21H26N2O3
RETENTIONTIME: 4.345333
IONMODE: Negative
Comment: registered in RIKEN PlaSMA
Num Peaks: 4
156.07645	612
156.08824	1000
169.07614	796
221.11206	367

NAME: Isoreserpin
PRECURSORMZ: 607.26610444783
PRECURSORTYPE: [M-H]-
INSTRUMENTTYPE: LC-ESI-QTOF
SMILES: COC1C(CC2CN3CCC4=C(NC5=C4C=CC(OC)=C5)C3CC2C1C(=O)OC)OC(=O)C1=CC(OC)=C(OC)C(OC)=C1
INCHIKEY: QEVHRUUCFGRFIF-UHFFFAOYNA-N
Ontology: Yohimbine alkaloids
COLLISIONENERGY: 10
FORMULA: C33H40N2O9
RETENTIONTIME: 6.098567
IONMODE: Negative
Comment: registered in RIKEN PlaSMA
Num Peaks: 42
93.99996	7
121.99767	6
137.02457	7
137.99242	7
147.35953	8
152.04216	7
167.06348	6
167.07401	14
169.01294	7
171.06169	6
181.01357	18
182.0258	7
196.07582	10
197.03473	7
197.04662	14
197.05807	8
197.06642	8
211.06592	43
311.88516	8
333.13519	7
346.14682	7
352.10123	6
365.12656	9
365.14493	9
366.15128	7
378.10852	6
380.16885	29
404.14444	8
415.19525	6
498.85553	10
563.73822	6
577.20801	10
577.22955	56
578.24182	7
579.22247	7
588.15479	8
592.24274	252
593.245	55
593.27698	7
594.21521	8
594.25586	13
607.26361	1000

NAME: Isoreserpin
PRECURSORMZ: 653.27158375183
PRECURSORTYPE: [M+FA-H]-
INSTRUMENTTYPE: LC-ESI-QTOF
SMILES: COC1C(CC2CN3CCC4=C(NC5=C4C=CC(OC)=C5)C3CC2C1C(=O)OC)OC(=O)C1=CC(OC)=C(OC)C(OC)=C1
INCHIKEY: QEVHRUUCFGRFIF-UHFFFAOYNA-N
Ontology: Yohimbine alkaloids
COLLISIONENERGY: 10
FORMULA: C33H40N2O9
RETENTIONTIME: 6.098567
IONMODE: Negative
Comment: registered in RIKEN PlaSMA
Num Peaks: 30
137.02097	35
147.9603	12
152.04593	9
166.99629	11
181.0088	21
181.01901	29
211.06174	38
307.12161	17
317.12329	9
330.14194	9
336.1796	9
339.25989	9
369.46707	11
406.14526	10
543.22156	9
561.15045	12
577.21466	20
578.21869	9
592.24097	128
592.27704	10
593.24451	65
594.25494	22
607.26605	1000
608.26965	354
608.3244	10
609.28265	43
610.27252	9
653.20782	12
653.26215	63
653.28363	42

NAME: Isoreserpin
PRECURSORMZ: 607.26610444783
PRECURSORTYPE: [M-H]-
INSTRUMENTTYPE: LC-ESI-QTOF
SMILES: COC1C(CC2CN3CCC4=C(NC5=C4C=CC(OC)=C5)C3CC2C1C(=O)OC)OC(=O)C1=CC(OC)=C(OC)C(OC)=C1
INCHIKEY: QEVHRUUCFGRFIF-UHFFFAOYNA-N
Ontology: Yohimbine alkaloids
COLLISIONENERGY: 10
FORMULA: C33H40N2O9
RETENTIONTIME: 6.098567
IONMODE: Negative
Comment: registered in RIKEN PlaSMA
Num Peaks: 3
197.039	6
282.02951	7
607.26599	1000

NAME: Isoreserpin
PRECURSORMZ: 653.27158375183
PRECURSORTYPE: [M+FA-H]-
INSTRUMENTTYPE: LC-ESI-QTOF
SMILES: COC1C(CC2CN3CCC4=C(NC5=C4C=CC(OC)=C5)C3CC2C1C(=O)OC)OC(=O)C1=CC(OC)=C(OC)C(OC)=C1
INCHIKEY: QEVHRUUCFGRFIF-UHFFFAOYNA-N
Ontology: Yohimbine alkaloids
COLLISIONENERGY: 10
FORMULA: C33H40N2O9
RETENTIONTIME: 6.098567
IONMODE: Negative
Comment: registered in RIKEN PlaSMA
Num Peaks: 15
311.37149	8
327.92145	9
329.6478	11
384.44861	11
575.24371	7
598.84375	7
607.26581	1000
608.19739	7
608.26599	281
609.25531	64
609.27765	57
610.27936	13
611.27625	9
639.2453	7
653.27466	247

NAME: Isoreserpin
PRECURSORMZ: 607.26610444783
PRECURSORTYPE: [M-H]-
INSTRUMENTTYPE: LC-ESI-QTOF
SMILES: COC1C(CC2CN3CCC4=C(NC5=C4C=CC(OC)=C5)C3CC2C1C(=O)OC)OC(=O)C1=CC(OC)=C(OC)C(OC)=C1
INCHIKEY: QEVHRUUCFGRFIF-UHFFFAOYNA-N
Ontology: Yohimbine alkaloids
COLLISIONENERGY: 30
FORMULA: C33H40N2O9
RETENTIONTIME: 6.098567
IONMODE: Negative
Comment: registered in RIKEN PlaSMA
Num Peaks: 64
122.00134	11
137.0244	197
137.06482	12
138.03226	13
165.98772	11
167.00961	15
167.05992	11
169.01497	11
171.06813	15
180.99524	18
181.01396	463
181.03171	12
181.25499	11
182.0182	43
197.0484	23
198.03642	18
211.05042	27
211.06429	211
211.08905	22
212.06081	37
221.29593	13
225.09758	12
250.0766	14
276.92581	17
304.95203	13
327.31372	17
333.13419	22
349.14819	12
352.112	12
361.25894	19
363.16113	12
379.69839	12
380.14819	12
380.17432	60
381.17102	11
386.88535	17
389.12482	15
391.117	13
392.13501	13
392.21701	17
395.19067	12
405.13477	28
419.15585	11
529.19409	11
533.21741	12
577.22113	265
577.27252	16
578.1532	11
578.22565	177
578.25085	14
579.22675	50
579.26007	32
582.81934	14
591.23761	16
592.24329	1000
592.38647	14
593.24365	389
593.28796	12
594.25317	44
595.23499	12
595.25488	13
601.42188	11
607.2583	140
607.28955	17

NAME: Isoreserpin
PRECURSORMZ: 653.27158375183
PRECURSORTYPE: [M+FA-H]-
INSTRUMENTTYPE: LC-ESI-QTOF
SMILES: COC1C(CC2CN3CCC4=C(NC5=C4C=CC(OC)=C5)C3CC2C1C(=O)OC)OC(=O)C1=CC(OC)=C(OC)C(OC)=C1
INCHIKEY: QEVHRUUCFGRFIF-UHFFFAOYNA-N
Ontology: Yohimbine alkaloids
COLLISIONENERGY: 30
FORMULA: C33H40N2O9
RETENTIONTIME: 6.098567
IONMODE: Negative
Comment: registered in RIKEN PlaSMA
Num Peaks: 35
152.04268	18
167.07405	21
181.01118	167
181.02005	111
182.01976	39
196.03471	26
197.07791	20
211.05739	203
232.07709	28
339.68262	18
380.17221	20
419.16422	18
453.16925	18
500.18973	18
528.16827	19
544.21851	23
577.20251	38
577.23486	18
578.22137	41
578.97992	22
579.21497	28
586.14014	18
592.23956	1000
592.2818	30
593.2384	156
593.25708	125
594.05743	24
594.26813	30
595.24115	22
607.23169	67
607.26056	609
608.26599	414
609.27222	54
610.26556	20
618.84247	22

NAME: Isoreserpin
PRECURSORMZ: 607.26610444783
PRECURSORTYPE: [M-H]-
INSTRUMENTTYPE: LC-ESI-QTOF
SMILES: COC1C(CC2CN3CCC4=C(NC5=C4C=CC(OC)=C5)C3CC2C1C(=O)OC)OC(=O)C1=CC(OC)=C(OC)C(OC)=C1
INCHIKEY: QEVHRUUCFGRFIF-UHFFFAOYNA-N
Ontology: Yohimbine alkaloids
COLLISIONENERGY: 50
FORMULA: C33H40N2O9
RETENTIONTIME: 6.098567
IONMODE: Negative
Comment: registered in RIKEN PlaSMA
Num Peaks: 68
65.03621	29
81.03123	21
82.00484	19
82.03602	31
94.00832	20
96.0155	20
121.99856	38
123.00968	22
124.02292	17
135.0466	22
136.00616	17
136.99089	17
137.0238	194
137.03304	83
137.99786	23
138.03224	209
152.04639	284
153.05557	37
157.06984	23
158.06087	23
167.07237	1000
167.42012	38
168.00275	26
168.07422	99
169.01323	17
169.0724	18
170.07014	18
171.07603	50
181.01103	19
181.01938	29
182.01877	85
183.03514	21
183.05649	18
185.07405	18
194.0213	19
196.03935	25
197.03355	19
197.04948	64
197.07106	50
198.04236	23
211.06279	407
211.08232	29
212.06349	87
223.08488	21
233.06964	34
248.0705	24
249.03743	21
249.10332	19
251.12506	19
267.0488	17
298.10901	17
305.12857	40
318.09995	19
333.10107	20
333.1243	82
333.14633	20
349.15475	17
364.1254	20
366.16898	19
376.10641	29
381.16855	23
413.1644	19
426.17123	19
458.17038	17
490.1944	19
547.18097	20
561.18213	74
561.21106	21

NAME: Isoreserpin
PRECURSORMZ: 653.27158375183
PRECURSORTYPE: [M+FA-H]-
INSTRUMENTTYPE: LC-ESI-QTOF
SMILES: COC1C(CC2CN3CCC4=C(NC5=C4C=CC(OC)=C5)C3CC2C1C(=O)OC)OC(=O)C1=CC(OC)=C(OC)C(OC)=C1
INCHIKEY: QEVHRUUCFGRFIF-UHFFFAOYNA-N
Ontology: Yohimbine alkaloids
COLLISIONENERGY: 50
FORMULA: C33H40N2O9
RETENTIONTIME: 6.098567
IONMODE: Negative
Comment: registered in RIKEN PlaSMA
Num Peaks: 45
81.03648	47
94.00283	39
94.00757	47
119.05193	58
137.02176	258
138.02911	73
152.04919	45
153.04767	47
167.07347	497
168.06964	73
171.06787	37
173.08487	47
181.01805	93
183.06203	47
184.03333	37
184.0522	43
184.06084	45
195.02504	34
197.05179	45
197.07285	34
198.04846	58
201.09583	34
203.66487	37
210.04094	34
211.05989	1000
211.44443	34
212.06448	34
237.09525	34
307.08713	41
330.0799	41
337.14023	41
349.15829	54
350.16037	34
379.17346	52
380.17508	136
381.1709	75
382.17789	75
390.12042	39
549.21741	41
561.15643	34
577.25006	37
578.19806	37
578.23938	37
580.21661	37
592.25073	116

NAME: Isoreserpin
PRECURSORMZ: 607.26610444783
PRECURSORTYPE: [M-H]-
INSTRUMENTTYPE: LC-ESI-QTOF
SMILES: COC1C(CC2CN3CCC4=C(NC5=C4C=CC(OC)=C5)C3CC2C1C(=O)OC)OC(=O)C1=CC(OC)=C(OC)C(OC)=C1
INCHIKEY: QEVHRUUCFGRFIF-UHFFFAOYNA-N
Ontology: Yohimbine alkaloids
COLLISIONENERGY: 10
FORMULA: C33H40N2O9
RETENTIONTIME: 6.098567
IONMODE: Negative
Comment: registered in RIKEN PlaSMA
Num Peaks: 49
137.02293	33
137.98975	7
137.99332	17
138.02551	8
138.03548	7
140.03012	8
152.04042	13
167.06133	9
167.07497	26
181.00882	20
181.0174	19
182.00723	7
182.02563	7
183.01762	7
187.063	6
196.03528	8
196.0656	6
197.04716	6
199.10028	7
211.06245	91
216.27641	10
236.07887	9
240.68579	6
249.10844	8
349.14642	7
380.17307	22
383.17874	8
392.14459	8
393.13519	6
395.19989	7
404.1348	7
420.16473	9
421.20236	7
485.17877	8
489.20575	12
500.18723	7
516.22705	6
533.9986	18
562.19403	7
577.22241	61
578.19702	7
578.23138	8
579.22241	7
592.23907	188
593.12732	13
593.23779	68
594.23676	8
598.89697	7
607.26788	1000

NAME: Isoreserpin
PRECURSORMZ: 653.27158375183
PRECURSORTYPE: [M+FA-H]-
INSTRUMENTTYPE: LC-ESI-QTOF
SMILES: COC1C(CC2CN3CCC4=C(NC5=C4C=CC(OC)=C5)C3CC2C1C(=O)OC)OC(=O)C1=CC(OC)=C(OC)C(OC)=C1
INCHIKEY: QEVHRUUCFGRFIF-UHFFFAOYNA-N
Ontology: Yohimbine alkaloids
COLLISIONENERGY: 10
FORMULA: C33H40N2O9
RETENTIONTIME: 6.098567
IONMODE: Negative
Comment: registered in RIKEN PlaSMA
Num Peaks: 34
137.02425	12
167.07086	18
169.00247	14
171.07436	11
181.01474	40
181.05029	15
195.9626	12
196.04858	12
203.08582	12
211.05621	11
212.06767	11
343.53372	28
347.13647	14
380.16373	34
381.1886	12
395.2081	12
577.23328	11
578.22156	13
591.2359	12
592.22656	54
592.24487	158
593.22357	22
593.27405	26
594.07404	11
595.24744	17
607.26501	1000
608.26337	259
608.28625	80
609.23621	22
609.27435	92
609.4397	11
610.255	22
610.29053	13
653.28033	16

NAME: Isoreserpin
PRECURSORMZ: 607.26610444783
PRECURSORTYPE: [M-H]-
INSTRUMENTTYPE: LC-ESI-QTOF
SMILES: COC1C(CC2CN3CCC4=C(NC5=C4C=CC(OC)=C5)C3CC2C1C(=O)OC)OC(=O)C1=CC(OC)=C(OC)C(OC)=C1
INCHIKEY: QEVHRUUCFGRFIF-UHFFFAOYNA-N
Ontology: Yohimbine alkaloids
COLLISIONENERGY: 10
FORMULA: C33H40N2O9
RETENTIONTIME: 6.098567
IONMODE: Negative
Comment: registered in RIKEN PlaSMA
Num Peaks: 3
307.23157	5
456.11761	5
607.26562	1000

NAME: Isoreserpin
PRECURSORMZ: 653.27158375183
PRECURSORTYPE: [M+FA-H]-
INSTRUMENTTYPE: LC-ESI-QTOF
SMILES: COC1C(CC2CN3CCC4=C(NC5=C4C=CC(OC)=C5)C3CC2C1C(=O)OC)OC(=O)C1=CC(OC)=C(OC)C(OC)=C1
INCHIKEY: QEVHRUUCFGRFIF-UHFFFAOYNA-N
Ontology: Yohimbine alkaloids
COLLISIONENERGY: 10
FORMULA: C33H40N2O9
RETENTIONTIME: 6.098567
IONMODE: Negative
Comment: registered in RIKEN PlaSMA
Num Peaks: 14
147.90634	9
198.07491	7
310.26843	8
319.2352	8
507.41718	7
539.37665	9
607.26532	1000
608.26849	235
609.27069	35
610.25995	8
610.27771	8
653.24811	41
653.26465	106
653.29016	75

NAME: Isoreserpin
PRECURSORMZ: 607.26610444783
PRECURSORTYPE: [M-H]-
INSTRUMENTTYPE: LC-ESI-QTOF
SMILES: COC1C(CC2CN3CCC4=C(NC5=C4C=CC(OC)=C5)C3CC2C1C(=O)OC)OC(=O)C1=CC(OC)=C(OC)C(OC)=C1
INCHIKEY: QEVHRUUCFGRFIF-UHFFFAOYNA-N
Ontology: Yohimbine alkaloids
COLLISIONENERGY: 30
FORMULA: C33H40N2O9
RETENTIONTIME: 6.098567
IONMODE: Negative
Comment: registered in RIKEN PlaSMA
Num Peaks: 66
94.0023	11
124.01773	11
137.0211	70
138.02618	37
138.03448	11
151.04306	10
153.05319	24
167.06572	10
181.01443	245
182.01956	75
183.02411	10
196.03535	31
197.03441	25
197.045	10
197.06702	11
211.06026	243
212.0562	26
212.06808	39
213.07538	16
264.10583	10
307.15311	11
314.11768	12
336.56958	11
347.1394	11
349.14633	19
351.10602	13
364.10312	11
365.1322	11
379.1882	10
380.13715	12
380.16309	14
380.18228	85
381.16147	10
381.18399	10
392.12201	13
395.20032	18
403.21735	13
404.13071	13
406.15347	23
418.1239	11
418.13947	11
444.86777	11
500.75629	14
501.18729	10
501.20691	11
516.22711	11
529.17236	13
549.1922	10
576.21558	16
577.21283	189
577.23297	52
578.21368	64
578.23792	38
579.22998	11
584.83972	12
591.20941	10
592.2406	1000
592.28308	11
593.24438	298
593.26801	40
593.63226	11
594.24188	90
594.2757	20
595.25513	14
607.23859	12
607.26831	144

NAME: Isoreserpin
PRECURSORMZ: 653.27158375183
PRECURSORTYPE: [M+FA-H]-
INSTRUMENTTYPE: LC-ESI-QTOF
SMILES: COC1C(CC2CN3CCC4=C(NC5=C4C=CC(OC)=C5)C3CC2C1C(=O)OC)OC(=O)C1=CC(OC)=C(OC)C(OC)=C1
INCHIKEY: QEVHRUUCFGRFIF-UHFFFAOYNA-N
Ontology: Yohimbine alkaloids
COLLISIONENERGY: 30
FORMULA: C33H40N2O9
RETENTIONTIME: 6.098567
IONMODE: Negative
Comment: registered in RIKEN PlaSMA
Num Peaks: 32
166.03024	33
181.01183	129
211.05542	131
211.0703	22
227.12492	22
297.28601	26
349.15045	55
351.11359	22
380.17773	25
380.19214	26
396.21533	22
406.1474	28
525.20911	36
562.20905	23
577.20276	81
577.2226	59
577.24188	71
578.22656	38
580.22961	30
592.23352	656
592.25159	315
592.59973	25
593.10297	25
593.22351	101
593.25299	171
593.30292	23
607.23669	79
607.27197	1000
608.24158	69
608.26874	298
608.38538	25
609.27509	46

NAME: Isoreserpin
PRECURSORMZ: 607.26610444783
PRECURSORTYPE: [M-H]-
INSTRUMENTTYPE: LC-ESI-QTOF
SMILES: COC1C(CC2CN3CCC4=C(NC5=C4C=CC(OC)=C5)C3CC2C1C(=O)OC)OC(=O)C1=CC(OC)=C(OC)C(OC)=C1
INCHIKEY: QEVHRUUCFGRFIF-UHFFFAOYNA-N
Ontology: Yohimbine alkaloids
COLLISIONENERGY: 50
FORMULA: C33H40N2O9
RETENTIONTIME: 6.098567
IONMODE: Negative
Comment: registered in RIKEN PlaSMA
Num Peaks: 58
89.1264	16
93.9986	16
120.99493	26
121.02602	26
121.99728	18
122.56	21
123.00276	17
124.01242	23
125.02747	46
137.01979	130
137.03067	24
137.99426	22
138.02228	22
138.03079	60
151.04762	24
152.03421	19
152.04846	195
153.0513	18
153.05995	60
154.0592	17
160.08118	18
167.07114	1000
168.07358	16
168.08871	20
170.06313	38
181.01393	44
183.02351	19
183.04471	16
184.06393	18
184.07381	18
196.04129	36
197.04356	36
197.07243	19
211.06035	257
212.06404	34
222.10252	21
234.05136	22
235.09004	18
236.08908	16
238.07437	16
277.10028	19
281.06613	16
306.11188	18
306.13699	20
331.10233	22
333.13168	35
345.12531	16
379.14026	18
379.17798	18
380.15387	18
380.19678	19
392.13818	18
429.17966	20
546.15997	17
546.19135	25
549.23627	16
561.18646	16
562.18774	20

NAME: Isoreserpin
PRECURSORMZ: 653.27158375183
PRECURSORTYPE: [M+FA-H]-
INSTRUMENTTYPE: LC-ESI-QTOF
SMILES: COC1C(CC2CN3CCC4=C(NC5=C4C=CC(OC)=C5)C3CC2C1C(=O)OC)OC(=O)C1=CC(OC)=C(OC)C(OC)=C1
INCHIKEY: QEVHRUUCFGRFIF-UHFFFAOYNA-N
Ontology: Yohimbine alkaloids
COLLISIONENERGY: 50
FORMULA: C33H40N2O9
RETENTIONTIME: 6.098567
IONMODE: Negative
Comment: registered in RIKEN PlaSMA
Num Peaks: 40
95.01474	63
137.02356	320
137.99631	59
138.03404	63
138.99985	165
152.05078	238
153.05823	59
154.04765	79
166.02359	63
167.06531	76
167.07454	393
168.01711	142
176.0802	59
179.03275	73
180.04295	66
181.0157	145
182.0269	66
196.03293	66
197.0363	66
197.04926	69
211.06042	1000
211.08099	66
212.05763	135
212.07039	102
249.09904	66
256.07599	59
296.056	66
333.12534	218
350.10779	83
365.11166	63
379.16498	109
380.17105	416
380.19666	132
381.16022	59
381.19125	63
408.17603	59
530.15747	59
547.16998	83
561.17578	66
577.21472	59

NAME: Isoreserpin
PRECURSORMZ: 607.26610444783
PRECURSORTYPE: [M-H]-
INSTRUMENTTYPE: LC-ESI-QTOF
SMILES: COC1C(CC2CN3CCC4=C(NC5=C4C=CC(OC)=C5)C3CC2C1C(=O)OC)OC(=O)C1=CC(OC)=C(OC)C(OC)=C1
INCHIKEY: QEVHRUUCFGRFIF-UHFFFAOYNA-N
Ontology: Yohimbine alkaloids
COLLISIONENERGY: 10
FORMULA: C33H40N2O9
RETENTIONTIME: 6.098567
IONMODE: Negative
Comment: registered in RIKEN PlaSMA
Num Peaks: 54
137.01964	21
137.0265	6
137.99965	7
138.4863	6
138.99825	6
153.05826	6
159.06856	9
167.00674	6
167.07193	53
168.07649	6
170.06137	9
170.0694	14
176.66806	7
181.01727	40
182.01578	6
182.02997	8
196.03731	7
198.05013	7
208.03323	11
211.05048	24
211.06226	126
212.06841	6
228.08528	7
243.6225	8
315.96741	7
333.10608	6
349.15668	21
349.62567	10
351.21194	7
380.15863	6
380.18384	15
392.1279	7
395.20746	8
404.11789	6
406.14746	6
409.51364	7
458.19312	7
501.19513	6
546.15472	7
546.1828	9
575.26587	7
577.21045	41
578.2204	6
579.21368	27
580.2276	6
592.20538	6
592.24542	215
592.77026	6
593.24982	59
594.24347	12
595.24335	6
595.64905	8
607.26422	1000
607.34851	6

NAME: Isoreserpin
PRECURSORMZ: 653.27158375183
PRECURSORTYPE: [M+FA-H]-
INSTRUMENTTYPE: LC-ESI-QTOF
SMILES: COC1C(CC2CN3CCC4=C(NC5=C4C=CC(OC)=C5)C3CC2C1C(=O)OC)OC(=O)C1=CC(OC)=C(OC)C(OC)=C1
INCHIKEY: QEVHRUUCFGRFIF-UHFFFAOYNA-N
Ontology: Yohimbine alkaloids
COLLISIONENERGY: 10
FORMULA: C33H40N2O9
RETENTIONTIME: 6.098567
IONMODE: Negative
Comment: registered in RIKEN PlaSMA
Num Peaks: 41
104.40969	12
137.02437	26
138.02124	10
139.03386	10
167.07227	16
168.00139	12
181.00977	9
181.02628	9
185.07869	10
185.10281	13
195.02907	10
197.03517	10
197.05171	11
211.05804	42
262.71295	10
311.3649	14
380.16214	14
395.18381	14
405.14468	15
427.20834	14
469.17923	12
513.16699	12
543.21216	11
562.20398	10
577.23877	21
578.21692	24
579.24139	9
592.24652	84
592.26788	35
593.22815	24
593.24933	9
594.24255	10
595.24896	14
595.28369	9
607.26825	1000
607.32819	9
608.26965	369
609.24908	36
609.28387	60
610.27271	9
653.27155	102

NAME: Isoreserpin
PRECURSORMZ: 607.26610444783
PRECURSORTYPE: [M-H]-
INSTRUMENTTYPE: LC-ESI-QTOF
SMILES: COC1C(CC2CN3CCC4=C(NC5=C4C=CC(OC)=C5)C3CC2C1C(=O)OC)OC(=O)C1=CC(OC)=C(OC)C(OC)=C1
INCHIKEY: QEVHRUUCFGRFIF-UHFFFAOYNA-N
Ontology: Yohimbine alkaloids
COLLISIONENERGY: 10
FORMULA: C33H40N2O9
RETENTIONTIME: 6.098567
IONMODE: Negative
Comment: registered in RIKEN PlaSMA
Num Peaks: 2
519.16602	6
607.26569	1000

NAME: Isoreserpin
PRECURSORMZ: 653.27158375183
PRECURSORTYPE: [M+FA-H]-
INSTRUMENTTYPE: LC-ESI-QTOF
SMILES: COC1C(CC2CN3CCC4=C(NC5=C4C=CC(OC)=C5)C3CC2C1C(=O)OC)OC(=O)C1=CC(OC)=C(OC)C(OC)=C1
INCHIKEY: QEVHRUUCFGRFIF-UHFFFAOYNA-N
Ontology: Yohimbine alkaloids
COLLISIONENERGY: 10
FORMULA: C33H40N2O9
RETENTIONTIME: 6.098567
IONMODE: Negative
Comment: registered in RIKEN PlaSMA
Num Peaks: 21
141.56532	9
208.19136	9
330.33597	7
362.49585	18
392.2619	11
401.05905	11
455.14224	7
534.38477	10
593.23407	7
606.94861	8
607.26434	1000
607.32092	7
608.26837	351
608.36115	7
609.271	88
609.30127	7
609.60071	7
621.23083	7
652.23413	7
653.26984	256
653.31903	7

NAME: Isoreserpin
PRECURSORMZ: 607.26610444783
PRECURSORTYPE: [M-H]-
INSTRUMENTTYPE: LC-ESI-QTOF
SMILES: COC1C(CC2CN3CCC4=C(NC5=C4C=CC(OC)=C5)C3CC2C1C(=O)OC)OC(=O)C1=CC(OC)=C(OC)C(OC)=C1
INCHIKEY: QEVHRUUCFGRFIF-UHFFFAOYNA-N
Ontology: Yohimbine alkaloids
COLLISIONENERGY: 30
FORMULA: C33H40N2O9
RETENTIONTIME: 6.098567
IONMODE: Negative
Comment: registered in RIKEN PlaSMA
Num Peaks: 61
81.0377	15
131.0215	15
137.02481	121
138.02769	12
151.03717	12
167.07317	72
181.01431	296
181.02071	119
182.01776	42
183.01898	12
196.0361	23
197.05057	12
198.04584	10
211.04762	23
211.06207	248
212.06607	15
212.08304	11
213.06125	13
267.49527	15
274.08398	10
288.54138	10
306.129	10
334.18033	10
338.48984	13
380.17899	57
395.19095	11
395.20486	14
396.19925	10
405.12915	21
405.14563	10
420.16711	10
426.00238	15
442.18912	10
469.14731	14
469.17395	10
473.20352	14
513.17548	11
525.2016	10
528.20874	12
533.22748	11
562.20563	10
563.2489	10
575.21887	16
577.21716	322
578.21985	83
578.24463	40
579.22083	10
591.23944	23
592.12793	12
592.24304	1000
593.07269	13
593.20258	11
593.22717	68
593.25037	179
593.28149	22
593.31128	12
594.23901	41
594.26208	29
607.24103	21
607.26166	38
607.28784	45

NAME: Isoreserpin
PRECURSORMZ: 653.27158375183
PRECURSORTYPE: [M+FA-H]-
INSTRUMENTTYPE: LC-ESI-QTOF
SMILES: COC1C(CC2CN3CCC4=C(NC5=C4C=CC(OC)=C5)C3CC2C1C(=O)OC)OC(=O)C1=CC(OC)=C(OC)C(OC)=C1
INCHIKEY: QEVHRUUCFGRFIF-UHFFFAOYNA-N
Ontology: Yohimbine alkaloids
COLLISIONENERGY: 30
FORMULA: C33H40N2O9
RETENTIONTIME: 6.098567
IONMODE: Negative
Comment: registered in RIKEN PlaSMA
Num Peaks: 39
137.02673	51
149.94633	26
181.00533	47
181.01532	116
181.02917	23
182.02007	25
195.06621	27
196.03983	21
197.07211	21
198.07629	19
211.06067	45
276.51797	21
363.17941	33
364.15945	20
396.19534	30
397.18793	19
405.13757	20
413.90402	25
418.14465	26
543.22552	21
577.21069	21
577.90802	19
578.22418	47
579.93323	35
592.24335	1000
592.31604	19
593.09515	20
593.20599	19
593.25476	366
594.08185	19
594.22955	27
594.25037	41
595.2417	21
597.22284	20
607.26947	852
608.24274	32
608.26379	128
608.29681	49
609.2818	41

NAME: Isoreserpin
PRECURSORMZ: 607.26610444783
PRECURSORTYPE: [M-H]-
INSTRUMENTTYPE: LC-ESI-QTOF
SMILES: COC1C(CC2CN3CCC4=C(NC5=C4C=CC(OC)=C5)C3CC2C1C(=O)OC)OC(=O)C1=CC(OC)=C(OC)C(OC)=C1
INCHIKEY: QEVHRUUCFGRFIF-UHFFFAOYNA-N
Ontology: Yohimbine alkaloids
COLLISIONENERGY: 50
FORMULA: C33H40N2O9
RETENTIONTIME: 6.098567
IONMODE: Negative
Comment: registered in RIKEN PlaSMA
Num Peaks: 79
66.01398	24
108.01467	17
110.24825	18
120.99307	17
121.02689	19
122.00083	66
123.00662	95
137.02551	189
137.05872	20
137.06581	34
137.99075	18
138.01477	18
138.02707	76
138.03569	30
139.00037	60
151.04262	17
152.04774	238
153.05109	54
155.77103	26
157.05009	35
166.99893	17
167.07132	1000
167.99875	40
168.01088	45
168.0687	44
168.07774	24
170.0625	48
171.05553	17
171.07112	18
173.64793	17
181.01067	37
181.02089	42
182.0228	86
182.05379	23
183.05876	26
184.02869	17
195.02956	17
196.0367	72
197.04861	17
197.06412	21
198.04156	24
198.07513	17
211.05035	57
211.05872	157
211.06924	192
212.05856	15
212.06721	24
212.3557	17
213.79178	33
223.08685	38
224.05304	20
233.06093	17
237.09967	23
242.08357	17
249.08784	19
251.11411	18
261.04855	23
263.12283	22
264.09653	25
289.12369	19
291.13931	17
300.08722	18
305.13702	17
315.10794	17
333.12314	84
347.14343	53
349.15152	34
350.10312	25
350.16022	36
350.17398	26
357.19525	25
365.13516	46
365.15396	21
379.17236	18
417.22745	22
429.23508	17
458.17392	22
560.17188	22
561.17816	17

NAME: Isoreserpin
PRECURSORMZ: 653.27158375183
PRECURSORTYPE: [M+FA-H]-
INSTRUMENTTYPE: LC-ESI-QTOF
SMILES: COC1C(CC2CN3CCC4=C(NC5=C4C=CC(OC)=C5)C3CC2C1C(=O)OC)OC(=O)C1=CC(OC)=C(OC)C(OC)=C1
INCHIKEY: QEVHRUUCFGRFIF-UHFFFAOYNA-N
Ontology: Yohimbine alkaloids
COLLISIONENERGY: 50
FORMULA: C33H40N2O9
RETENTIONTIME: 6.098567
IONMODE: Negative
Comment: registered in RIKEN PlaSMA
Num Peaks: 45
137.02325	539
137.99089	46
138.00311	53
138.0352	57
138.99843	42
152.04269	102
152.05034	199
153.04675	49
162.02225	44
167.06288	141
167.07253	472
167.99942	55
168.07295	49
169.0155	44
171.07089	46
181.01152	42
181.02249	46
182.04913	44
183.05309	82
184.06401	55
196.03561	117
197.04256	55
197.06662	42
209.04138	53
211.05995	1000
212.06558	102
213.06166	42
307.14612	53
333.12958	139
345.13229	44
366.20959	40
380.18411	53
381.16733	42
391.10898	42
392.13867	49
445.2016	86
562.19775	49
563.18903	42
563.21039	55
576.19336	46
578.20599	53
578.23566	49
592.21307	40
592.26227	66
593.68109	44

NAME: Harmane
PRECURSORMZ: 181.07712184783
PRECURSORTYPE: [M-H]-
INSTRUMENTTYPE: LC-ESI-QTOF
SMILES: CC1=C2NC3=CC=CC=C3C2=CC=N1
INCHIKEY: PSFDQSOCUJVVGF-UHFFFAOYSA-N
Ontology: Harmala alkaloids
COLLISIONENERGY: 10
FORMULA: C12H10N2
RETENTIONTIME: 3.68895
IONMODE: Negative
Comment: registered in RIKEN PlaSMA
Num Peaks: 3
165.04039	21
180.07468	19
181.07526	1000

NAME: Thalsimidine
PRECURSORMZ: 621.26062514783
PRECURSORTYPE: [M-H]-
INSTRUMENTTYPE: LC-ESI-QTOF
SMILES: COC1=C2OC3=CC=C(CC4=NCCC5=CC(OC)=C(OC6=C(OC)C(OC)=C(O)C7=C6C(CC(C=C1)=C2)N(C)CC7)C=C45)C=C3
INCHIKEY: CLDCTFPNFRITPI-UHFFFAOYNA-N
Ontology: Lignans, neolignans and related compounds
COLLISIONENERGY: 10
FORMULA: C37H38N2O7
RETENTIONTIME: 3.947033
IONMODE: Negative
Comment: registered in RIKEN PlaSMA
Num Peaks: 53
177.02567	20
180.04573	29
189.03635	35
189.04559	23
204.03149	24
205.03587	36
207.0634	19
219.05664	18
220.05049	27
220.06496	22
267.11374	20
300.09052	22
342.13297	18
355.1564	20
356.13437	21
371.15472	18
419.03641	19
442.64719	24
503.22949	26
511.17767	19
514.16473	24
528.16931	28
541.19006	42
542.20056	20
543.18182	18
544.1792	32
545.18964	22
545.21387	22
557.19604	21
557.22076	21
557.37213	26
559.17938	46
561.15015	27
574.22968	26
575.20459	37
575.22131	126
576.18939	21
576.22772	18
577.19983	41
589.24329	20
591.19635	62
591.22418	87
591.26184	23
592.21844	24
592.24158	18
605.29846	24
606.20831	20
606.24731	52
607.20966	18
607.23846	20
608.23328	32
621.2608	1000
621.2948	54

NAME: Harmane
PRECURSORMZ: 181.07712184783
PRECURSORTYPE: [M-H]-
INSTRUMENTTYPE: LC-ESI-QTOF
SMILES: CC1=C2NC3=CC=CC=C3C2=CC=N1
INCHIKEY: PSFDQSOCUJVVGF-UHFFFAOYSA-N
Ontology: Harmala alkaloids
COLLISIONENERGY: 10
FORMULA: C12H10N2
RETENTIONTIME: 3.68895
IONMODE: Negative
Comment: registered in RIKEN PlaSMA
Num Peaks: 2
179.0901	19
181.07703	1000

NAME: Thalsimidine
PRECURSORMZ: 621.26062514783
PRECURSORTYPE: [M-H]-
INSTRUMENTTYPE: LC-ESI-QTOF
SMILES: COC1=C2OC3=CC=C(CC4=NCCC5=CC(OC)=C(OC6=C(OC)C(OC)=C(O)C7=C6C(CC(C=C1)=C2)N(C)CC7)C=C45)C=C3
INCHIKEY: CLDCTFPNFRITPI-UHFFFAOYNA-N
Ontology: Lignans, neolignans and related compounds
COLLISIONENERGY: 10
FORMULA: C37H38N2O7
RETENTIONTIME: 3.947033
IONMODE: Negative
Comment: registered in RIKEN PlaSMA
Num Peaks: 7
317.22098	9
365.56396	10
472.60016	12
534.2431	7
588.92169	8
593.6532	8
621.26044	1000

NAME: Harmane
PRECURSORMZ: 181.07712184783
PRECURSORTYPE: [M-H]-
INSTRUMENTTYPE: LC-ESI-QTOF
SMILES: CC1=C2NC3=CC=CC=C3C2=CC=N1
INCHIKEY: PSFDQSOCUJVVGF-UHFFFAOYSA-N
Ontology: Harmala alkaloids
COLLISIONENERGY: 30
FORMULA: C12H10N2
RETENTIONTIME: 3.68895
IONMODE: Negative
Comment: registered in RIKEN PlaSMA
Num Peaks: 3
165.04366	1000
172.60231	186
181.07825	667

NAME: Thalsimidine
PRECURSORMZ: 621.26062514783
PRECURSORTYPE: [M-H]-
INSTRUMENTTYPE: LC-ESI-QTOF
SMILES: COC1=C2OC3=CC=C(CC4=NCCC5=CC(OC)=C(OC6=C(OC)C(OC)=C(O)C7=C6C(CC(C=C1)=C2)N(C)CC7)C=C45)C=C3
INCHIKEY: CLDCTFPNFRITPI-UHFFFAOYNA-N
Ontology: Lignans, neolignans and related compounds
COLLISIONENERGY: 30
FORMULA: C37H38N2O7
RETENTIONTIME: 3.947033
IONMODE: Negative
Comment: registered in RIKEN PlaSMA
Num Peaks: 56
172.04024	85
191.02452	90
204.03494	135
207.04141	81
207.05418	90
217.57735	94
219.05417	399
220.0583	448
221.05644	85
221.06836	179
234.0742	81
235.10352	112
237.0872	206
318.08908	90
358.16324	81
371.15924	81
372.15448	112
385.12335	103
385.39185	135
386.18872	112
441.19135	90
475.16287	85
515.20703	90
517.79779	90
525.19238	206
526.13715	99
526.17279	197
527.18774	278
529.16949	85
530.19708	85
543.17517	112
544.18774	81
545.20197	202
545.2171	112
559.19318	90
559.22601	179
561.19153	170
562.17261	94
562.21082	90
574.19104	121
574.21564	179
575.20111	381
575.24799	99
576.2149	314
576.2337	135
576.80157	148
577.2348	211
589.99231	99
591.21228	1000
592.2052	395
592.23096	103
592.25098	103
606.22919	108
606.25385	90
608.24548	94
621.25446	390

NAME: Harmane
PRECURSORMZ: 181.07712184783
PRECURSORTYPE: [M-H]-
INSTRUMENTTYPE: LC-ESI-QTOF
SMILES: CC1=C2NC3=CC=CC=C3C2=CC=N1
INCHIKEY: PSFDQSOCUJVVGF-UHFFFAOYSA-N
Ontology: Harmala alkaloids
COLLISIONENERGY: 50
FORMULA: C12H10N2
RETENTIONTIME: 3.68895
IONMODE: Negative
Comment: registered in RIKEN PlaSMA
Num Peaks: 1
165.04562	1000

NAME: Thalsimidine
PRECURSORMZ: 621.26062514783
PRECURSORTYPE: [M-H]-
INSTRUMENTTYPE: LC-ESI-QTOF
SMILES: COC1=C2OC3=CC=C(CC4=NCCC5=CC(OC)=C(OC6=C(OC)C(OC)=C(O)C7=C6C(CC(C=C1)=C2)N(C)CC7)C=C45)C=C3
INCHIKEY: CLDCTFPNFRITPI-UHFFFAOYNA-N
Ontology: Lignans, neolignans and related compounds
COLLISIONENERGY: 50
FORMULA: C37H38N2O7
RETENTIONTIME: 3.947033
IONMODE: Negative
Comment: registered in RIKEN PlaSMA
Num Peaks: 37
122.03813	255
137.02168	166
149.02362	131
150.02878	124
160.03516	179
162.01678	166
176.00903	131
179.02812	297
188.03777	145
190.01399	297
192.03247	131
205.03996	1000
206.04251	159
207.04997	228
218.04803	159
220.05917	283
234.09631	124
264.06015	159
293.06586	152
314.06799	124
355.10272	234
372.15793	124
378.1442	166
445.16971	145
458.1514	138
473.17136	145
497.11737	138
505.18637	124
511.12091	145
516.15778	131
526.16254	207
528.15869	179
528.17706	138
529.17126	138
530.17554	269
544.20032	159
561.17346	131

NAME: Harmane
PRECURSORMZ: 181.07712184783
PRECURSORTYPE: [M-H]-
INSTRUMENTTYPE: LC-ESI-QTOF
SMILES: CC1=C2NC3=CC=CC=C3C2=CC=N1
INCHIKEY: PSFDQSOCUJVVGF-UHFFFAOYSA-N
Ontology: Harmala alkaloids
COLLISIONENERGY: 10
FORMULA: C12H10N2
RETENTIONTIME: 3.68895
IONMODE: Negative
Comment: registered in RIKEN PlaSMA
Num Peaks: 4
159.58739	20
165.04021	20
180.06485	41
181.07605	1000

NAME: Thalsimidine
PRECURSORMZ: 621.26062514783
PRECURSORTYPE: [M-H]-
INSTRUMENTTYPE: LC-ESI-QTOF
SMILES: COC1=C2OC3=CC=C(CC4=NCCC5=CC(OC)=C(OC6=C(OC)C(OC)=C(O)C7=C6C(CC(C=C1)=C2)N(C)CC7)C=C45)C=C3
INCHIKEY: CLDCTFPNFRITPI-UHFFFAOYNA-N
Ontology: Lignans, neolignans and related compounds
COLLISIONENERGY: 10
FORMULA: C37H38N2O7
RETENTIONTIME: 3.947033
IONMODE: Negative
Comment: registered in RIKEN PlaSMA
Num Peaks: 58
96.88972	20
133.05367	13
178.01289	15
190.01614	22
191.02789	12
204.02919	51
205.03841	31
207.05064	15
219.05888	30
220.05241	14
220.06169	27
220.07069	14
233.57175	23
367.35144	12
370.10361	13
386.17001	14
387.19162	14
486.20917	23
488.14737	13
503.24158	17
510.1496	12
525.1922	13
527.16815	14
529.17236	16
529.1994	15
544.06555	19
545.20416	18
546.18604	14
550.18213	16
556.22565	12
559.1817	52
559.1972	34
560.00885	13
560.1817	17
561.16571	26
561.19214	14
561.24066	15
562.1922	16
562.22137	13
563.19324	14
573.21918	14
574.19836	18
575.21313	12
576.2027	12
576.229	28
576.90863	16
579.21558	14
591.21838	81
591.27271	12
592.18616	14
606.22327	36
606.24493	106
606.97931	14
607.23608	65
608.24292	14
609.24036	32
621.25696	1000
621.30438	31

NAME: Harmane
PRECURSORMZ: 181.07712184783
PRECURSORTYPE: [M-H]-
INSTRUMENTTYPE: LC-ESI-QTOF
SMILES: CC1=C2NC3=CC=CC=C3C2=CC=N1
INCHIKEY: PSFDQSOCUJVVGF-UHFFFAOYSA-N
Ontology: Harmala alkaloids
COLLISIONENERGY: 10
FORMULA: C12H10N2
RETENTIONTIME: 3.68895
IONMODE: Negative
Comment: registered in RIKEN PlaSMA
Num Peaks: 5
53.38074	9
78.42664	13
162.93541	7
181.07695	1000
181.23792	7

NAME: Thalsimidine
PRECURSORMZ: 621.26062514783
PRECURSORTYPE: [M-H]-
INSTRUMENTTYPE: LC-ESI-QTOF
SMILES: COC1=C2OC3=CC=C(CC4=NCCC5=CC(OC)=C(OC6=C(OC)C(OC)=C(O)C7=C6C(CC(C=C1)=C2)N(C)CC7)C=C45)C=C3
INCHIKEY: CLDCTFPNFRITPI-UHFFFAOYNA-N
Ontology: Lignans, neolignans and related compounds
COLLISIONENERGY: 10
FORMULA: C37H38N2O7
RETENTIONTIME: 3.947033
IONMODE: Negative
Comment: registered in RIKEN PlaSMA
Num Peaks: 12
152.26694	7
220.05811	6
336.49637	7
399.69131	7
407.30103	6
500.13507	7
581.54218	6
591.23358	6
606.24304	19
607.23999	6
621.19098	7
621.25964	1000

NAME: Harmane
PRECURSORMZ: 181.07712184783
PRECURSORTYPE: [M-H]-
INSTRUMENTTYPE: LC-ESI-QTOF
SMILES: CC1=C2NC3=CC=CC=C3C2=CC=N1
INCHIKEY: PSFDQSOCUJVVGF-UHFFFAOYSA-N
Ontology: Harmala alkaloids
COLLISIONENERGY: 30
FORMULA: C12H10N2
RETENTIONTIME: 3.68895
IONMODE: Negative
Comment: registered in RIKEN PlaSMA
Num Peaks: 6
165.04337	245
165.04974	179
167.06567	170
180.06812	1000
181.06877	170
181.08228	849

NAME: Thalsimidine
PRECURSORMZ: 621.26062514783
PRECURSORTYPE: [M-H]-
INSTRUMENTTYPE: LC-ESI-QTOF
SMILES: COC1=C2OC3=CC=C(CC4=NCCC5=CC(OC)=C(OC6=C(OC)C(OC)=C(O)C7=C6C(CC(C=C1)=C2)N(C)CC7)C=C45)C=C3
INCHIKEY: CLDCTFPNFRITPI-UHFFFAOYNA-N
Ontology: Lignans, neolignans and related compounds
COLLISIONENERGY: 30
FORMULA: C37H38N2O7
RETENTIONTIME: 3.947033
IONMODE: Negative
Comment: registered in RIKEN PlaSMA
Num Peaks: 83
174.02133	38
189.01523	68
190.0457	36
191.05862	38
204.02382	76
204.03474	36
204.07349	52
205.04147	124
205.05415	36
207.058	86
208.0757	46
212.07234	54
219.0453	56
219.05415	86
220.05469	317
220.0659	271
227.10332	68
234.07295	36
235.08765	145
266.1196	36
317.09329	48
371.12671	40
384.13086	46
386.16577	151
399.14636	76
435.17755	36
461.84125	52
467.16	36
484.17334	36
500.16138	54
503.16681	36
508.1806	50
512.15668	36
513.59515	42
515.17395	36
517.16254	40
518.19281	38
526.1781	46
526.19928	48
527.16125	100
528.1532	38
529.17297	40
529.18951	46
530.17975	40
530.21704	44
533.17389	42
542.19067	102
543.19086	42
544.1698	46
544.19385	127
544.22717	56
546.20715	84
547.20789	40
548.16406	60
559.17725	355
559.19489	74
560.16113	94
560.19708	187
561.20056	36
562.22601	40
563.18884	44
573.21216	44
574.21381	80
575.21527	496
575.24438	40
576.20618	135
576.23077	118
577.21454	84
577.25153	42
588.21436	42
591.21155	1000
592.21436	185
592.23291	187
593.21539	40
593.23102	54
605.23975	46
606.24249	406
606.26874	50
607.21405	40
607.23651	48
609.26776	38
610.24902	38
621.2605	74

NAME: Harmane
PRECURSORMZ: 181.07712184783
PRECURSORTYPE: [M-H]-
INSTRUMENTTYPE: LC-ESI-QTOF
SMILES: CC1=C2NC3=CC=CC=C3C2=CC=N1
INCHIKEY: PSFDQSOCUJVVGF-UHFFFAOYSA-N
Ontology: Harmala alkaloids
COLLISIONENERGY: 50
FORMULA: C12H10N2
RETENTIONTIME: 3.68895
IONMODE: Negative
Comment: registered in RIKEN PlaSMA
Num Peaks: 1
153.06424	1000

NAME: Thalsimidine
PRECURSORMZ: 621.26062514783
PRECURSORTYPE: [M-H]-
INSTRUMENTTYPE: LC-ESI-QTOF
SMILES: COC1=C2OC3=CC=C(CC4=NCCC5=CC(OC)=C(OC6=C(OC)C(OC)=C(O)C7=C6C(CC(C=C1)=C2)N(C)CC7)C=C45)C=C3
INCHIKEY: CLDCTFPNFRITPI-UHFFFAOYNA-N
Ontology: Lignans, neolignans and related compounds
COLLISIONENERGY: 50
FORMULA: C37H38N2O7
RETENTIONTIME: 3.947033
IONMODE: Negative
Comment: registered in RIKEN PlaSMA
Num Peaks: 92
121.05463	55
123.03986	47
131.03793	68
142.7108	50
145.02777	55
149.04649	55
160.0434	113
161.01059	52
162.01657	115
172.04501	65
174.02055	113
174.05806	97
175.99637	71
176.0162	183
177.01044	52
178.03693	55
179.02216	58
181.03001	76
188.03426	52
190.01352	120
191.02095	105
191.03514	50
192.0378	47
193.019	58
204.03419	280
205.03909	1000
206.03711	107
206.0502	94
207.04976	204
207.05832	60
208.05737	47
220.05748	81
220.06595	105
221.06401	160
235.10464	52
265.33456	60
276.08914	47
286.08295	63
289.08273	52
340.09338	47
353.13354	50
354.11316	47
356.12759	52
357.13968	47
358.09338	65
372.1228	86
372.16089	47
376.08228	60
386.10165	47
386.1394	126
386.15393	58
387.15482	217
409.14291	63
433.16321	47
439.11298	94
444.1655	73
455.14606	71
472.16544	52
473.14264	65
488.19833	52
489.16388	73
491.15781	52
497.15469	50
500.10141	60
501.24304	52
502.1362	58
505.1528	47
511.11746	55
512.13446	120
513.1319	110
513.1687	86
513.44415	52
515.13416	47
517.17065	86
526.16467	63
527.17975	47
528.185	183
529.16339	94
529.28522	52
530.16809	47
530.18579	65
531.16284	63
531.19592	113
533.19568	55
541.1275	50
544.16254	97
545.17432	128
547.16278	63
575.17712	60
576.23279	47
591.19781	47
591.21277	71

NAME: Harmane
PRECURSORMZ: 181.07712184783
PRECURSORTYPE: [M-H]-
INSTRUMENTTYPE: LC-ESI-QTOF
SMILES: CC1=C2NC3=CC=CC=C3C2=CC=N1
INCHIKEY: PSFDQSOCUJVVGF-UHFFFAOYSA-N
Ontology: Harmala alkaloids
COLLISIONENERGY: 10
FORMULA: C12H10N2
RETENTIONTIME: 3.68895
IONMODE: Negative
Comment: registered in RIKEN PlaSMA
Num Peaks: 6
92.90034	33
165.04433	55
166.05179	35
180.07143	42
180.83684	20
181.0769	1000

NAME: Thalsimidine
PRECURSORMZ: 621.26062514783
PRECURSORTYPE: [M-H]-
INSTRUMENTTYPE: LC-ESI-QTOF
SMILES: COC1=C2OC3=CC=C(CC4=NCCC5=CC(OC)=C(OC6=C(OC)C(OC)=C(O)C7=C6C(CC(C=C1)=C2)N(C)CC7)C=C45)C=C3
INCHIKEY: CLDCTFPNFRITPI-UHFFFAOYNA-N
Ontology: Lignans, neolignans and related compounds
COLLISIONENERGY: 10
FORMULA: C37H38N2O7
RETENTIONTIME: 3.947033
IONMODE: Negative
Comment: registered in RIKEN PlaSMA
Num Peaks: 51
136.0575	12
169.03387	13
176.02953	12
204.02586	13
204.03465	18
205.04305	22
219.04919	13
220.05991	37
221.06525	24
222.06758	12
222.08385	16
235.08731	17
236.08363	14
371.16925	12
458.12869	23
473.1395	13
474.18265	13
487.14749	12
488.19525	17
516.16187	13
528.19122	13
543.19781	13
544.21283	23
544.23151	16
546.19598	13
559.19476	24
560.18951	26
561.17596	14
563.20569	19
564.20874	17
566.06946	13
574.22107	56
575.22754	45
576.21985	13
576.26984	18
578.17102	26
589.25085	18
590.22626	13
590.25293	17
591.22302	88
592.20685	39
593.25836	16
606.23596	75
606.25519	78
606.28821	15
607.24567	75
608.25757	12
609.0849	13
615.16364	17
621.26239	1000
621.31018	12

NAME: Harmane
PRECURSORMZ: 181.07712184783
PRECURSORTYPE: [M-H]-
INSTRUMENTTYPE: LC-ESI-QTOF
SMILES: CC1=C2NC3=CC=CC=C3C2=CC=N1
INCHIKEY: PSFDQSOCUJVVGF-UHFFFAOYSA-N
Ontology: Harmala alkaloids
COLLISIONENERGY: 10
FORMULA: C12H10N2
RETENTIONTIME: 3.68895
IONMODE: Negative
Comment: registered in RIKEN PlaSMA
Num Peaks: 3
136.9064	7
180.06737	6
181.07582	1000

NAME: Thalsimidine
PRECURSORMZ: 621.26062514783
PRECURSORTYPE: [M-H]-
INSTRUMENTTYPE: LC-ESI-QTOF
SMILES: COC1=C2OC3=CC=C(CC4=NCCC5=CC(OC)=C(OC6=C(OC)C(OC)=C(O)C7=C6C(CC(C=C1)=C2)N(C)CC7)C=C45)C=C3
INCHIKEY: CLDCTFPNFRITPI-UHFFFAOYNA-N
Ontology: Lignans, neolignans and related compounds
COLLISIONENERGY: 10
FORMULA: C37H38N2O7
RETENTIONTIME: 3.947033
IONMODE: Negative
Comment: registered in RIKEN PlaSMA
Num Peaks: 6
88.93417	6
183.66855	8
318.28601	6
563.18158	6
606.23407	19
621.26154	1000

NAME: Harmane
PRECURSORMZ: 181.07712184783
PRECURSORTYPE: [M-H]-
INSTRUMENTTYPE: LC-ESI-QTOF
SMILES: CC1=C2NC3=CC=CC=C3C2=CC=N1
INCHIKEY: PSFDQSOCUJVVGF-UHFFFAOYSA-N
Ontology: Harmala alkaloids
COLLISIONENERGY: 30
FORMULA: C12H10N2
RETENTIONTIME: 3.68895
IONMODE: Negative
Comment: registered in RIKEN PlaSMA
Num Peaks: 5
154.05562	186
164.05103	216
165.04762	1000
180.07133	423
181.08151	186

NAME: Thalsimidine
PRECURSORMZ: 621.26062514783
PRECURSORTYPE: [M-H]-
INSTRUMENTTYPE: LC-ESI-QTOF
SMILES: COC1=C2OC3=CC=C(CC4=NCCC5=CC(OC)=C(OC6=C(OC)C(OC)=C(O)C7=C6C(CC(C=C1)=C2)N(C)CC7)C=C45)C=C3
INCHIKEY: CLDCTFPNFRITPI-UHFFFAOYNA-N
Ontology: Lignans, neolignans and related compounds
COLLISIONENERGY: 30
FORMULA: C37H38N2O7
RETENTIONTIME: 3.947033
IONMODE: Negative
Comment: registered in RIKEN PlaSMA
Num Peaks: 70
146.02444	88
176.01212	53
204.02081	45
205.04613	108
206.04604	60
206.82428	55
219.05115	63
219.06068	48
220.06268	692
221.06609	50
236.10854	50
315.12625	65
318.10593	65
328.77899	53
341.13077	45
341.66708	58
347.44754	45
371.1564	113
386.17719	100
402.17435	70
403.16028	45
439.93436	50
488.15671	45
500.16409	123
511.12961	50
511.16129	118
511.18359	45
512.14801	50
516.19305	53
525.19983	45
527.1886	90
528.18726	68
529.17975	48
530.16357	58
543.18555	115
544.19104	103
544.20667	271
545.20459	50
546.1983	68
547.18024	45
547.21185	105
548.21454	68
557.20526	103
559.17957	63
559.19818	155
560.15369	48
560.18488	318
560.20648	190
561.17175	50
561.2016	253
562.20496	58
563.18311	53
574.21234	100
575.21411	674
576.18848	45
576.21527	351
577.15161	48
577.18634	100
578.21857	58
580.95825	53
591.20715	1000
592.2135	321
593.22076	100
598.87524	45
606.21008	95
606.24225	439
607.26239	60
608.21674	50
608.23999	103
621.26526	60

NAME: Harmane
PRECURSORMZ: 181.07712184783
PRECURSORTYPE: [M-H]-
INSTRUMENTTYPE: LC-ESI-QTOF
SMILES: CC1=C2NC3=CC=CC=C3C2=CC=N1
INCHIKEY: PSFDQSOCUJVVGF-UHFFFAOYSA-N
Ontology: Harmala alkaloids
COLLISIONENERGY: 50
FORMULA: C12H10N2
RETENTIONTIME: 3.68895
IONMODE: Negative
Comment: registered in RIKEN PlaSMA
Num Peaks: 2
59.7923	514
165.05312	1000

NAME: Thalsimidine
PRECURSORMZ: 621.26062514783
PRECURSORTYPE: [M-H]-
INSTRUMENTTYPE: LC-ESI-QTOF
SMILES: COC1=C2OC3=CC=C(CC4=NCCC5=CC(OC)=C(OC6=C(OC)C(OC)=C(O)C7=C6C(CC(C=C1)=C2)N(C)CC7)C=C45)C=C3
INCHIKEY: CLDCTFPNFRITPI-UHFFFAOYNA-N
Ontology: Lignans, neolignans and related compounds
COLLISIONENERGY: 50
FORMULA: C37H38N2O7
RETENTIONTIME: 3.947033
IONMODE: Negative
Comment: registered in RIKEN PlaSMA
Num Peaks: 107
66.78394	71
92.04837	75
117.01651	97
118.02374	67
122.02987	71
143.04146	120
146.07143	75
149.04901	105
161.04752	67
162.02141	184
172.04039	139
174.02124	333
176.03052	146
188.02902	67
189.00121	202
189.00818	90
190.01695	727
190.02228	247
191.02306	82
191.0316	67
191.05284	90
192.02519	213
192.03812	75
192.04922	82
193.07741	67
204.02792	783
205.03163	599
205.03975	1000
206.0452	172
207.06293	90
210.07068	67
220.06317	191
221.07167	169
236.10077	82
260.06216	82
267.33679	67
279.15005	94
287.04413	75
287.06479	90
289.08823	101
294.03799	82
313.07935	79
356.12503	150
366.11505	67
366.15955	67
369.09207	82
378.5676	71
381.11774	67
389.09332	71
389.14178	75
396.12119	75
409.14456	67
416.13177	75
419.03656	75
419.09711	71
423.11057	79
424.10977	67
424.16763	82
431.15918	187
438.1601	75
446.16077	127
447.1532	67
449.20322	105
453.14764	94
459.15799	120
459.17834	82
464.1452	281
471.17538	67
473.15424	67
485.19174	82
487.17877	75
490.17868	75
494.14334	82
497.39651	79
499.14642	169
501.12512	75
501.14377	82
502.11411	75
502.19302	101
503.11368	79
510.11502	67
512.14441	71
512.24628	90
513.1601	75
514.15143	150
515.16022	67
517.14429	71
517.1908	71
518.18036	67
519.17719	86
528.16736	71
529.12238	86
529.15405	90
529.16931	273
531.19293	180
541.18439	67
543.1192	71
543.20758	75
544.15234	67
545.19916	79
557.15253	75
558.16345	79
560.20526	105
561.16718	75
563.16748	67
576.21661	94
591.19672	75

NAME: Boldine
PRECURSORMZ: 326.13978174783
PRECURSORTYPE: [M-H]-
INSTRUMENTTYPE: LC-ESI-QTOF
SMILES: COC1=C(O)C=C2CC3N(C)CCC4=CC(O)=C(OC)C(C2=C1)=C34
INCHIKEY: LZJRNLRASBVRRX-UHFFFAOYNA-N
Ontology: Aporphines
COLLISIONENERGY: 10
FORMULA: C19H21NO4
RETENTIONTIME: 3.359967
IONMODE: Negative
Comment: registered in RIKEN PlaSMA
Num Peaks: 19
171.08012	179
225.0526	199
227.06377	95
253.04303	100
253.06334	90
268.09445	706
269.09937	95
278.04422	90
278.07791	100
282.07455	104
296.08371	413
296.10077	85
297.10736	114
298.1012	90
311.11716	1000
312.1145	194
313.10339	90
326.13947	279
326.16049	100

NAME: Boldine
PRECURSORMZ: 326.13978174783
PRECURSORTYPE: [M-H]-
INSTRUMENTTYPE: LC-ESI-QTOF
SMILES: COC1=C(O)C=C2CC3N(C)CCC4=CC(O)=C(OC)C(C2=C1)=C34
INCHIKEY: LZJRNLRASBVRRX-UHFFFAOYNA-N
Ontology: Aporphines
COLLISIONENERGY: 10
FORMULA: C19H21NO4
RETENTIONTIME: 3.359967
IONMODE: Negative
Comment: registered in RIKEN PlaSMA
Num Peaks: 9
278.05255	23
296.08542	44
296.10474	54
311.11401	1000
312.1145	186
312.12924	39
320.47928	30
325.14691	33
326.13934	652

NAME: Boldine
PRECURSORMZ: 326.13978174783
PRECURSORTYPE: [M-H]-
INSTRUMENTTYPE: LC-ESI-QTOF
SMILES: COC1=C(O)C=C2CC3N(C)CCC4=CC(O)=C(OC)C(C2=C1)=C34
INCHIKEY: LZJRNLRASBVRRX-UHFFFAOYNA-N
Ontology: Aporphines
COLLISIONENERGY: 30
FORMULA: C19H21NO4
RETENTIONTIME: 3.359967
IONMODE: Negative
Comment: registered in RIKEN PlaSMA
Num Peaks: 26
122.72596	66
167.05363	113
183.05046	95
210.05907	77
224.05168	73
225.04607	73
225.0549	157
227.02864	84
238.06769	73
239.07593	66
251.03073	66
252.02406	77
252.05174	88
252.89639	69
253.043	69
253.05388	270
253.07243	73
267.06766	80
268.08179	153
268.09314	245
268.1062	164
269.1059	69
296.0954	1000
296.10883	106
297.09167	226
297.10568	95

NAME: Boldine
PRECURSORMZ: 326.13978174783
PRECURSORTYPE: [M-H]-
INSTRUMENTTYPE: LC-ESI-QTOF
SMILES: COC1=C(O)C=C2CC3N(C)CCC4=CC(O)=C(OC)C(C2=C1)=C34
INCHIKEY: LZJRNLRASBVRRX-UHFFFAOYNA-N
Ontology: Aporphines
COLLISIONENERGY: 50
FORMULA: C19H21NO4
RETENTIONTIME: 3.359967
IONMODE: Negative
Comment: registered in RIKEN PlaSMA
Num Peaks: 10
156.05881	206
169.05705	196
169.06795	536
197.05334	330
197.06059	1000
223.04263	196
224.04076	196
225.05396	196
252.07449	196
253.0562	258

NAME: Boldine
PRECURSORMZ: 326.13978174783
PRECURSORTYPE: [M-H]-
INSTRUMENTTYPE: LC-ESI-QTOF
SMILES: COC1=C(O)C=C2CC3N(C)CCC4=CC(O)=C(OC)C(C2=C1)=C34
INCHIKEY: LZJRNLRASBVRRX-UHFFFAOYNA-N
Ontology: Aporphines
COLLISIONENERGY: 10
FORMULA: C19H21NO4
RETENTIONTIME: 3.359967
IONMODE: Negative
Comment: registered in RIKEN PlaSMA
Num Peaks: 20
197.05287	55
213.05994	50
223.03432	69
224.04613	52
225.05717	69
252.05939	50
253.05615	52
254.05287	55
265.04602	55
267.06088	61
268.0705	69
268.10593	55
281.07031	91
296.09729	757
297.09161	110
311.11615	1000
312.10172	55
312.12405	50
326.13458	196
326.15369	58

NAME: Boldine
PRECURSORMZ: 326.13978174783
PRECURSORTYPE: [M-H]-
INSTRUMENTTYPE: LC-ESI-QTOF
SMILES: COC1=C(O)C=C2CC3N(C)CCC4=CC(O)=C(OC)C(C2=C1)=C34
INCHIKEY: LZJRNLRASBVRRX-UHFFFAOYNA-N
Ontology: Aporphines
COLLISIONENERGY: 10
FORMULA: C19H21NO4
RETENTIONTIME: 3.359967
IONMODE: Negative
Comment: registered in RIKEN PlaSMA
Num Peaks: 9
296.07806	40
310.10248	26
311.08472	26
311.11554	1000
312.12079	179
325.13388	23
326.10223	23
326.13794	404
326.15643	74

NAME: Boldine
PRECURSORMZ: 326.13978174783
PRECURSORTYPE: [M-H]-
INSTRUMENTTYPE: LC-ESI-QTOF
SMILES: COC1=C(O)C=C2CC3N(C)CCC4=CC(O)=C(OC)C(C2=C1)=C34
INCHIKEY: LZJRNLRASBVRRX-UHFFFAOYNA-N
Ontology: Aporphines
COLLISIONENERGY: 30
FORMULA: C19H21NO4
RETENTIONTIME: 3.359967
IONMODE: Negative
Comment: registered in RIKEN PlaSMA
Num Peaks: 13
198.06337	60
211.03978	77
224.05286	63
225.05754	237
252.03874	80
253.0471	254
254.05254	114
267.0665	131
268.0791	51
268.0965	409
296.09445	1000
296.36014	57
297.09024	146

NAME: Boldine
PRECURSORMZ: 326.13978174783
PRECURSORTYPE: [M-H]-
INSTRUMENTTYPE: LC-ESI-QTOF
SMILES: COC1=C(O)C=C2CC3N(C)CCC4=CC(O)=C(OC)C(C2=C1)=C34
INCHIKEY: LZJRNLRASBVRRX-UHFFFAOYNA-N
Ontology: Aporphines
COLLISIONENERGY: 50
FORMULA: C19H21NO4
RETENTIONTIME: 3.359967
IONMODE: Negative
Comment: registered in RIKEN PlaSMA
Num Peaks: 9
151.04988	191
169.0696	345
196.04878	164
197.06136	791
198.06813	173
199.07457	191
211.07475	182
224.04723	191
225.05937	1000

NAME: Boldine
PRECURSORMZ: 326.13978174783
PRECURSORTYPE: [M-H]-
INSTRUMENTTYPE: LC-ESI-QTOF
SMILES: COC1=C(O)C=C2CC3N(C)CCC4=CC(O)=C(OC)C(C2=C1)=C34
INCHIKEY: LZJRNLRASBVRRX-UHFFFAOYNA-N
Ontology: Aporphines
COLLISIONENERGY: 10
FORMULA: C19H21NO4
RETENTIONTIME: 3.359967
IONMODE: Negative
Comment: registered in RIKEN PlaSMA
Num Peaks: 24
180.05966	62
197.05864	133
197.06705	56
225.05765	120
239.06213	56
240.09776	77
245.92558	62
252.0627	56
253.05389	71
254.04948	59
254.06252	111
267.06805	179
268.09946	62
281.07327	151
296.07834	136
296.09113	364
297.07852	56
297.09488	117
298.10135	56
311.11902	1000
312.11618	198
326.13266	142
326.15002	336
326.16476	62

NAME: Boldine
PRECURSORMZ: 326.13978174783
PRECURSORTYPE: [M-H]-
INSTRUMENTTYPE: LC-ESI-QTOF
SMILES: COC1=C(O)C=C2CC3N(C)CCC4=CC(O)=C(OC)C(C2=C1)=C34
INCHIKEY: LZJRNLRASBVRRX-UHFFFAOYNA-N
Ontology: Aporphines
COLLISIONENERGY: 10
FORMULA: C19H21NO4
RETENTIONTIME: 3.359967
IONMODE: Negative
Comment: registered in RIKEN PlaSMA
Num Peaks: 10
160.56392	25
267.68466	25
296.07446	28
296.09161	25
311.11655	1000
311.14206	42
312.10626	30
312.12064	115
326.09488	42
326.13794	906

NAME: Boldine
PRECURSORMZ: 326.13978174783
PRECURSORTYPE: [M-H]-
INSTRUMENTTYPE: LC-ESI-QTOF
SMILES: COC1=C(O)C=C2CC3N(C)CCC4=CC(O)=C(OC)C(C2=C1)=C34
INCHIKEY: LZJRNLRASBVRRX-UHFFFAOYNA-N
Ontology: Aporphines
COLLISIONENERGY: 30
FORMULA: C19H21NO4
RETENTIONTIME: 3.359967
IONMODE: Negative
Comment: registered in RIKEN PlaSMA
Num Peaks: 27
129.53635	52
184.05438	56
197.06279	41
197.07161	45
224.04588	84
225.05478	390
225.06816	62
226.0509	43
247.37292	47
252.04678	45
252.06009	62
253.04912	91
253.0576	106
253.06947	43
254.0737	45
267.05035	43
267.07407	149
268.07733	43
268.09735	343
269.10236	101
269.11734	45
279.08289	52
281.05627	39
281.06638	65
296.09253	1000
297.10114	106
311.13	54

NAME: Boldine
PRECURSORMZ: 326.13978174783
PRECURSORTYPE: [M-H]-
INSTRUMENTTYPE: LC-ESI-QTOF
SMILES: COC1=C(O)C=C2CC3N(C)CCC4=CC(O)=C(OC)C(C2=C1)=C34
INCHIKEY: LZJRNLRASBVRRX-UHFFFAOYNA-N
Ontology: Aporphines
COLLISIONENERGY: 50
FORMULA: C19H21NO4
RETENTIONTIME: 3.359967
IONMODE: Negative
Comment: registered in RIKEN PlaSMA
Num Peaks: 15
154.0453	145
169.0574	120
183.04672	127
193.06317	151
195.04655	133
196.05196	554
197.05489	452
197.06529	90
198.05663	265
223.04047	367
224.03879	108
224.05215	139
225.0564	1000
235.05803	157
268.10455	151

NAME: Hetisine
PRECURSORMZ: 374.197296604
PRECURSORTYPE: [M+FA-H]-
INSTRUMENTTYPE: LC-ESI-QTOF
SMILES: CC12CN3C4CC56CC(=C)C7C(O)C5C3C(CC(O)C1)(C24)C6C7O
INCHIKEY: PIWJSAMCEMZIDO-UHFFFAOYNA-N
Ontology: Atisane diterpenoids
COLLISIONENERGY: 30
FORMULA: C20H27NO3
RETENTIONTIME: 3.0671
IONMODE: Negative
Comment: registered in RIKEN PlaSMA
Num Peaks: 1
310.19757	1000

NAME: Hetisine
PRECURSORMZ: 374.197296604
PRECURSORTYPE: [M+FA-H]-
INSTRUMENTTYPE: LC-ESI-QTOF
SMILES: CC12CN3C4CC56CC(=C)C7C(O)C5C3C(CC(O)C1)(C24)C6C7O
INCHIKEY: PIWJSAMCEMZIDO-UHFFFAOYNA-N
Ontology: Atisane diterpenoids
COLLISIONENERGY: 10
FORMULA: C20H27NO3
RETENTIONTIME: 3.0671
IONMODE: Negative
Comment: registered in RIKEN PlaSMA
Num Peaks: 2
374.20062	1000
374.23129	417

NAME: Hetisine
PRECURSORMZ: 374.197296604
PRECURSORTYPE: [M+FA-H]-
INSTRUMENTTYPE: LC-ESI-QTOF
SMILES: CC12CN3C4CC56CC(=C)C7C(O)C5C3C(CC(O)C1)(C24)C6C7O
INCHIKEY: PIWJSAMCEMZIDO-UHFFFAOYNA-N
Ontology: Atisane diterpenoids
COLLISIONENERGY: 30
FORMULA: C20H27NO3
RETENTIONTIME: 3.0671
IONMODE: Negative
Comment: registered in RIKEN PlaSMA
Num Peaks: 1
310.20502	1000

NAME: Hetisine
PRECURSORMZ: 374.197296604
PRECURSORTYPE: [M+FA-H]-
INSTRUMENTTYPE: LC-ESI-QTOF
SMILES: CC12CN3C4CC56CC(=C)C7C(O)C5C3C(CC(O)C1)(C24)C6C7O
INCHIKEY: PIWJSAMCEMZIDO-UHFFFAOYNA-N
Ontology: Atisane diterpenoids
COLLISIONENERGY: 10
FORMULA: C20H27NO3
RETENTIONTIME: 3.0671
IONMODE: Negative
Comment: registered in RIKEN PlaSMA
Num Peaks: 2
329.18677	94
374.19983	1000

NAME: Hetisine
PRECURSORMZ: 374.197296604
PRECURSORTYPE: [M+FA-H]-
INSTRUMENTTYPE: LC-ESI-QTOF
SMILES: CC12CN3C4CC56CC(=C)C7C(O)C5C3C(CC(O)C1)(C24)C6C7O
INCHIKEY: PIWJSAMCEMZIDO-UHFFFAOYNA-N
Ontology: Atisane diterpenoids
COLLISIONENERGY: 30
FORMULA: C20H27NO3
RETENTIONTIME: 3.0671
IONMODE: Negative
Comment: registered in RIKEN PlaSMA
Num Peaks: 1
310.18054	1000

NAME: Guan-fu base Y
PRECURSORMZ: 432.202775904
PRECURSORTYPE: [M+FA-H]-
INSTRUMENTTYPE: LC-ESI-QTOF
SMILES: CC(=O)OC1CC2(C)CN3C4CC56CC(=C)C7C(O)C5C(C1)(C24)C3C6(O)C7O
INCHIKEY: XGTNTUKODZZCGL-UHFFFAOYNA-N
Ontology: Atisane diterpenoids
COLLISIONENERGY: 10
FORMULA: C22H29NO5
RETENTIONTIME: 3.030383
IONMODE: Negative
Comment: registered in RIKEN PlaSMA
Num Peaks: 2
366.85342	286
432.20044	1000

NAME: Ellipticine
PRECURSORMZ: 245.10842204783
PRECURSORTYPE: [M-H]-
INSTRUMENTTYPE: LC-ESI-QTOF
SMILES: CC1=C2NC3=CC=CC=C3C2=C(C)C2=CN=CC=C12
INCHIKEY: CTSPAMFJBXKSOY-UHFFFAOYSA-N
Ontology: Carbazoles
COLLISIONENERGY: 10
FORMULA: C17H14N2
RETENTIONTIME: 4.92275
IONMODE: Negative
Comment: registered in RIKEN PlaSMA
Num Peaks: 5
134.19458	22
231.08157	26
240.95485	23
243.87717	29
245.10995	1000

NAME: Guan-fu base Y
PRECURSORMZ: 432.202775904
PRECURSORTYPE: [M+FA-H]-
INSTRUMENTTYPE: LC-ESI-QTOF
SMILES: CC(=O)OC1CC2(C)CN3C4CC56CC(=C)C7C(O)C5C(C1)(C24)C3C6(O)C7O
INCHIKEY: XGTNTUKODZZCGL-UHFFFAOYNA-N
Ontology: Atisane diterpenoids
COLLISIONENERGY: 10
FORMULA: C22H29NO5
RETENTIONTIME: 3.030383
IONMODE: Negative
Comment: registered in RIKEN PlaSMA
Num Peaks: 3
432.17957	89
432.20557	1000
432.22696	253

NAME: Ellipticine
PRECURSORMZ: 245.10842204783
PRECURSORTYPE: [M-H]-
INSTRUMENTTYPE: LC-ESI-QTOF
SMILES: CC1=C2NC3=CC=CC=C3C2=C(C)C2=CN=CC=C12
INCHIKEY: CTSPAMFJBXKSOY-UHFFFAOYSA-N
Ontology: Carbazoles
COLLISIONENERGY: 10
FORMULA: C17H14N2
RETENTIONTIME: 4.92275
IONMODE: Negative
Comment: registered in RIKEN PlaSMA
Num Peaks: 3
230.09038	11
244.09213	15
245.10849	1000

NAME: Ellipticine
PRECURSORMZ: 245.10842204783
PRECURSORTYPE: [M-H]-
INSTRUMENTTYPE: LC-ESI-QTOF
SMILES: CC1=C2NC3=CC=CC=C3C2=C(C)C2=CN=CC=C12
INCHIKEY: CTSPAMFJBXKSOY-UHFFFAOYSA-N
Ontology: Carbazoles
COLLISIONENERGY: 30
FORMULA: C17H14N2
RETENTIONTIME: 4.92275
IONMODE: Negative
Comment: registered in RIKEN PlaSMA
Num Peaks: 6
230.09027	96
242.08656	106
243.09502	91
244.07864	87
244.09505	192
245.11006	1000

NAME: Guan-fu base Y
PRECURSORMZ: 432.202775904
PRECURSORTYPE: [M+FA-H]-
INSTRUMENTTYPE: LC-ESI-QTOF
SMILES: CC(=O)OC1CC2(C)CN3C4CC56CC(=C)C7C(O)C5C(C1)(C24)C3C6(O)C7O
INCHIKEY: XGTNTUKODZZCGL-UHFFFAOYNA-N
Ontology: Atisane diterpenoids
COLLISIONENERGY: 50
FORMULA: C22H29NO5
RETENTIONTIME: 3.030383
IONMODE: Negative
Comment: registered in RIKEN PlaSMA
Num Peaks: 1
94.91532	1000

NAME: Guan-fu base Y
PRECURSORMZ: 432.202775904
PRECURSORTYPE: [M+FA-H]-
INSTRUMENTTYPE: LC-ESI-QTOF
SMILES: CC(=O)OC1CC2(C)CN3C4CC56CC(=C)C7C(O)C5C(C1)(C24)C3C6(O)C7O
INCHIKEY: XGTNTUKODZZCGL-UHFFFAOYNA-N
Ontology: Atisane diterpenoids
COLLISIONENERGY: 10
FORMULA: C22H29NO5
RETENTIONTIME: 3.030383
IONMODE: Negative
Comment: registered in RIKEN PlaSMA
Num Peaks: 2
386.21707	176
432.20377	1000

NAME: Ellipticine
PRECURSORMZ: 245.10842204783
PRECURSORTYPE: [M-H]-
INSTRUMENTTYPE: LC-ESI-QTOF
SMILES: CC1=C2NC3=CC=CC=C3C2=C(C)C2=CN=CC=C12
INCHIKEY: CTSPAMFJBXKSOY-UHFFFAOYSA-N
Ontology: Carbazoles
COLLISIONENERGY: 10
FORMULA: C17H14N2
RETENTIONTIME: 4.92275
IONMODE: Negative
Comment: registered in RIKEN PlaSMA
Num Peaks: 3
232.08331	18
243.09061	18
245.10774	1000

NAME: Guan-fu base Y
PRECURSORMZ: 432.202775904
PRECURSORTYPE: [M+FA-H]-
INSTRUMENTTYPE: LC-ESI-QTOF
SMILES: CC(=O)OC1CC2(C)CN3C4CC56CC(=C)C7C(O)C5C(C1)(C24)C3C6(O)C7O
INCHIKEY: XGTNTUKODZZCGL-UHFFFAOYNA-N
Ontology: Atisane diterpenoids
COLLISIONENERGY: 10
FORMULA: C22H29NO5
RETENTIONTIME: 3.030383
IONMODE: Negative
Comment: registered in RIKEN PlaSMA
Num Peaks: 2
388.18854	68
432.20551	1000

NAME: Ellipticine
PRECURSORMZ: 245.10842204783
PRECURSORTYPE: [M-H]-
INSTRUMENTTYPE: LC-ESI-QTOF
SMILES: CC1=C2NC3=CC=CC=C3C2=C(C)C2=CN=CC=C12
INCHIKEY: CTSPAMFJBXKSOY-UHFFFAOYSA-N
Ontology: Carbazoles
COLLISIONENERGY: 10
FORMULA: C17H14N2
RETENTIONTIME: 4.92275
IONMODE: Negative
Comment: registered in RIKEN PlaSMA
Num Peaks: 3
156.34093	32
233.75322	10
245.10855	1000

NAME: Ellipticine
PRECURSORMZ: 245.10842204783
PRECURSORTYPE: [M-H]-
INSTRUMENTTYPE: LC-ESI-QTOF
SMILES: CC1=C2NC3=CC=CC=C3C2=C(C)C2=CN=CC=C12
INCHIKEY: CTSPAMFJBXKSOY-UHFFFAOYSA-N
Ontology: Carbazoles
COLLISIONENERGY: 30
FORMULA: C17H14N2
RETENTIONTIME: 4.92275
IONMODE: Negative
Comment: registered in RIKEN PlaSMA
Num Peaks: 4
229.08421	119
243.09203	393
244.0943	264
245.10414	1000

NAME: Guan-fu base Y
PRECURSORMZ: 432.202775904
PRECURSORTYPE: [M+FA-H]-
INSTRUMENTTYPE: LC-ESI-QTOF
SMILES: CC(=O)OC1CC2(C)CN3C4CC56CC(=C)C7C(O)C5C(C1)(C24)C3C6(O)C7O
INCHIKEY: XGTNTUKODZZCGL-UHFFFAOYNA-N
Ontology: Atisane diterpenoids
COLLISIONENERGY: 10
FORMULA: C22H29NO5
RETENTIONTIME: 3.030383
IONMODE: Negative
Comment: registered in RIKEN PlaSMA
Num Peaks: 2
432.19135	1000
432.21259	407

NAME: Ellipticine
PRECURSORMZ: 245.10842204783
PRECURSORTYPE: [M-H]-
INSTRUMENTTYPE: LC-ESI-QTOF
SMILES: CC1=C2NC3=CC=CC=C3C2=C(C)C2=CN=CC=C12
INCHIKEY: CTSPAMFJBXKSOY-UHFFFAOYSA-N
Ontology: Carbazoles
COLLISIONENERGY: 10
FORMULA: C17H14N2
RETENTIONTIME: 4.92275
IONMODE: Negative
Comment: registered in RIKEN PlaSMA
Num Peaks: 5
138.02577	16
230.08128	21
243.09528	16
244.08904	22
245.10713	1000

NAME: Ellipticine
PRECURSORMZ: 245.10842204783
PRECURSORTYPE: [M-H]-
INSTRUMENTTYPE: LC-ESI-QTOF
SMILES: CC1=C2NC3=CC=CC=C3C2=C(C)C2=CN=CC=C12
INCHIKEY: CTSPAMFJBXKSOY-UHFFFAOYSA-N
Ontology: Carbazoles
COLLISIONENERGY: 30
FORMULA: C17H14N2
RETENTIONTIME: 4.92275
IONMODE: Negative
Comment: registered in RIKEN PlaSMA
Num Peaks: 6
243.08173	321
243.09267	222
243.10709	123
244.09628	340
245.11028	1000
245.12575	111

NAME: Germbudine
PRECURSORMZ: 708.39644984783
PRECURSORTYPE: [M-H]-
INSTRUMENTTYPE: LC-ESI-QTOF
SMILES: CCC(C)C(=O)OC1C(O)C2C(CN3CC(C)CCC3C2(C)O)C2CC34OC5(O)C(CC(O)C3C12O)C4(C)CCC5OC(=O)C(C)(O)C(C)O
INCHIKEY: LWSPRPDSPCBAKK-UHFFFAOYNA-N
Ontology: Cerveratrum-type alkaloids
COLLISIONENERGY: 10
FORMULA: C37H59NO12
RETENTIONTIME: 4.640383
IONMODE: Negative
Comment: registered in RIKEN PlaSMA
Num Peaks: 5
89.02147	7
133.05	1000
134.0537	58
708.38385	36
708.40765	37

NAME: 9-Nitro-20(S)-camptothecin
PRECURSORMZ: 392.08880874783
PRECURSORTYPE: [M-H]-
INSTRUMENTTYPE: LC-ESI-QTOF
SMILES: CCC1(O)C(=O)OCC2=C1C=C1N(CC3=CC4=C(C=CC=C4N(=O)=O)N=C13)C2=O
INCHIKEY: VHXNKPBCCMUMSW-UHFFFAOYNA-N
Ontology: Camptothecins
COLLISIONENERGY: 10
FORMULA: C20H15N3O6
RETENTIONTIME: 5.862317
IONMODE: Negative
Comment: registered in RIKEN PlaSMA
Num Peaks: 37
123.70248	29
182.05534	22
194.02795	22
208.05748	21
208.06778	22
219.05029	23
225.045	23
231.04579	28
232.07327	23
257.08255	21
259.08502	74
260.06305	36
260.07996	21
261.06351	21
261.07718	23
261.09174	21
262.0733	28
263.07712	22
273.09988	26
275.07498	25
276.4086	25
289.10071	27
290.10635	21
302.104	48
303.07187	47
304.10571	23
304.11642	25
317.08698	26
317.09897	23
318.09296	35
318.10629	70
334.07501	22
348.10196	1000
349.09802	192
349.112	76
350.11078	47
392.09409	106

NAME: Germbudine
PRECURSORMZ: 708.39644984783
PRECURSORTYPE: [M-H]-
INSTRUMENTTYPE: LC-ESI-QTOF
SMILES: CCC(C)C(=O)OC1C(O)C2C(CN3CC(C)CCC3C2(C)O)C2CC34OC5(O)C(CC(O)C3C12O)C4(C)CCC5OC(=O)C(C)(O)C(C)O
INCHIKEY: LWSPRPDSPCBAKK-UHFFFAOYNA-N
Ontology: Cerveratrum-type alkaloids
COLLISIONENERGY: 10
FORMULA: C37H59NO12
RETENTIONTIME: 4.640383
IONMODE: Negative
Comment: registered in RIKEN PlaSMA
Num Peaks: 6
133.04942	1000
133.30836	7
134.05583	46
135.04967	11
292.11176	5
708.39386	284

NAME: 9-Nitro-20(S)-camptothecin
PRECURSORMZ: 392.08880874783
PRECURSORTYPE: [M-H]-
INSTRUMENTTYPE: LC-ESI-QTOF
SMILES: CCC1(O)C(=O)OCC2=C1C=C1N(CC3=CC4=C(C=CC=C4N(=O)=O)N=C13)C2=O
INCHIKEY: VHXNKPBCCMUMSW-UHFFFAOYNA-N
Ontology: Camptothecins
COLLISIONENERGY: 10
FORMULA: C20H15N3O6
RETENTIONTIME: 5.862317
IONMODE: Negative
Comment: registered in RIKEN PlaSMA
Num Peaks: 7
318.10861	14
348.09711	1000
349.08749	30
349.10297	181
350.10648	30
392.07126	30
392.0874	155

NAME: Germbudine
PRECURSORMZ: 708.39644984783
PRECURSORTYPE: [M-H]-
INSTRUMENTTYPE: LC-ESI-QTOF
SMILES: CCC(C)C(=O)OC1C(O)C2C(CN3CC(C)CCC3C2(C)O)C2CC34OC5(O)C(CC(O)C3C12O)C4(C)CCC5OC(=O)C(C)(O)C(C)O
INCHIKEY: LWSPRPDSPCBAKK-UHFFFAOYNA-N
Ontology: Cerveratrum-type alkaloids
COLLISIONENERGY: 30
FORMULA: C37H59NO12
RETENTIONTIME: 4.640383
IONMODE: Negative
Comment: registered in RIKEN PlaSMA
Num Peaks: 5
71.01379	5
131.9828	5
133.05025	1000
134.04829	14
134.05652	31

NAME: 9-Nitro-20(S)-camptothecin
PRECURSORMZ: 392.08880874783
PRECURSORTYPE: [M-H]-
INSTRUMENTTYPE: LC-ESI-QTOF
SMILES: CCC1(O)C(=O)OCC2=C1C=C1N(CC3=CC4=C(C=CC=C4N(=O)=O)N=C13)C2=O
INCHIKEY: VHXNKPBCCMUMSW-UHFFFAOYNA-N
Ontology: Camptothecins
COLLISIONENERGY: 30
FORMULA: C20H15N3O6
RETENTIONTIME: 5.862317
IONMODE: Negative
Comment: registered in RIKEN PlaSMA
Num Peaks: 37
76.91019	73
108.0237	102
195.04877	175
219.0571	114
233.07173	73
234.08534	81
243.10196	77
246.0589	73
246.075	106
259.08456	1000
259.099	195
260.08603	236
261.05515	114
261.06436	118
261.10745	171
262.05475	93
262.07819	89
273.05566	81
273.10168	134
273.11209	110
274.11484	150
279.02396	73
283.16873	89
290.06253	142
290.10217	81
291.07031	73
302.08344	93
302.10205	154
303.07092	98
303.10095	81
317.08905	73
318.09952	159
318.11212	98
320.10019	81
333.06763	150
333.08771	89
348.09793	81

NAME: Germbudine
PRECURSORMZ: 708.39644984783
PRECURSORTYPE: [M-H]-
INSTRUMENTTYPE: LC-ESI-QTOF
SMILES: CCC(C)C(=O)OC1C(O)C2C(CN3CC(C)CCC3C2(C)O)C2CC34OC5(O)C(CC(O)C3C12O)C4(C)CCC5OC(=O)C(C)(O)C(C)O
INCHIKEY: LWSPRPDSPCBAKK-UHFFFAOYNA-N
Ontology: Cerveratrum-type alkaloids
COLLISIONENERGY: 50
FORMULA: C37H59NO12
RETENTIONTIME: 4.640383
IONMODE: Negative
Comment: registered in RIKEN PlaSMA
Num Peaks: 7
71.01366	41
89.02355	54
133.04919	1000
134.05409	56
135.04941	5
135.05894	6
171.29465	6

NAME: 9-Nitro-20(S)-camptothecin
PRECURSORMZ: 392.08880874783
PRECURSORTYPE: [M-H]-
INSTRUMENTTYPE: LC-ESI-QTOF
SMILES: CCC1(O)C(=O)OCC2=C1C=C1N(CC3=CC4=C(C=CC=C4N(=O)=O)N=C13)C2=O
INCHIKEY: VHXNKPBCCMUMSW-UHFFFAOYNA-N
Ontology: Camptothecins
COLLISIONENERGY: 50
FORMULA: C20H15N3O6
RETENTIONTIME: 5.862317
IONMODE: Negative
Comment: registered in RIKEN PlaSMA
Num Peaks: 28
87.86411	441
140.02719	279
158.63713	515
182.04364	647
183.05251	294
192.07785	309
195.05806	647
204.07024	412
207.06746	338
208.06885	735
215.06657	1000
216.06465	338
217.07358	309
219.06245	265
220.05553	368
230.08141	265
231.06264	309
233.06984	706
234.06935	265
243.10089	426
245.05389	309
256.06305	397
257.06509	456
258.07236	338
258.08636	338
259.07449	368
271.05237	265
275.07715	324

NAME: Germbudine
PRECURSORMZ: 708.39644984783
PRECURSORTYPE: [M-H]-
INSTRUMENTTYPE: LC-ESI-QTOF
SMILES: CCC(C)C(=O)OC1C(O)C2C(CN3CC(C)CCC3C2(C)O)C2CC34OC5(O)C(CC(O)C3C12O)C4(C)CCC5OC(=O)C(C)(O)C(C)O
INCHIKEY: LWSPRPDSPCBAKK-UHFFFAOYNA-N
Ontology: Cerveratrum-type alkaloids
COLLISIONENERGY: 10
FORMULA: C37H59NO12
RETENTIONTIME: 4.640383
IONMODE: Negative
Comment: registered in RIKEN PlaSMA
Num Peaks: 4
133.05009	1000
134.05244	44
708.3844	23
708.40015	67

NAME: 9-Nitro-20(S)-camptothecin
PRECURSORMZ: 392.08880874783
PRECURSORTYPE: [M-H]-
INSTRUMENTTYPE: LC-ESI-QTOF
SMILES: CCC1(O)C(=O)OCC2=C1C=C1N(CC3=CC4=C(C=CC=C4N(=O)=O)N=C13)C2=O
INCHIKEY: VHXNKPBCCMUMSW-UHFFFAOYNA-N
Ontology: Camptothecins
COLLISIONENERGY: 10
FORMULA: C20H15N3O6
RETENTIONTIME: 5.862317
IONMODE: Negative
Comment: registered in RIKEN PlaSMA
Num Peaks: 32
195.04817	23
233.06105	40
234.0603	17
234.09547	20
246.07585	23
247.08534	17
255.28177	27
258.07712	24
259.08133	39
259.09256	38
261.07147	19
261.10458	19
262.08594	16
288.06012	19
289.10223	56
291.05731	43
302.06863	16
302.09476	24
303.08398	23
304.07986	19
317.08545	19
318.10034	58
318.12689	18
319.1012	42
320.10529	30
347.09024	27
348.04984	16
348.09976	1000
349.1001	218
350.10236	18
351.10312	18
392.09247	75

NAME: Germbudine
PRECURSORMZ: 708.39644984783
PRECURSORTYPE: [M-H]-
INSTRUMENTTYPE: LC-ESI-QTOF
SMILES: CCC(C)C(=O)OC1C(O)C2C(CN3CC(C)CCC3C2(C)O)C2CC34OC5(O)C(CC(O)C3C12O)C4(C)CCC5OC(=O)C(C)(O)C(C)O
INCHIKEY: LWSPRPDSPCBAKK-UHFFFAOYNA-N
Ontology: Cerveratrum-type alkaloids
COLLISIONENERGY: 10
FORMULA: C37H59NO12
RETENTIONTIME: 4.640383
IONMODE: Negative
Comment: registered in RIKEN PlaSMA
Num Peaks: 5
133.05016	1000
134.05309	27
134.05951	9
606.32074	5
708.39764	330

NAME: 9-Nitro-20(S)-camptothecin
PRECURSORMZ: 392.08880874783
PRECURSORTYPE: [M-H]-
INSTRUMENTTYPE: LC-ESI-QTOF
SMILES: CCC1(O)C(=O)OCC2=C1C=C1N(CC3=CC4=C(C=CC=C4N(=O)=O)N=C13)C2=O
INCHIKEY: VHXNKPBCCMUMSW-UHFFFAOYNA-N
Ontology: Camptothecins
COLLISIONENERGY: 10
FORMULA: C20H15N3O6
RETENTIONTIME: 5.862317
IONMODE: Negative
Comment: registered in RIKEN PlaSMA
Num Peaks: 8
319.0946	12
328.74521	16
348.09735	1000
348.13138	10
349.09842	119
349.12354	20
350.09778	34
392.08667	180

NAME: Germbudine
PRECURSORMZ: 708.39644984783
PRECURSORTYPE: [M-H]-
INSTRUMENTTYPE: LC-ESI-QTOF
SMILES: CCC(C)C(=O)OC1C(O)C2C(CN3CC(C)CCC3C2(C)O)C2CC34OC5(O)C(CC(O)C3C12O)C4(C)CCC5OC(=O)C(C)(O)C(C)O
INCHIKEY: LWSPRPDSPCBAKK-UHFFFAOYNA-N
Ontology: Cerveratrum-type alkaloids
COLLISIONENERGY: 30
FORMULA: C37H59NO12
RETENTIONTIME: 4.640383
IONMODE: Negative
Comment: registered in RIKEN PlaSMA
Num Peaks: 6
71.01163	5
89.02437	10
133.04993	1000
134.05321	48
135.05446	6
344.16025	10

NAME: 9-Nitro-20(S)-camptothecin
PRECURSORMZ: 392.08880874783
PRECURSORTYPE: [M-H]-
INSTRUMENTTYPE: LC-ESI-QTOF
SMILES: CCC1(O)C(=O)OCC2=C1C=C1N(CC3=CC4=C(C=CC=C4N(=O)=O)N=C13)C2=O
INCHIKEY: VHXNKPBCCMUMSW-UHFFFAOYNA-N
Ontology: Camptothecins
COLLISIONENERGY: 30
FORMULA: C20H15N3O6
RETENTIONTIME: 5.862317
IONMODE: Negative
Comment: registered in RIKEN PlaSMA
Num Peaks: 47
91.05775	106
167.06197	106
182.05141	123
183.06288	115
188.62239	88
195.05946	106
196.05489	123
212.04507	110
220.04579	110
233.0704	260
234.08046	198
243.09755	167
244.06462	106
247.07826	101
247.09283	141
256.09451	101
259.08722	1000
259.55795	88
260.0867	79
261.06787	159
261.09265	88
263.06531	88
263.07385	93
273.08716	79
273.10867	225
274.06363	97
274.12332	97
275.09546	88
277.09314	106
288.04572	88
288.07755	264
289.06107	79
289.07922	203
289.09702	88
292.07758	220
302.10229	203
302.11594	119
303.07816	93
303.0925	167
303.12433	84
304.07806	225
318.0986	291
318.11292	181
319.09329	79
320.10907	79
333.06546	84
348.10971	181

NAME: Germbudine
PRECURSORMZ: 708.39644984783
PRECURSORTYPE: [M-H]-
INSTRUMENTTYPE: LC-ESI-QTOF
SMILES: CCC(C)C(=O)OC1C(O)C2C(CN3CC(C)CCC3C2(C)O)C2CC34OC5(O)C(CC(O)C3C12O)C4(C)CCC5OC(=O)C(C)(O)C(C)O
INCHIKEY: LWSPRPDSPCBAKK-UHFFFAOYNA-N
Ontology: Cerveratrum-type alkaloids
COLLISIONENERGY: 50
FORMULA: C37H59NO12
RETENTIONTIME: 4.640383
IONMODE: Negative
Comment: registered in RIKEN PlaSMA
Num Peaks: 11
71.01284	66
71.04927	6
80.1637	6
87.03978	7
87.04533	11
89.02476	82
90.0291	15
101.06194	11
133.05051	1000
134.05321	43
135.05333	14

NAME: 9-Nitro-20(S)-camptothecin
PRECURSORMZ: 392.08880874783
PRECURSORTYPE: [M-H]-
INSTRUMENTTYPE: LC-ESI-QTOF
SMILES: CCC1(O)C(=O)OCC2=C1C=C1N(CC3=CC4=C(C=CC=C4N(=O)=O)N=C13)C2=O
INCHIKEY: VHXNKPBCCMUMSW-UHFFFAOYNA-N
Ontology: Camptothecins
COLLISIONENERGY: 50
FORMULA: C20H15N3O6
RETENTIONTIME: 5.862317
IONMODE: Negative
Comment: registered in RIKEN PlaSMA
Num Peaks: 27
108.02349	427
123.04089	202
165.0383	247
167.05962	315
167.07182	247
182.04698	494
182.05644	236
193.0778	281
195.04388	337
195.0527	258
204.06554	236
208.07726	247
230.08311	247
230.09888	213
231.05659	213
232.05872	1000
233.05916	202
233.06871	517
234.06328	225
243.0909	270
245.06052	270
257.1062	303
258.08167	236
273.08585	213
273.84088	225
274.07547	258
286.06891	258

NAME: Germbudine
PRECURSORMZ: 708.39644984783
PRECURSORTYPE: [M-H]-
INSTRUMENTTYPE: LC-ESI-QTOF
SMILES: CCC(C)C(=O)OC1C(O)C2C(CN3CC(C)CCC3C2(C)O)C2CC34OC5(O)C(CC(O)C3C12O)C4(C)CCC5OC(=O)C(C)(O)C(C)O
INCHIKEY: LWSPRPDSPCBAKK-UHFFFAOYNA-N
Ontology: Cerveratrum-type alkaloids
COLLISIONENERGY: 10
FORMULA: C37H59NO12
RETENTIONTIME: 4.640383
IONMODE: Negative
Comment: registered in RIKEN PlaSMA
Num Peaks: 3
133.04964	1000
134.05255	60
708.3938	76

NAME: 9-Nitro-20(S)-camptothecin
PRECURSORMZ: 392.08880874783
PRECURSORTYPE: [M-H]-
INSTRUMENTTYPE: LC-ESI-QTOF
SMILES: CCC1(O)C(=O)OCC2=C1C=C1N(CC3=CC4=C(C=CC=C4N(=O)=O)N=C13)C2=O
INCHIKEY: VHXNKPBCCMUMSW-UHFFFAOYNA-N
Ontology: Camptothecins
COLLISIONENERGY: 10
FORMULA: C20H15N3O6
RETENTIONTIME: 5.862317
IONMODE: Negative
Comment: registered in RIKEN PlaSMA
Num Peaks: 32
182.0529	38
233.07141	24
233.08064	29
244.06287	27
245.07925	27
246.07457	19
247.07739	21
257.08231	20
259.08228	47
259.09259	21
259.10361	19
260.07935	20
261.06473	21
261.07724	19
268.43628	19
274.09558	29
275.07257	46
289.06137	29
290.10837	21
291.0715	21
303.08902	22
305.1026	19
318.09082	43
318.10318	163
319.09552	39
319.11581	44
348.1008	1000
349.0957	83
349.10965	134
349.13101	27
350.116	22
392.09824	42

NAME: Germbudine
PRECURSORMZ: 708.39644984783
PRECURSORTYPE: [M-H]-
INSTRUMENTTYPE: LC-ESI-QTOF
SMILES: CCC(C)C(=O)OC1C(O)C2C(CN3CC(C)CCC3C2(C)O)C2CC34OC5(O)C(CC(O)C3C12O)C4(C)CCC5OC(=O)C(C)(O)C(C)O
INCHIKEY: LWSPRPDSPCBAKK-UHFFFAOYNA-N
Ontology: Cerveratrum-type alkaloids
COLLISIONENERGY: 10
FORMULA: C37H59NO12
RETENTIONTIME: 4.640383
IONMODE: Negative
Comment: registered in RIKEN PlaSMA
Num Peaks: 5
86.52203	5
133.04982	1000
134.05307	40
135.05374	11
708.39362	322

NAME: 9-Nitro-20(S)-camptothecin
PRECURSORMZ: 392.08880874783
PRECURSORTYPE: [M-H]-
INSTRUMENTTYPE: LC-ESI-QTOF
SMILES: CCC1(O)C(=O)OCC2=C1C=C1N(CC3=CC4=C(C=CC=C4N(=O)=O)N=C13)C2=O
INCHIKEY: VHXNKPBCCMUMSW-UHFFFAOYNA-N
Ontology: Camptothecins
COLLISIONENERGY: 10
FORMULA: C20H15N3O6
RETENTIONTIME: 5.862317
IONMODE: Negative
Comment: registered in RIKEN PlaSMA
Num Peaks: 10
83.78449	13
318.10114	12
348.09833	1000
348.61533	9
349.08771	26
349.10159	151
349.12424	17
350.10739	13
386.02261	9
392.08835	128

NAME: Germbudine
PRECURSORMZ: 708.39644984783
PRECURSORTYPE: [M-H]-
INSTRUMENTTYPE: LC-ESI-QTOF
SMILES: CCC(C)C(=O)OC1C(O)C2C(CN3CC(C)CCC3C2(C)O)C2CC34OC5(O)C(CC(O)C3C12O)C4(C)CCC5OC(=O)C(C)(O)C(C)O
INCHIKEY: LWSPRPDSPCBAKK-UHFFFAOYNA-N
Ontology: Cerveratrum-type alkaloids
COLLISIONENERGY: 30
FORMULA: C37H59NO12
RETENTIONTIME: 4.640383
IONMODE: Negative
Comment: registered in RIKEN PlaSMA
Num Peaks: 6
71.0105	6
133.04973	1000
134.05371	66
135.05173	8
135.05717	6
473.27029	6

NAME: 9-Nitro-20(S)-camptothecin
PRECURSORMZ: 392.08880874783
PRECURSORTYPE: [M-H]-
INSTRUMENTTYPE: LC-ESI-QTOF
SMILES: CCC1(O)C(=O)OCC2=C1C=C1N(CC3=CC4=C(C=CC=C4N(=O)=O)N=C13)C2=O
INCHIKEY: VHXNKPBCCMUMSW-UHFFFAOYNA-N
Ontology: Camptothecins
COLLISIONENERGY: 30
FORMULA: C20H15N3O6
RETENTIONTIME: 5.862317
IONMODE: Negative
Comment: registered in RIKEN PlaSMA
Num Peaks: 48
123.04601	182
182.05261	177
195.05914	338
206.55013	91
218.08505	126
219.05057	95
219.09026	117
219.11284	78
221.06088	100
231.08667	78
233.0641	87
233.07585	78
234.06592	100
234.08792	87
235.08154	78
238.43613	87
242.91612	87
245.05428	113
245.10507	82
246.08055	87
249.06978	87
259.08789	1000
261.07074	82
273.07709	117
275.08459	104
275.09433	260
276.05408	82
276.0882	87
284.08554	87
286.09821	117
289.05161	117
289.09296	100
289.11188	203
290.05389	100
290.11426	186
302.10266	104
303.07355	156
303.11642	91
304.07376	91
304.10324	87
317.09845	87
318.08551	104
318.09967	450
318.11197	221
319.10193	147
319.11304	286
348.08838	398
348.10953	165

NAME: Germbudine
PRECURSORMZ: 708.39644984783
PRECURSORTYPE: [M-H]-
INSTRUMENTTYPE: LC-ESI-QTOF
SMILES: CCC(C)C(=O)OC1C(O)C2C(CN3CC(C)CCC3C2(C)O)C2CC34OC5(O)C(CC(O)C3C12O)C4(C)CCC5OC(=O)C(C)(O)C(C)O
INCHIKEY: LWSPRPDSPCBAKK-UHFFFAOYNA-N
Ontology: Cerveratrum-type alkaloids
COLLISIONENERGY: 50
FORMULA: C37H59NO12
RETENTIONTIME: 4.640383
IONMODE: Negative
Comment: registered in RIKEN PlaSMA
Num Peaks: 7
71.00893	12
71.01405	21
89.02435	31
94.89924	9
133.05034	1000
134.0508	5
134.05956	18

NAME: 9-Nitro-20(S)-camptothecin
PRECURSORMZ: 392.08880874783
PRECURSORTYPE: [M-H]-
INSTRUMENTTYPE: LC-ESI-QTOF
SMILES: CCC1(O)C(=O)OCC2=C1C=C1N(CC3=CC4=C(C=CC=C4N(=O)=O)N=C13)C2=O
INCHIKEY: VHXNKPBCCMUMSW-UHFFFAOYNA-N
Ontology: Camptothecins
COLLISIONENERGY: 50
FORMULA: C20H15N3O6
RETENTIONTIME: 5.862317
IONMODE: Negative
Comment: registered in RIKEN PlaSMA
Num Peaks: 21
83.38789	207
129.91397	207
140.04608	264
154.05376	264
165.04613	207
168.03844	241
182.0508	494
196.05214	218
204.0652	264
204.07193	207
205.08554	207
217.07071	241
232.06622	483
233.0486	230
233.07237	1000
234.07329	299
245.06654	276
246.06659	310
247.0892	218
259.0517	379
259.0899	218

NAME: Ethylbeta-carboline
PRECURSORMZ: 195.09277194783
PRECURSORTYPE: [M-H]-
INSTRUMENTTYPE: LC-ESI-QTOF
SMILES: CCC1=NC=CC2=C1NC1=CC=CC=C21
INCHIKEY: YTQRHYCHEIXUIU-UHFFFAOYSA-N
Ontology: Harmala alkaloids
COLLISIONENERGY: 10
FORMULA: C13H12N2
RETENTIONTIME: 3.9979
IONMODE: Negative
Comment: registered in RIKEN PlaSMA
Num Peaks: 4
180.06894	177
180.07944	24
181.07259	98
195.09319	1000

NAME: Germinaline
PRECURSORMZ: 750.40701454783
PRECURSORTYPE: [M-H]-
INSTRUMENTTYPE: LC-ESI-QTOF
SMILES: CCC(C)C(=O)OC1C(O)C2C(CN3CC(C)CCC3C2(C)O)C2CC34OC5(O)C(CC(O)C3C12O)C4(C)CCC5OC(=O)C(C)(O)C(C)OC(C)=O
INCHIKEY: CPINTEKYWNYXNP-UHFFFAOYNA-N
Ontology: Cerveratrum-type alkaloids
COLLISIONENERGY: 10
FORMULA: C39H61NO13
RETENTIONTIME: 5.103483
IONMODE: Negative
Comment: registered in RIKEN PlaSMA
Num Peaks: 7
59.01383	9
134.05211	7
175.06021	1000
176.06709	83
184.72603	5
588.81848	6
750.3985	10

NAME: Mitragynine
PRECURSORMZ: 397.21328104783
PRECURSORTYPE: [M-H]-
INSTRUMENTTYPE: LC-ESI-QTOF
SMILES: CCC1CN2CCC3=C(NC4=C3C(OC)=CC=C4)C2CC1C(=COC)C(=O)OC
INCHIKEY: LELBFTMXCIIKKX-UHFFFAOYNA-N
Ontology: Corynanthean-type alkaloids
COLLISIONENERGY: 10
FORMULA: C23H30N2O4
RETENTIONTIME: 5.513517
IONMODE: Negative
Comment: registered in RIKEN PlaSMA
Num Peaks: 10
182.04993	221
183.06845	200
184.0733	211
222.06688	211
250.05653	211
253.10063	211
308.04794	221
319.14716	295
365.18619	1000
397.21036	211

NAME: Mitragynine
PRECURSORMZ: 443.21876035183
PRECURSORTYPE: [M+FA-H]-
INSTRUMENTTYPE: LC-ESI-QTOF
SMILES: CCC1CN2CCC3=C(NC4=C3C(OC)=CC=C4)C2CC1C(=COC)C(=O)OC
INCHIKEY: LELBFTMXCIIKKX-UHFFFAOYNA-N
Ontology: Corynanthean-type alkaloids
COLLISIONENERGY: 10
FORMULA: C23H30N2O4
RETENTIONTIME: 5.513517
IONMODE: Negative
Comment: registered in RIKEN PlaSMA
Num Peaks: 5
246.08603	741
275.08575	1000
397.21713	667
397.98242	963
413.18274	926

NAME: Ethylbeta-carboline
PRECURSORMZ: 195.09277194783
PRECURSORTYPE: [M-H]-
INSTRUMENTTYPE: LC-ESI-QTOF
SMILES: CCC1=NC=CC2=C1NC1=CC=CC=C21
INCHIKEY: YTQRHYCHEIXUIU-UHFFFAOYSA-N
Ontology: Harmala alkaloids
COLLISIONENERGY: 10
FORMULA: C13H12N2
RETENTIONTIME: 3.9979
IONMODE: Negative
Comment: registered in RIKEN PlaSMA
Num Peaks: 5
104.84637	9
180.07083	35
181.06235	8
181.06993	7
195.0938	1000

NAME: Germinaline
PRECURSORMZ: 750.40701454783
PRECURSORTYPE: [M-H]-
INSTRUMENTTYPE: LC-ESI-QTOF
SMILES: CCC(C)C(=O)OC1C(O)C2C(CN3CC(C)CCC3C2(C)O)C2CC34OC5(O)C(CC(O)C3C12O)C4(C)CCC5OC(=O)C(C)(O)C(C)OC(C)=O
INCHIKEY: CPINTEKYWNYXNP-UHFFFAOYNA-N
Ontology: Cerveratrum-type alkaloids
COLLISIONENERGY: 10
FORMULA: C39H61NO13
RETENTIONTIME: 5.103483
IONMODE: Negative
Comment: registered in RIKEN PlaSMA
Num Peaks: 4
175.06056	1000
176.06462	96
750.38586	28
750.40863	99

NAME: Mitragynine
PRECURSORMZ: 397.21328104783
PRECURSORTYPE: [M-H]-
INSTRUMENTTYPE: LC-ESI-QTOF
SMILES: CCC1CN2CCC3=C(NC4=C3C(OC)=CC=C4)C2CC1C(=COC)C(=O)OC
INCHIKEY: LELBFTMXCIIKKX-UHFFFAOYNA-N
Ontology: Corynanthean-type alkaloids
COLLISIONENERGY: 10
FORMULA: C23H30N2O4
RETENTIONTIME: 5.513517
IONMODE: Negative
Comment: registered in RIKEN PlaSMA
Num Peaks: 12
198.08723	92
243.3694	133
350.17914	142
365.12167	96
365.15692	87
365.18039	220
365.19382	266
365.20801	119
368.14966	106
397.15811	92
397.18192	399
397.21756	1000

NAME: Mitragynine
PRECURSORMZ: 443.21876035183
PRECURSORTYPE: [M+FA-H]-
INSTRUMENTTYPE: LC-ESI-QTOF
SMILES: CCC1CN2CCC3=C(NC4=C3C(OC)=CC=C4)C2CC1C(=COC)C(=O)OC
INCHIKEY: LELBFTMXCIIKKX-UHFFFAOYNA-N
Ontology: Corynanthean-type alkaloids
COLLISIONENERGY: 10
FORMULA: C23H30N2O4
RETENTIONTIME: 5.513517
IONMODE: Negative
Comment: registered in RIKEN PlaSMA
Num Peaks: 1
397.21585	1000

NAME: Ethylbeta-carboline
PRECURSORMZ: 195.09277194783
PRECURSORTYPE: [M-H]-
INSTRUMENTTYPE: LC-ESI-QTOF
SMILES: CCC1=NC=CC2=C1NC1=CC=CC=C21
INCHIKEY: YTQRHYCHEIXUIU-UHFFFAOYSA-N
Ontology: Harmala alkaloids
COLLISIONENERGY: 30
FORMULA: C13H12N2
RETENTIONTIME: 3.9979
IONMODE: Negative
Comment: registered in RIKEN PlaSMA
Num Peaks: 3
180.07222	1000
180.07933	316
181.07722	95

NAME: Germinaline
PRECURSORMZ: 750.40701454783
PRECURSORTYPE: [M-H]-
INSTRUMENTTYPE: LC-ESI-QTOF
SMILES: CCC(C)C(=O)OC1C(O)C2C(CN3CC(C)CCC3C2(C)O)C2CC34OC5(O)C(CC(O)C3C12O)C4(C)CCC5OC(=O)C(C)(O)C(C)OC(C)=O
INCHIKEY: CPINTEKYWNYXNP-UHFFFAOYNA-N
Ontology: Cerveratrum-type alkaloids
COLLISIONENERGY: 30
FORMULA: C39H61NO13
RETENTIONTIME: 5.103483
IONMODE: Negative
Comment: registered in RIKEN PlaSMA
Num Peaks: 16
59.00953	9
59.01509	51
60.6703	9
62.46424	8
71.0486	27
115.03878	8
133.04675	26
133.05502	20
175.06053	1000
175.23534	9
175.59532	8
176.06468	53
177.06834	9
202.72534	9
298.28806	14
572.40369	8

NAME: Mitragynine
PRECURSORMZ: 397.21328104783
PRECURSORTYPE: [M-H]-
INSTRUMENTTYPE: LC-ESI-QTOF
SMILES: CCC1CN2CCC3=C(NC4=C3C(OC)=CC=C4)C2CC1C(=COC)C(=O)OC
INCHIKEY: LELBFTMXCIIKKX-UHFFFAOYNA-N
Ontology: Corynanthean-type alkaloids
COLLISIONENERGY: 30
FORMULA: C23H30N2O4
RETENTIONTIME: 5.513517
IONMODE: Negative
Comment: registered in RIKEN PlaSMA
Num Peaks: 9
169.03865	583
183.02812	750
198.0715	896
199.04549	1000
279.07791	375
293.09131	417
307.14618	521
320.15799	521
351.16278	958

NAME: Mitragynine
PRECURSORMZ: 443.21876035183
PRECURSORTYPE: [M+FA-H]-
INSTRUMENTTYPE: LC-ESI-QTOF
SMILES: CCC1CN2CCC3=C(NC4=C3C(OC)=CC=C4)C2CC1C(=COC)C(=O)OC
INCHIKEY: LELBFTMXCIIKKX-UHFFFAOYNA-N
Ontology: Corynanthean-type alkaloids
COLLISIONENERGY: 30
FORMULA: C23H30N2O4
RETENTIONTIME: 5.513517
IONMODE: Negative
Comment: registered in RIKEN PlaSMA
Num Peaks: 2
151.05823	1000
295.11719	950

NAME: Ethylbeta-carboline
PRECURSORMZ: 195.09277194783
PRECURSORTYPE: [M-H]-
INSTRUMENTTYPE: LC-ESI-QTOF
SMILES: CCC1=NC=CC2=C1NC1=CC=CC=C21
INCHIKEY: YTQRHYCHEIXUIU-UHFFFAOYSA-N
Ontology: Harmala alkaloids
COLLISIONENERGY: 50
FORMULA: C13H12N2
RETENTIONTIME: 3.9979
IONMODE: Negative
Comment: registered in RIKEN PlaSMA
Num Peaks: 1
77.20624	1000

NAME: Germinaline
PRECURSORMZ: 750.40701454783
PRECURSORTYPE: [M-H]-
INSTRUMENTTYPE: LC-ESI-QTOF
SMILES: CCC(C)C(=O)OC1C(O)C2C(CN3CC(C)CCC3C2(C)O)C2CC34OC5(O)C(CC(O)C3C12O)C4(C)CCC5OC(=O)C(C)(O)C(C)OC(C)=O
INCHIKEY: CPINTEKYWNYXNP-UHFFFAOYNA-N
Ontology: Cerveratrum-type alkaloids
COLLISIONENERGY: 50
FORMULA: C39H61NO13
RETENTIONTIME: 5.103483
IONMODE: Negative
Comment: registered in RIKEN PlaSMA
Num Peaks: 7
59.01429	849
115.04402	75
133.05226	68
175.0575	1000
175.06744	309
176.07204	68
455.26443	83

NAME: Mitragynine
PRECURSORMZ: 397.21328104783
PRECURSORTYPE: [M-H]-
INSTRUMENTTYPE: LC-ESI-QTOF
SMILES: CCC1CN2CCC3=C(NC4=C3C(OC)=CC=C4)C2CC1C(=COC)C(=O)OC
INCHIKEY: LELBFTMXCIIKKX-UHFFFAOYNA-N
Ontology: Corynanthean-type alkaloids
COLLISIONENERGY: 50
FORMULA: C23H30N2O4
RETENTIONTIME: 5.513517
IONMODE: Negative
Comment: registered in RIKEN PlaSMA
Num Peaks: 5
182.0518	686
182.06285	714
184.05737	514
197.07858	1000
253.06609	543

NAME: Mitragynine
PRECURSORMZ: 443.21876035183
PRECURSORTYPE: [M+FA-H]-
INSTRUMENTTYPE: LC-ESI-QTOF
SMILES: CCC1CN2CCC3=C(NC4=C3C(OC)=CC=C4)C2CC1C(=COC)C(=O)OC
INCHIKEY: LELBFTMXCIIKKX-UHFFFAOYNA-N
Ontology: Corynanthean-type alkaloids
COLLISIONENERGY: 50
FORMULA: C23H30N2O4
RETENTIONTIME: 5.513517
IONMODE: Negative
Comment: registered in RIKEN PlaSMA
Num Peaks: 2
171.07332	952
351.17834	1000

NAME: Ethylbeta-carboline
PRECURSORMZ: 195.09277194783
PRECURSORTYPE: [M-H]-
INSTRUMENTTYPE: LC-ESI-QTOF
SMILES: CCC1=NC=CC2=C1NC1=CC=CC=C21
INCHIKEY: YTQRHYCHEIXUIU-UHFFFAOYSA-N
Ontology: Harmala alkaloids
COLLISIONENERGY: 10
FORMULA: C13H12N2
RETENTIONTIME: 3.9979
IONMODE: Negative
Comment: registered in RIKEN PlaSMA
Num Peaks: 5
180.06915	441
181.07004	20
181.07805	19
193.07329	20
195.09163	1000

NAME: Germinaline
PRECURSORMZ: 750.40701454783
PRECURSORTYPE: [M-H]-
INSTRUMENTTYPE: LC-ESI-QTOF
SMILES: CCC(C)C(=O)OC1C(O)C2C(CN3CC(C)CCC3C2(C)O)C2CC34OC5(O)C(CC(O)C3C12O)C4(C)CCC5OC(=O)C(C)(O)C(C)OC(C)=O
INCHIKEY: CPINTEKYWNYXNP-UHFFFAOYNA-N
Ontology: Cerveratrum-type alkaloids
COLLISIONENERGY: 10
FORMULA: C39H61NO13
RETENTIONTIME: 5.103483
IONMODE: Negative
Comment: registered in RIKEN PlaSMA
Num Peaks: 9
59.0119	10
59.01695	6
175.06044	1000
176.06055	28
176.06697	49
177.06476	10
525.43494	6
750.38318	28
750.41669	62

NAME: Mitragynine
PRECURSORMZ: 397.21328104783
PRECURSORTYPE: [M-H]-
INSTRUMENTTYPE: LC-ESI-QTOF
SMILES: CCC1CN2CCC3=C(NC4=C3C(OC)=CC=C4)C2CC1C(=COC)C(=O)OC
INCHIKEY: LELBFTMXCIIKKX-UHFFFAOYNA-N
Ontology: Corynanthean-type alkaloids
COLLISIONENERGY: 10
FORMULA: C23H30N2O4
RETENTIONTIME: 5.513517
IONMODE: Negative
Comment: registered in RIKEN PlaSMA
Num Peaks: 12
199.09662	207
237.07426	304
253.10034	250
279.06693	250
282.13519	272
309.11362	228
350.1564	446
365.17902	587
366.18964	239
367.16647	228
397.16895	228
397.20605	1000

NAME: Mitragynine
PRECURSORMZ: 443.21876035183
PRECURSORTYPE: [M+FA-H]-
INSTRUMENTTYPE: LC-ESI-QTOF
SMILES: CCC1CN2CCC3=C(NC4=C3C(OC)=CC=C4)C2CC1C(=COC)C(=O)OC
INCHIKEY: LELBFTMXCIIKKX-UHFFFAOYNA-N
Ontology: Corynanthean-type alkaloids
COLLISIONENERGY: 10
FORMULA: C23H30N2O4
RETENTIONTIME: 5.513517
IONMODE: Negative
Comment: registered in RIKEN PlaSMA
Num Peaks: 3
98.96043	792
219.96239	833
398.21017	1000

NAME: Ethylbeta-carboline
PRECURSORMZ: 195.09277194783
PRECURSORTYPE: [M-H]-
INSTRUMENTTYPE: LC-ESI-QTOF
SMILES: CCC1=NC=CC2=C1NC1=CC=CC=C21
INCHIKEY: YTQRHYCHEIXUIU-UHFFFAOYSA-N
Ontology: Harmala alkaloids
COLLISIONENERGY: 10
FORMULA: C13H12N2
RETENTIONTIME: 3.9979
IONMODE: Negative
Comment: registered in RIKEN PlaSMA
Num Peaks: 2
180.06801	59
195.093	1000

NAME: Germinaline
PRECURSORMZ: 750.40701454783
PRECURSORTYPE: [M-H]-
INSTRUMENTTYPE: LC-ESI-QTOF
SMILES: CCC(C)C(=O)OC1C(O)C2C(CN3CC(C)CCC3C2(C)O)C2CC34OC5(O)C(CC(O)C3C12O)C4(C)CCC5OC(=O)C(C)(O)C(C)OC(C)=O
INCHIKEY: CPINTEKYWNYXNP-UHFFFAOYNA-N
Ontology: Cerveratrum-type alkaloids
COLLISIONENERGY: 10
FORMULA: C39H61NO13
RETENTIONTIME: 5.103483
IONMODE: Negative
Comment: registered in RIKEN PlaSMA
Num Peaks: 4
175.06006	1000
176.06677	51
177.06635	19
750.40808	125

NAME: Germinaline
PRECURSORMZ: 796.41249385183
PRECURSORTYPE: [M+FA-H]-
INSTRUMENTTYPE: LC-ESI-QTOF
SMILES: CCC(C)C(=O)OC1C(O)C2C(CN3CC(C)CCC3C2(C)O)C2CC34OC5(O)C(CC(O)C3C12O)C4(C)CCC5OC(=O)C(C)(O)C(C)OC(C)=O
INCHIKEY: CPINTEKYWNYXNP-UHFFFAOYNA-N
Ontology: Cerveratrum-type alkaloids
COLLISIONENERGY: 10
FORMULA: C39H61NO13
RETENTIONTIME: 5.103483
IONMODE: Negative
Comment: registered in RIKEN PlaSMA
Num Peaks: 4
175.05995	1000
750.4082	670
751.39777	146
752.42065	245

NAME: Mitragynine
PRECURSORMZ: 397.21328104783
PRECURSORTYPE: [M-H]-
INSTRUMENTTYPE: LC-ESI-QTOF
SMILES: CCC1CN2CCC3=C(NC4=C3C(OC)=CC=C4)C2CC1C(=COC)C(=O)OC
INCHIKEY: LELBFTMXCIIKKX-UHFFFAOYNA-N
Ontology: Corynanthean-type alkaloids
COLLISIONENERGY: 10
FORMULA: C23H30N2O4
RETENTIONTIME: 5.513517
IONMODE: Negative
Comment: registered in RIKEN PlaSMA
Num Peaks: 9
308.16138	76
350.15857	80
365.18274	688
366.19077	165
367.1875	97
382.18942	97
397.17047	1000
397.19269	105
397.21384	346

NAME: Mitragynine
PRECURSORMZ: 443.21876035183
PRECURSORTYPE: [M+FA-H]-
INSTRUMENTTYPE: LC-ESI-QTOF
SMILES: CCC1CN2CCC3=C(NC4=C3C(OC)=CC=C4)C2CC1C(=COC)C(=O)OC
INCHIKEY: LELBFTMXCIIKKX-UHFFFAOYNA-N
Ontology: Corynanthean-type alkaloids
COLLISIONENERGY: 10
FORMULA: C23H30N2O4
RETENTIONTIME: 5.513517
IONMODE: Negative
Comment: registered in RIKEN PlaSMA
Num Peaks: 2
397.2092	1000
443.17447	535

NAME: Ethylbeta-carboline
PRECURSORMZ: 195.09277194783
PRECURSORTYPE: [M-H]-
INSTRUMENTTYPE: LC-ESI-QTOF
SMILES: CCC1=NC=CC2=C1NC1=CC=CC=C21
INCHIKEY: YTQRHYCHEIXUIU-UHFFFAOYSA-N
Ontology: Harmala alkaloids
COLLISIONENERGY: 30
FORMULA: C13H12N2
RETENTIONTIME: 3.9979
IONMODE: Negative
Comment: registered in RIKEN PlaSMA
Num Peaks: 2
180.06837	1000
195.09123	157

NAME: Germinaline
PRECURSORMZ: 750.40701454783
PRECURSORTYPE: [M-H]-
INSTRUMENTTYPE: LC-ESI-QTOF
SMILES: CCC(C)C(=O)OC1C(O)C2C(CN3CC(C)CCC3C2(C)O)C2CC34OC5(O)C(CC(O)C3C12O)C4(C)CCC5OC(=O)C(C)(O)C(C)OC(C)=O
INCHIKEY: CPINTEKYWNYXNP-UHFFFAOYNA-N
Ontology: Cerveratrum-type alkaloids
COLLISIONENERGY: 30
FORMULA: C39H61NO13
RETENTIONTIME: 5.103483
IONMODE: Negative
Comment: registered in RIKEN PlaSMA
Num Peaks: 11
59.01361	24
60.01605	16
108.08358	10
115.03619	12
175.05989	1000
176.06033	25
176.06732	31
177.05415	9
177.06633	25
210.77754	7
467.06207	9

NAME: Mitragynine
PRECURSORMZ: 397.21328104783
PRECURSORTYPE: [M-H]-
INSTRUMENTTYPE: LC-ESI-QTOF
SMILES: CCC1CN2CCC3=C(NC4=C3C(OC)=CC=C4)C2CC1C(=COC)C(=O)OC
INCHIKEY: LELBFTMXCIIKKX-UHFFFAOYNA-N
Ontology: Corynanthean-type alkaloids
COLLISIONENERGY: 30
FORMULA: C23H30N2O4
RETENTIONTIME: 5.513517
IONMODE: Negative
Comment: registered in RIKEN PlaSMA
Num Peaks: 13
183.07289	1000
184.04141	579
184.07188	386
185.04578	333
235.06583	544
254.04239	316
279.09256	368
281.13339	386
293.07971	316
293.09204	316
318.14056	316
333.11307	561
381.16537	456

NAME: Mitragynine
PRECURSORMZ: 443.21876035183
PRECURSORTYPE: [M+FA-H]-
INSTRUMENTTYPE: LC-ESI-QTOF
SMILES: CCC1CN2CCC3=C(NC4=C3C(OC)=CC=C4)C2CC1C(=COC)C(=O)OC
INCHIKEY: LELBFTMXCIIKKX-UHFFFAOYNA-N
Ontology: Corynanthean-type alkaloids
COLLISIONENERGY: 30
FORMULA: C23H30N2O4
RETENTIONTIME: 5.513517
IONMODE: Negative
Comment: registered in RIKEN PlaSMA
Num Peaks: 1
173.08833	1000

NAME: Germinaline
PRECURSORMZ: 750.40701454783
PRECURSORTYPE: [M-H]-
INSTRUMENTTYPE: LC-ESI-QTOF
SMILES: CCC(C)C(=O)OC1C(O)C2C(CN3CC(C)CCC3C2(C)O)C2CC34OC5(O)C(CC(O)C3C12O)C4(C)CCC5OC(=O)C(C)(O)C(C)OC(C)=O
INCHIKEY: CPINTEKYWNYXNP-UHFFFAOYNA-N
Ontology: Cerveratrum-type alkaloids
COLLISIONENERGY: 50
FORMULA: C39H61NO13
RETENTIONTIME: 5.103483
IONMODE: Negative
Comment: registered in RIKEN PlaSMA
Num Peaks: 8
59.01247	1000
59.9557	81
60.01587	101
60.1212	73
115.03522	121
133.05263	105
175.06227	919
369.72574	93

NAME: Mitragynine
PRECURSORMZ: 397.21328104783
PRECURSORTYPE: [M-H]-
INSTRUMENTTYPE: LC-ESI-QTOF
SMILES: CCC1CN2CCC3=C(NC4=C3C(OC)=CC=C4)C2CC1C(=COC)C(=O)OC
INCHIKEY: LELBFTMXCIIKKX-UHFFFAOYNA-N
Ontology: Corynanthean-type alkaloids
COLLISIONENERGY: 50
FORMULA: C23H30N2O4
RETENTIONTIME: 5.513517
IONMODE: Negative
Comment: registered in RIKEN PlaSMA
Num Peaks: 5
143.05846	465
172.03401	465
183.05363	488
197.03743	488
197.07811	1000

NAME: Mitragynine
PRECURSORMZ: 443.21876035183
PRECURSORTYPE: [M+FA-H]-
INSTRUMENTTYPE: LC-ESI-QTOF
SMILES: CCC1CN2CCC3=C(NC4=C3C(OC)=CC=C4)C2CC1C(=COC)C(=O)OC
INCHIKEY: LELBFTMXCIIKKX-UHFFFAOYNA-N
Ontology: Corynanthean-type alkaloids
COLLISIONENERGY: 50
FORMULA: C23H30N2O4
RETENTIONTIME: 5.513517
IONMODE: Negative
Comment: registered in RIKEN PlaSMA
Num Peaks: 2
132.05219	621
233.07236	1000

NAME: Ethylbeta-carboline
PRECURSORMZ: 195.09277194783
PRECURSORTYPE: [M-H]-
INSTRUMENTTYPE: LC-ESI-QTOF
SMILES: CCC1=NC=CC2=C1NC1=CC=CC=C21
INCHIKEY: YTQRHYCHEIXUIU-UHFFFAOYSA-N
Ontology: Harmala alkaloids
COLLISIONENERGY: 10
FORMULA: C13H12N2
RETENTIONTIME: 3.9979
IONMODE: Negative
Comment: registered in RIKEN PlaSMA
Num Peaks: 6
179.89117	18
180.05493	18
180.07178	206
181.07112	21
181.07784	28
195.09155	1000

NAME: Germinaline
PRECURSORMZ: 750.40701454783
PRECURSORTYPE: [M-H]-
INSTRUMENTTYPE: LC-ESI-QTOF
SMILES: CCC(C)C(=O)OC1C(O)C2C(CN3CC(C)CCC3C2(C)O)C2CC34OC5(O)C(CC(O)C3C12O)C4(C)CCC5OC(=O)C(C)(O)C(C)OC(C)=O
INCHIKEY: CPINTEKYWNYXNP-UHFFFAOYNA-N
Ontology: Cerveratrum-type alkaloids
COLLISIONENERGY: 10
FORMULA: C39H61NO13
RETENTIONTIME: 5.103483
IONMODE: Negative
Comment: registered in RIKEN PlaSMA
Num Peaks: 8
59.01544	17
175.061	1000
176.06364	96
176.0768	13
177.06007	13
177.06944	6
750.39459	16
750.4278	49

NAME: Mitragynine
PRECURSORMZ: 397.21328104783
PRECURSORTYPE: [M-H]-
INSTRUMENTTYPE: LC-ESI-QTOF
SMILES: CCC1CN2CCC3=C(NC4=C3C(OC)=CC=C4)C2CC1C(=COC)C(=O)OC
INCHIKEY: LELBFTMXCIIKKX-UHFFFAOYNA-N
Ontology: Corynanthean-type alkaloids
COLLISIONENERGY: 10
FORMULA: C23H30N2O4
RETENTIONTIME: 5.513517
IONMODE: Negative
Comment: registered in RIKEN PlaSMA
Num Peaks: 10
127.04073	165
172.07497	157
222.05612	149
223.08595	174
279.07977	198
307.18979	215
309.12195	182
365.17334	198
397.16824	149
397.21115	1000

NAME: Mitragynine
PRECURSORMZ: 443.21876035183
PRECURSORTYPE: [M+FA-H]-
INSTRUMENTTYPE: LC-ESI-QTOF
SMILES: CCC1CN2CCC3=C(NC4=C3C(OC)=CC=C4)C2CC1C(=COC)C(=O)OC
INCHIKEY: LELBFTMXCIIKKX-UHFFFAOYNA-N
Ontology: Corynanthean-type alkaloids
COLLISIONENERGY: 10
FORMULA: C23H30N2O4
RETENTIONTIME: 5.513517
IONMODE: Negative
Comment: registered in RIKEN PlaSMA
Num Peaks: 2
397.20441	1000
398.19073	400

NAME: Ethylbeta-carboline
PRECURSORMZ: 195.09277194783
PRECURSORTYPE: [M-H]-
INSTRUMENTTYPE: LC-ESI-QTOF
SMILES: CCC1=NC=CC2=C1NC1=CC=CC=C21
INCHIKEY: YTQRHYCHEIXUIU-UHFFFAOYSA-N
Ontology: Harmala alkaloids
COLLISIONENERGY: 10
FORMULA: C13H12N2
RETENTIONTIME: 3.9979
IONMODE: Negative
Comment: registered in RIKEN PlaSMA
Num Peaks: 7
121.36079	20
162.84036	6
180.06837	76
180.07585	22
184.42921	7
188.304	8
195.09183	1000

NAME: Germinaline
PRECURSORMZ: 750.40701454783
PRECURSORTYPE: [M-H]-
INSTRUMENTTYPE: LC-ESI-QTOF
SMILES: CCC(C)C(=O)OC1C(O)C2C(CN3CC(C)CCC3C2(C)O)C2CC34OC5(O)C(CC(O)C3C12O)C4(C)CCC5OC(=O)C(C)(O)C(C)OC(C)=O
INCHIKEY: CPINTEKYWNYXNP-UHFFFAOYNA-N
Ontology: Cerveratrum-type alkaloids
COLLISIONENERGY: 10
FORMULA: C39H61NO13
RETENTIONTIME: 5.103483
IONMODE: Negative
Comment: registered in RIKEN PlaSMA
Num Peaks: 4
175.06116	1000
176.06352	64
177.06081	9
750.40637	109

NAME: Germinaline
PRECURSORMZ: 796.41249385183
PRECURSORTYPE: [M+FA-H]-
INSTRUMENTTYPE: LC-ESI-QTOF
SMILES: CCC(C)C(=O)OC1C(O)C2C(CN3CC(C)CCC3C2(C)O)C2CC34OC5(O)C(CC(O)C3C12O)C4(C)CCC5OC(=O)C(C)(O)C(C)OC(C)=O
INCHIKEY: CPINTEKYWNYXNP-UHFFFAOYNA-N
Ontology: Cerveratrum-type alkaloids
COLLISIONENERGY: 10
FORMULA: C39H61NO13
RETENTIONTIME: 5.103483
IONMODE: Negative
Comment: registered in RIKEN PlaSMA
Num Peaks: 11
175.05429	410
175.06087	1000
503.52527	85
515.3689	99
750.40424	472
751.38354	113
751.41766	514
752.39844	94
752.43207	94
753.41455	85
796.39783	99

NAME: Mitragynine
PRECURSORMZ: 397.21328104783
PRECURSORTYPE: [M-H]-
INSTRUMENTTYPE: LC-ESI-QTOF
SMILES: CCC1CN2CCC3=C(NC4=C3C(OC)=CC=C4)C2CC1C(=COC)C(=O)OC
INCHIKEY: LELBFTMXCIIKKX-UHFFFAOYNA-N
Ontology: Corynanthean-type alkaloids
COLLISIONENERGY: 10
FORMULA: C23H30N2O4
RETENTIONTIME: 5.513517
IONMODE: Negative
Comment: registered in RIKEN PlaSMA
Num Peaks: 11
309.12518	43
334.1622	60
350.15457	48
365.15558	51
365.18488	222
365.20334	58
366.17966	43
366.21005	87
367.14267	43
397.1777	466
397.21173	1000

NAME: Mitragynine
PRECURSORMZ: 443.21876035183
PRECURSORTYPE: [M+FA-H]-
INSTRUMENTTYPE: LC-ESI-QTOF
SMILES: CCC1CN2CCC3=C(NC4=C3C(OC)=CC=C4)C2CC1C(=COC)C(=O)OC
INCHIKEY: LELBFTMXCIIKKX-UHFFFAOYNA-N
Ontology: Corynanthean-type alkaloids
COLLISIONENERGY: 10
FORMULA: C23H30N2O4
RETENTIONTIME: 5.513517
IONMODE: Negative
Comment: registered in RIKEN PlaSMA
Num Peaks: 3
397.21393	1000
397.22592	500
443.22223	306

NAME: Ethylbeta-carboline
PRECURSORMZ: 195.09277194783
PRECURSORTYPE: [M-H]-
INSTRUMENTTYPE: LC-ESI-QTOF
SMILES: CCC1=NC=CC2=C1NC1=CC=CC=C21
INCHIKEY: YTQRHYCHEIXUIU-UHFFFAOYSA-N
Ontology: Harmala alkaloids
COLLISIONENERGY: 30
FORMULA: C13H12N2
RETENTIONTIME: 3.9979
IONMODE: Negative
Comment: registered in RIKEN PlaSMA
Num Peaks: 2
180.06932	1000
181.0752	121

NAME: Germinaline
PRECURSORMZ: 750.40701454783
PRECURSORTYPE: [M-H]-
INSTRUMENTTYPE: LC-ESI-QTOF
SMILES: CCC(C)C(=O)OC1C(O)C2C(CN3CC(C)CCC3C2(C)O)C2CC34OC5(O)C(CC(O)C3C12O)C4(C)CCC5OC(=O)C(C)(O)C(C)OC(C)=O
INCHIKEY: CPINTEKYWNYXNP-UHFFFAOYNA-N
Ontology: Cerveratrum-type alkaloids
COLLISIONENERGY: 30
FORMULA: C39H61NO13
RETENTIONTIME: 5.103483
IONMODE: Negative
Comment: registered in RIKEN PlaSMA
Num Peaks: 6
59.0119	76
71.04791	8
140.23669	7
175.06056	1000
176.06325	70
177.06819	13

NAME: Mitragynine
PRECURSORMZ: 397.21328104783
PRECURSORTYPE: [M-H]-
INSTRUMENTTYPE: LC-ESI-QTOF
SMILES: CCC1CN2CCC3=C(NC4=C3C(OC)=CC=C4)C2CC1C(=COC)C(=O)OC
INCHIKEY: LELBFTMXCIIKKX-UHFFFAOYNA-N
Ontology: Corynanthean-type alkaloids
COLLISIONENERGY: 30
FORMULA: C23H30N2O4
RETENTIONTIME: 5.513517
IONMODE: Negative
Comment: registered in RIKEN PlaSMA
Num Peaks: 7
143.07059	321
155.33484	357
172.0307	393
196.0703	446
263.07932	1000
294.08209	357
318.12341	321

NAME: Mitragynine
PRECURSORMZ: 443.21876035183
PRECURSORTYPE: [M+FA-H]-
INSTRUMENTTYPE: LC-ESI-QTOF
SMILES: CCC1CN2CCC3=C(NC4=C3C(OC)=CC=C4)C2CC1C(=COC)C(=O)OC
INCHIKEY: LELBFTMXCIIKKX-UHFFFAOYNA-N
Ontology: Corynanthean-type alkaloids
COLLISIONENERGY: 30
FORMULA: C23H30N2O4
RETENTIONTIME: 5.513517
IONMODE: Negative
Comment: registered in RIKEN PlaSMA
Num Peaks: 1
174.05693	1000

NAME: Ethylbeta-carboline
PRECURSORMZ: 195.09277194783
PRECURSORTYPE: [M-H]-
INSTRUMENTTYPE: LC-ESI-QTOF
SMILES: CCC1=NC=CC2=C1NC1=CC=CC=C21
INCHIKEY: YTQRHYCHEIXUIU-UHFFFAOYSA-N
Ontology: Harmala alkaloids
COLLISIONENERGY: 50
FORMULA: C13H12N2
RETENTIONTIME: 3.9979
IONMODE: Negative
Comment: registered in RIKEN PlaSMA
Num Peaks: 1
137.01486	1000

NAME: Germinaline
PRECURSORMZ: 750.40701454783
PRECURSORTYPE: [M-H]-
INSTRUMENTTYPE: LC-ESI-QTOF
SMILES: CCC(C)C(=O)OC1C(O)C2C(CN3CC(C)CCC3C2(C)O)C2CC34OC5(O)C(CC(O)C3C12O)C4(C)CCC5OC(=O)C(C)(O)C(C)OC(C)=O
INCHIKEY: CPINTEKYWNYXNP-UHFFFAOYNA-N
Ontology: Cerveratrum-type alkaloids
COLLISIONENERGY: 50
FORMULA: C39H61NO13
RETENTIONTIME: 5.103483
IONMODE: Negative
Comment: registered in RIKEN PlaSMA
Num Peaks: 5
59.01103	176
59.01743	133
60.01511	127
175.06201	1000
472.77103	61

NAME: Mitragynine
PRECURSORMZ: 397.21328104783
PRECURSORTYPE: [M-H]-
INSTRUMENTTYPE: LC-ESI-QTOF
SMILES: CCC1CN2CCC3=C(NC4=C3C(OC)=CC=C4)C2CC1C(=COC)C(=O)OC
INCHIKEY: LELBFTMXCIIKKX-UHFFFAOYNA-N
Ontology: Corynanthean-type alkaloids
COLLISIONENERGY: 50
FORMULA: C23H30N2O4
RETENTIONTIME: 5.513517
IONMODE: Negative
Comment: registered in RIKEN PlaSMA
Num Peaks: 3
169.06787	628
183.05643	1000
208.0762	488

NAME: Mitragynine
PRECURSORMZ: 443.21876035183
PRECURSORTYPE: [M+FA-H]-
INSTRUMENTTYPE: LC-ESI-QTOF
SMILES: CCC1CN2CCC3=C(NC4=C3C(OC)=CC=C4)C2CC1C(=COC)C(=O)OC
INCHIKEY: LELBFTMXCIIKKX-UHFFFAOYNA-N
Ontology: Corynanthean-type alkaloids
COLLISIONENERGY: 50
FORMULA: C23H30N2O4
RETENTIONTIME: 5.513517
IONMODE: Negative
Comment: registered in RIKEN PlaSMA
Num Peaks: 3
178.01015	526
183.07051	1000
286.29718	789

NAME: alpha-Chaconine
PRECURSORMZ: 850.49582954783
PRECURSORTYPE: [M-H]-
INSTRUMENTTYPE: LC-ESI-QTOF
SMILES: CC1C2CCC(C)CN2C2CC3C4CC=C5CC(CCC5(C)C4CCC3(C)C12)OC1OC(CO)C(OC2OC(C)C(O)C(O)C2O)C(O)C1OC1OC(C)C(O)C(O)C1O
INCHIKEY: TYNQWWGVEGFKRU-UHFFFAOYNA-N
Ontology: Steroidal saponins
COLLISIONENERGY: 10
FORMULA: C45H73NO14
RETENTIONTIME: 5.0105
IONMODE: Negative
Comment: registered in RIKEN PlaSMA
Num Peaks: 13
107.03516	34
119.03704	35
127.03696	45
131.03105	53
163.06174	38
179.0623	34
413.55441	45
560.35858	38
704.4093	30
704.43616	80
705.43109	32
705.45978	66
850.49048	1000

NAME: alpha-Chaconine
PRECURSORMZ: 896.50130885183
PRECURSORTYPE: [M+FA-H]-
INSTRUMENTTYPE: LC-ESI-QTOF
SMILES: CC1C2CCC(C)CN2C2CC3C4CC=C5CC(CCC5(C)C4CCC3(C)C12)OC1OC(CO)C(OC2OC(C)C(O)C(O)C2O)C(O)C1OC1OC(C)C(O)C(O)C1O
INCHIKEY: TYNQWWGVEGFKRU-UHFFFAOYNA-N
Ontology: Steroidal saponins
COLLISIONENERGY: 10
FORMULA: C45H73NO14
RETENTIONTIME: 5.0105
IONMODE: Negative
Comment: registered in RIKEN PlaSMA
Num Peaks: 24
89.02292	26
103.04348	6
119.03351	27
131.03464	7
143.03311	16
143.0392	6
161.04689	10
163.0546	14
163.06157	37
179.05356	14
205.06796	5
247.07883	16
558.38727	6
575.25885	5
704.43994	147
705.43591	80
707.46967	7
850.49451	1000
851.50012	517
852.48792	71
852.51367	67
853.50763	23
854.52002	5
896.50165	321

NAME: alpha-Chaconine
PRECURSORMZ: 850.49582954783
PRECURSORTYPE: [M-H]-
INSTRUMENTTYPE: LC-ESI-QTOF
SMILES: CC1C2CCC(C)CN2C2CC3C4CC=C5CC(CCC5(C)C4CCC3(C)C12)OC1OC(CO)C(OC2OC(C)C(O)C(O)C2O)C(O)C1OC1OC(C)C(O)C(O)C1O
INCHIKEY: TYNQWWGVEGFKRU-UHFFFAOYNA-N
Ontology: Steroidal saponins
COLLISIONENERGY: 10
FORMULA: C45H73NO14
RETENTIONTIME: 5.0105
IONMODE: Negative
Comment: registered in RIKEN PlaSMA
Num Peaks: 7
403.97525	24
438.91275	20
459.14957	38
633.39435	23
816.66803	20
850.49084	1000
850.63995	23

NAME: alpha-Chaconine
PRECURSORMZ: 896.50130885183
PRECURSORTYPE: [M+FA-H]-
INSTRUMENTTYPE: LC-ESI-QTOF
SMILES: CC1C2CCC(C)CN2C2CC3C4CC=C5CC(CCC5(C)C4CCC3(C)C12)OC1OC(CO)C(OC2OC(C)C(O)C(O)C2O)C(O)C1OC1OC(C)C(O)C(O)C1O
INCHIKEY: TYNQWWGVEGFKRU-UHFFFAOYNA-N
Ontology: Steroidal saponins
COLLISIONENERGY: 10
FORMULA: C45H73NO14
RETENTIONTIME: 5.0105
IONMODE: Negative
Comment: registered in RIKEN PlaSMA
Num Peaks: 11
581.8241	6
850.49225	596
851.49597	298
852.49207	29
852.51636	63
853.47302	6
853.48877	12
853.51538	10
853.53882	5
854.51367	6
896.49957	1000

NAME: alpha-Chaconine
PRECURSORMZ: 850.49582954783
PRECURSORTYPE: [M-H]-
INSTRUMENTTYPE: LC-ESI-QTOF
SMILES: CC1C2CCC(C)CN2C2CC3C4CC=C5CC(CCC5(C)C4CCC3(C)C12)OC1OC(CO)C(OC2OC(C)C(O)C(O)C2O)C(O)C1OC1OC(C)C(O)C(O)C1O
INCHIKEY: TYNQWWGVEGFKRU-UHFFFAOYNA-N
Ontology: Steroidal saponins
COLLISIONENERGY: 30
FORMULA: C45H73NO14
RETENTIONTIME: 5.0105
IONMODE: Negative
Comment: registered in RIKEN PlaSMA
Num Peaks: 27
71.01376	33
85.02904	63
101.02141	208
102.02937	35
119.03777	39
143.02139	33
143.03111	99
145.04799	48
161.04678	33
163.0531	33
163.05884	53
163.06703	70
164.06477	35
179.05386	37
247.08228	70
380.29355	39
492.3306	35
611.4256	37
704.44177	1000
705.41388	46
705.43652	122
705.45929	35
705.49353	33
834.47058	37
850.44342	39
850.48798	547
850.52991	42

NAME: alpha-Chaconine
PRECURSORMZ: 850.49582954783
PRECURSORTYPE: [M-H]-
INSTRUMENTTYPE: LC-ESI-QTOF
SMILES: CC1C2CCC(C)CN2C2CC3C4CC=C5CC(CCC5(C)C4CCC3(C)C12)OC1OC(CO)C(OC2OC(C)C(O)C(O)C2O)C(O)C1OC1OC(C)C(O)C(O)C1O
INCHIKEY: TYNQWWGVEGFKRU-UHFFFAOYNA-N
Ontology: Steroidal saponins
COLLISIONENERGY: 10
FORMULA: C45H73NO14
RETENTIONTIME: 5.0105
IONMODE: Negative
Comment: registered in RIKEN PlaSMA
Num Peaks: 13
103.03703	93
115.03841	24
119.03135	54
120.0375	25
143.03149	45
161.05046	25
205.0603	25
494.36209	22
704.43066	161
704.46344	23
705.48584	25
707.44904	35
850.49512	1000

NAME: alpha-Chaconine
PRECURSORMZ: 850.49582954783
PRECURSORTYPE: [M-H]-
INSTRUMENTTYPE: LC-ESI-QTOF
SMILES: CC1C2CCC(C)CN2C2CC3C4CC=C5CC(CCC5(C)C4CCC3(C)C12)OC1OC(CO)C(OC2OC(C)C(O)C(O)C2O)C(O)C1OC1OC(C)C(O)C(O)C1O
INCHIKEY: TYNQWWGVEGFKRU-UHFFFAOYNA-N
Ontology: Steroidal saponins
COLLISIONENERGY: 10
FORMULA: C45H73NO14
RETENTIONTIME: 5.0105
IONMODE: Negative
Comment: registered in RIKEN PlaSMA
Num Peaks: 2
119.0321	23
850.49603	1000

NAME: alpha-Chaconine
PRECURSORMZ: 896.50130885183
PRECURSORTYPE: [M+FA-H]-
INSTRUMENTTYPE: LC-ESI-QTOF
SMILES: CC1C2CCC(C)CN2C2CC3C4CC=C5CC(CCC5(C)C4CCC3(C)C12)OC1OC(CO)C(OC2OC(C)C(O)C(O)C2O)C(O)C1OC1OC(C)C(O)C(O)C1O
INCHIKEY: TYNQWWGVEGFKRU-UHFFFAOYNA-N
Ontology: Steroidal saponins
COLLISIONENERGY: 10
FORMULA: C45H73NO14
RETENTIONTIME: 5.0105
IONMODE: Negative
Comment: registered in RIKEN PlaSMA
Num Peaks: 5
850.49323	535
851.49774	272
852.50232	58
853.50085	6
896.49713	1000

NAME: alpha-Chaconine
PRECURSORMZ: 850.49582954783
PRECURSORTYPE: [M-H]-
INSTRUMENTTYPE: LC-ESI-QTOF
SMILES: CC1C2CCC(C)CN2C2CC3C4CC=C5CC(CCC5(C)C4CCC3(C)C12)OC1OC(CO)C(OC2OC(C)C(O)C(O)C2O)C(O)C1OC1OC(C)C(O)C(O)C1O
INCHIKEY: TYNQWWGVEGFKRU-UHFFFAOYNA-N
Ontology: Steroidal saponins
COLLISIONENERGY: 30
FORMULA: C45H73NO14
RETENTIONTIME: 5.0105
IONMODE: Negative
Comment: registered in RIKEN PlaSMA
Num Peaks: 37
61.02816	55
71.02114	46
85.02879	42
89.02703	42
101.0245	162
113.02161	44
115.0431	42
119.03327	90
131.03497	44
143.02548	55
143.036	151
145.05157	40
161.03786	46
161.04514	42
163.05965	109
163.06889	92
172.57857	38
205.07187	82
217.06778	74
247.07941	48
247.09285	53
414.46393	38
451.10153	57
492.35074	38
558.40399	46
558.58569	42
704.43555	1000
704.49677	44
705.41602	124
705.44019	399
705.4809	38
706.42981	78
706.47205	61
706.54095	42
850.45654	74
850.48108	88
850.53198	78

NAME: alpha-Chaconine
PRECURSORMZ: 850.49582954783
PRECURSORTYPE: [M-H]-
INSTRUMENTTYPE: LC-ESI-QTOF
SMILES: CC1C2CCC(C)CN2C2CC3C4CC=C5CC(CCC5(C)C4CCC3(C)C12)OC1OC(CO)C(OC2OC(C)C(O)C(O)C2O)C(O)C1OC1OC(C)C(O)C(O)C1O
INCHIKEY: TYNQWWGVEGFKRU-UHFFFAOYNA-N
Ontology: Steroidal saponins
COLLISIONENERGY: 50
FORMULA: C45H73NO14
RETENTIONTIME: 5.0105
IONMODE: Negative
Comment: registered in RIKEN PlaSMA
Num Peaks: 18
55.01941	159
59.01168	232
71.0135	297
85.0284	174
86.03049	174
89.02326	580
99.01142	167
101.02503	1000
103.04636	181
113.02394	420
119.03472	181
119.04033	239
131.46645	145
134.79021	130
142.02489	145
143.03299	130
143.03923	196
205.07312	138

NAME: alpha-Chaconine
PRECURSORMZ: 850.49582954783
PRECURSORTYPE: [M-H]-
INSTRUMENTTYPE: LC-ESI-QTOF
SMILES: CC1C2CCC(C)CN2C2CC3C4CC=C5CC(CCC5(C)C4CCC3(C)C12)OC1OC(CO)C(OC2OC(C)C(O)C(O)C2O)C(O)C1OC1OC(C)C(O)C(O)C1O
INCHIKEY: TYNQWWGVEGFKRU-UHFFFAOYNA-N
Ontology: Steroidal saponins
COLLISIONENERGY: 10
FORMULA: C45H73NO14
RETENTIONTIME: 5.0105
IONMODE: Negative
Comment: registered in RIKEN PlaSMA
Num Peaks: 17
85.24724	36
89.02383	32
132.03633	30
163.05595	30
163.06445	84
179.05916	27
205.07422	71
247.08464	89
492.33997	36
579.75311	30
603.56018	39
624.53442	47
704.43213	153
704.6413	29
705.42456	45
705.47498	27
850.49689	1000

NAME: alpha-Chaconine
PRECURSORMZ: 896.50130885183
PRECURSORTYPE: [M+FA-H]-
INSTRUMENTTYPE: LC-ESI-QTOF
SMILES: CC1C2CCC(C)CN2C2CC3C4CC=C5CC(CCC5(C)C4CCC3(C)C12)OC1OC(CO)C(OC2OC(C)C(O)C(O)C2O)C(O)C1OC1OC(C)C(O)C(O)C1O
INCHIKEY: TYNQWWGVEGFKRU-UHFFFAOYNA-N
Ontology: Steroidal saponins
COLLISIONENERGY: 10
FORMULA: C45H73NO14
RETENTIONTIME: 5.0105
IONMODE: Negative
Comment: registered in RIKEN PlaSMA
Num Peaks: 26
59.01242	7
89.02426	6
101.02225	12
103.03993	15
119.03458	18
143.03664	13
149.04338	8
161.04483	7
163.06055	35
179.05789	24
205.07384	13
247.07756	16
416.26208	6
492.35681	7
558.38416	8
704.4386	207
705.4389	81
706.42639	7
706.45941	5
850.49268	1000
851.49841	485
852.50177	139
853.49194	17
853.51984	20
854.50366	8
896.49677	336

NAME: alpha-Chaconine
PRECURSORMZ: 850.49582954783
PRECURSORTYPE: [M-H]-
INSTRUMENTTYPE: LC-ESI-QTOF
SMILES: CC1C2CCC(C)CN2C2CC3C4CC=C5CC(CCC5(C)C4CCC3(C)C12)OC1OC(CO)C(OC2OC(C)C(O)C(O)C2O)C(O)C1OC1OC(C)C(O)C(O)C1O
INCHIKEY: TYNQWWGVEGFKRU-UHFFFAOYNA-N
Ontology: Steroidal saponins
COLLISIONENERGY: 10
FORMULA: C45H73NO14
RETENTIONTIME: 5.0105
IONMODE: Negative
Comment: registered in RIKEN PlaSMA
Num Peaks: 4
279.88339	27
476.78012	16
850.49292	1000
850.53833	46

NAME: alpha-Chaconine
PRECURSORMZ: 896.50130885183
PRECURSORTYPE: [M+FA-H]-
INSTRUMENTTYPE: LC-ESI-QTOF
SMILES: CC1C2CCC(C)CN2C2CC3C4CC=C5CC(CCC5(C)C4CCC3(C)C12)OC1OC(CO)C(OC2OC(C)C(O)C(O)C2O)C(O)C1OC1OC(C)C(O)C(O)C1O
INCHIKEY: TYNQWWGVEGFKRU-UHFFFAOYNA-N
Ontology: Steroidal saponins
COLLISIONENERGY: 10
FORMULA: C45H73NO14
RETENTIONTIME: 5.0105
IONMODE: Negative
Comment: registered in RIKEN PlaSMA
Num Peaks: 7
850.49365	620
851.50043	279
852.50311	74
853.46393	8
853.48749	10
853.51593	7
896.50244	1000

NAME: alpha-Chaconine
PRECURSORMZ: 850.49582954783
PRECURSORTYPE: [M-H]-
INSTRUMENTTYPE: LC-ESI-QTOF
SMILES: CC1C2CCC(C)CN2C2CC3C4CC=C5CC(CCC5(C)C4CCC3(C)C12)OC1OC(CO)C(OC2OC(C)C(O)C(O)C2O)C(O)C1OC1OC(C)C(O)C(O)C1O
INCHIKEY: TYNQWWGVEGFKRU-UHFFFAOYNA-N
Ontology: Steroidal saponins
COLLISIONENERGY: 30
FORMULA: C45H73NO14
RETENTIONTIME: 5.0105
IONMODE: Negative
Comment: registered in RIKEN PlaSMA
Num Peaks: 27
71.01339	59
85.03339	56
89.02267	146
89.02593	64
101.02504	356
103.03968	106
113.02425	56
119.03748	331
143.03139	50
145.0518	118
161.04335	106
163.05482	50
163.06482	115
164.06558	106
179.06007	50
205.07516	199
213.05304	90
247.08923	56
289.09094	64
686.42822	56
704.44043	1000
705.44543	431
706.41876	56
706.44427	196
708.25806	50
850.47656	193
850.5116	437

NAME: alpha-Chaconine
PRECURSORMZ: 850.49582954783
PRECURSORTYPE: [M-H]-
INSTRUMENTTYPE: LC-ESI-QTOF
SMILES: CC1C2CCC(C)CN2C2CC3C4CC=C5CC(CCC5(C)C4CCC3(C)C12)OC1OC(CO)C(OC2OC(C)C(O)C(O)C2O)C(O)C1OC1OC(C)C(O)C(O)C1O
INCHIKEY: TYNQWWGVEGFKRU-UHFFFAOYNA-N
Ontology: Steroidal saponins
COLLISIONENERGY: 50
FORMULA: C45H73NO14
RETENTIONTIME: 5.0105
IONMODE: Negative
Comment: registered in RIKEN PlaSMA
Num Peaks: 17
59.01183	117
73.02715	101
81.03098	134
85.02893	162
85.03422	134
89.02412	726
91.02951	112
98.02854	112
101.02417	1000
103.04087	123
113.02379	648
119.03598	369
131.03993	128
131.05441	117
143.03378	134
179.05228	101
205.07291	285

NAME: alpha-Chaconine
PRECURSORMZ: 896.50130885183
PRECURSORTYPE: [M+FA-H]-
INSTRUMENTTYPE: LC-ESI-QTOF
SMILES: CC1C2CCC(C)CN2C2CC3C4CC=C5CC(CCC5(C)C4CCC3(C)C12)OC1OC(CO)C(OC2OC(C)C(O)C(O)C2O)C(O)C1OC1OC(C)C(O)C(O)C1O
INCHIKEY: TYNQWWGVEGFKRU-UHFFFAOYNA-N
Ontology: Steroidal saponins
COLLISIONENERGY: 50
FORMULA: C45H73NO14
RETENTIONTIME: 5.0105
IONMODE: Negative
Comment: registered in RIKEN PlaSMA
Num Peaks: 72
59.0127	162
65.53175	10
71.01364	221
72.82656	8
73.02909	90
83.01336	20
83.05081	16
85.02934	100
87.00154	9
87.00736	46
87.0433	11
88.65025	10
89.02367	756
90.02495	9
90.03123	10
97.02463	13
97.02911	42
99.00784	25
101.02376	1000
102.0293	53
103.04	188
103.76368	8
104.04314	17
109.03226	10
111.04761	9
113.02351	423
115.03804	34
115.04495	47
119.03449	407
120.03858	38
121.039	15
122.03014	11
123.51854	8
125.02193	17
125.02728	21
127.03887	20
131.03308	96
133.04341	9
143.03589	284
144.03841	27
145.04947	24
149.0421	36
159.02814	8
159.03529	16
161.04561	104
162.04848	11
163.06046	197
164.06786	10
168.04468	12
179.03107	11
179.04472	16
179.05713	20
205.07214	196
206.07611	21
219.63773	8
223.28624	9
247.07912	30
247.09296	10
248.08263	9
289.09393	16
396.32327	12
492.35217	8
493.35941	11
495.37509	15
558.38678	10
646.26239	8
647.98108	10
704.43201	69
704.45496	52
705.4342	34
850.48761	8
850.52032	10

NAME: Convolidine
PRECURSORMZ: 276.12413164783
PRECURSORTYPE: [M-H]-
INSTRUMENTTYPE: LC-ESI-QTOF
SMILES: COC1=C(O)C=CC(=C1)C(=O)OC1CC2CCC(C1)N2
INCHIKEY: GWWGRYGNRKFSSX-UHFFFAOYNA-N
Ontology: M-methoxybenzoic acids and derivatives
COLLISIONENERGY: 10
FORMULA: C15H19NO4
RETENTIONTIME: 3.2679
IONMODE: Negative
Comment: registered in RIKEN PlaSMA
Num Peaks: 14
107.0106	163
108.01981	56
122.03707	185
150.99738	150
151.005	221
152.00928	39
158.7818	34
166.02582	43
167.03635	161
222.65901	45
261.08929	155
261.10013	505
262.10416	176
276.12189	1000

NAME: Yohimbic Acid
PRECURSORMZ: 339.17141614783
PRECURSORTYPE: [M-H]-
INSTRUMENTTYPE: LC-ESI-QTOF
SMILES: OC1CCC2CN3CCC4=C(NC5=CC=CC=C45)C3CC2C1C(O)=O
INCHIKEY: AADVZSXPNRLYLV-UHFFFAOYNA-N
Ontology: Corynanthean-type alkaloids
COLLISIONENERGY: 10
FORMULA: C20H24N2O3
RETENTIONTIME: 3.814383
IONMODE: Negative
Comment: registered in RIKEN PlaSMA
Num Peaks: 38
121.06535	5
136.99245	7
138.09253	7
142.06755	12
143.07507	5
155.07115	17
155.07692	6
156.08092	10
169.08098	37
178.09363	10
179.09621	9
181.0692	5
183.08609	6
183.09561	15
196.09077	7
209.23022	7
210.11725	5
211.1151	8
212.11116	5
219.79266	5
221.10048	5
232.11659	7
233.10757	6
239.15674	6
249.12932	7
249.14468	6
267.14185	5
275.15286	7
277.17056	234
278.17505	23
293.16528	45
294.14886	6
294.16925	25
295.18286	85
296.18759	27
303.15033	10
321.16431	46
339.17123	1000

NAME: Convolidine
PRECURSORMZ: 276.12413164783
PRECURSORTYPE: [M-H]-
INSTRUMENTTYPE: LC-ESI-QTOF
SMILES: COC1=C(O)C=CC(=C1)C(=O)OC1CC2CCC(C1)N2
INCHIKEY: GWWGRYGNRKFSSX-UHFFFAOYNA-N
Ontology: M-methoxybenzoic acids and derivatives
COLLISIONENERGY: 10
FORMULA: C15H19NO4
RETENTIONTIME: 3.2679
IONMODE: Negative
Comment: registered in RIKEN PlaSMA
Num Peaks: 10
122.03973	15
123.04191	10
150.99884	10
151.01048	11
167.02914	11
261.10239	153
262.10532	11
263.11514	10
276.12289	1000
276.14343	22

NAME: Yohimbic Acid
PRECURSORMZ: 339.17141614783
PRECURSORTYPE: [M-H]-
INSTRUMENTTYPE: LC-ESI-QTOF
SMILES: OC1CCC2CN3CCC4=C(NC5=CC=CC=C45)C3CC2C1C(O)=O
INCHIKEY: AADVZSXPNRLYLV-UHFFFAOYNA-N
Ontology: Corynanthean-type alkaloids
COLLISIONENERGY: 10
FORMULA: C20H24N2O3
RETENTIONTIME: 3.814383
IONMODE: Negative
Comment: registered in RIKEN PlaSMA
Num Peaks: 3
277.17139	26
321.16165	12
339.1705	1000

NAME: Convolidine
PRECURSORMZ: 276.12413164783
PRECURSORTYPE: [M-H]-
INSTRUMENTTYPE: LC-ESI-QTOF
SMILES: COC1=C(O)C=CC(=C1)C(=O)OC1CC2CCC(C1)N2
INCHIKEY: GWWGRYGNRKFSSX-UHFFFAOYNA-N
Ontology: M-methoxybenzoic acids and derivatives
COLLISIONENERGY: 30
FORMULA: C15H19NO4
RETENTIONTIME: 3.2679
IONMODE: Negative
Comment: registered in RIKEN PlaSMA
Num Peaks: 11
79.01842	41
107.01299	1000
108.02038	47
109.02927	43
122.0293	54
122.03446	120
122.04144	36
151.00513	474
152.00696	99
167.02657	41
261.10019	104

NAME: Yohimbic Acid
PRECURSORMZ: 339.17141614783
PRECURSORTYPE: [M-H]-
INSTRUMENTTYPE: LC-ESI-QTOF
SMILES: OC1CCC2CN3CCC4=C(NC5=CC=CC=C45)C3CC2C1C(O)=O
INCHIKEY: AADVZSXPNRLYLV-UHFFFAOYNA-N
Ontology: Corynanthean-type alkaloids
COLLISIONENERGY: 30
FORMULA: C20H24N2O3
RETENTIONTIME: 3.814383
IONMODE: Negative
Comment: registered in RIKEN PlaSMA
Num Peaks: 81
60.99298	30
69.03266	18
116.04756	15
116.79018	15
123.01637	18
123.07907	16
123.86156	15
134.10881	17
142.06726	96
142.07542	20
143.0648	16
143.07393	55
144.07793	48
148.04279	18
155.06664	18
155.07515	62
155.08392	20
156.07452	20
156.08327	34
156.09105	19
159.09688	27
163.15854	17
169.06929	65
169.07927	192
170.10074	15
180.0666	16
181.08058	21
183.10611	15
184.10759	34
193.07706	17
193.10495	15
196.10469	40
197.09418	16
202.72714	15
207.10156	20
209.10136	15
209.1192	15
211.11806	22
211.13173	60
212.12233	18
221.11873	15
222.10542	19
223.13361	15
224.12469	19
234.11957	21
236.14528	20
237.13976	43
237.14658	13
238.15614	21
238.9913	16
239.15878	20
239.17809	26
239.86929	17
240.18022	19
241.40799	18
246.78325	17
252.16362	18
259.12717	15
263.15448	16
265.1355	18
267.13525	25
267.14697	18
275.15012	19
277.13739	39
277.17264	1000
278.17261	236
279.17087	33
279.18353	18
291.14743	35
292.15308	23
292.78278	19
293.16934	172
294.16919	34
295.18176	253
295.20004	32
296.17093	15
296.18994	45
321.16656	53
322.16052	66
339.17123	65
339.18723	16

NAME: Convolidine
PRECURSORMZ: 276.12413164783
PRECURSORTYPE: [M-H]-
INSTRUMENTTYPE: LC-ESI-QTOF
SMILES: COC1=C(O)C=CC(=C1)C(=O)OC1CC2CCC(C1)N2
INCHIKEY: GWWGRYGNRKFSSX-UHFFFAOYNA-N
Ontology: M-methoxybenzoic acids and derivatives
COLLISIONENERGY: 50
FORMULA: C15H19NO4
RETENTIONTIME: 3.2679
IONMODE: Negative
Comment: registered in RIKEN PlaSMA
Num Peaks: 3
79.01801	382
107.01468	1000
152.00693	400

NAME: Yohimbic Acid
PRECURSORMZ: 339.17141614783
PRECURSORTYPE: [M-H]-
INSTRUMENTTYPE: LC-ESI-QTOF
SMILES: OC1CCC2CN3CCC4=C(NC5=CC=CC=C45)C3CC2C1C(O)=O
INCHIKEY: AADVZSXPNRLYLV-UHFFFAOYNA-N
Ontology: Corynanthean-type alkaloids
COLLISIONENERGY: 50
FORMULA: C20H24N2O3
RETENTIONTIME: 3.814383
IONMODE: Negative
Comment: registered in RIKEN PlaSMA
Num Peaks: 28
116.04583	154
117.05723	90
142.0654	1000
143.07901	72
144.08401	147
154.06158	104
155.05716	82
157.07336	90
169.07504	444
169.23714	133
179.07114	79
180.06367	82
180.0807	93
181.0854	68
183.10049	115
192.0719	97
194.08038	82
194.09262	86
195.09489	111
205.29604	72
220.09225	65
220.09938	79
221.11815	161
232.12186	65
233.1104	82
260.16638	75
277.16223	136
339.16791	72

NAME: Convolidine
PRECURSORMZ: 276.12413164783
PRECURSORTYPE: [M-H]-
INSTRUMENTTYPE: LC-ESI-QTOF
SMILES: COC1=C(O)C=CC(=C1)C(=O)OC1CC2CCC(C1)N2
INCHIKEY: GWWGRYGNRKFSSX-UHFFFAOYNA-N
Ontology: M-methoxybenzoic acids and derivatives
COLLISIONENERGY: 10
FORMULA: C15H19NO4
RETENTIONTIME: 3.2679
IONMODE: Negative
Comment: registered in RIKEN PlaSMA
Num Peaks: 14
107.00739	38
107.01512	197
122.04204	58
123.04997	67
150.99966	317
151.00771	156
152.00848	48
153.01411	48
168.04581	48
261.07608	50
261.10294	538
261.11185	154
262.1084	183
276.12466	1000

NAME: Yohimbic Acid
PRECURSORMZ: 339.17141614783
PRECURSORTYPE: [M-H]-
INSTRUMENTTYPE: LC-ESI-QTOF
SMILES: OC1CCC2CN3CCC4=C(NC5=CC=CC=C45)C3CC2C1C(O)=O
INCHIKEY: AADVZSXPNRLYLV-UHFFFAOYNA-N
Ontology: Corynanthean-type alkaloids
COLLISIONENERGY: 10
FORMULA: C20H24N2O3
RETENTIONTIME: 3.814383
IONMODE: Negative
Comment: registered in RIKEN PlaSMA
Num Peaks: 48
120.05837	7
123.07956	5
140.10716	6
142.07103	15
143.06262	7
143.07487	6
144.07915	6
144.08493	8
152.1172	8
155.07648	11
156.08052	16
156.08881	10
161.75781	8
168.05608	5
169.07561	29
170.07707	7
178.08087	5
182.10243	5
183.08499	5
183.09204	6
199.25958	6
207.10056	5
211.12189	5
211.12875	16
221.10756	8
233.11224	6
237.13812	5
237.14716	7
239.16042	6
252.14946	5
263.15173	5
273.14038	5
274.13312	5
275.15527	6
277.16965	185
278.15997	5
278.17657	16
279.17865	10
289.64865	6
293.02417	6
293.16666	36
294.17532	10
295.18161	129
296.19073	10
297.18109	7
321.15561	42
321.16827	12
339.16959	1000

NAME: Convolidine
PRECURSORMZ: 276.12413164783
PRECURSORTYPE: [M-H]-
INSTRUMENTTYPE: LC-ESI-QTOF
SMILES: COC1=C(O)C=CC(=C1)C(=O)OC1CC2CCC(C1)N2
INCHIKEY: GWWGRYGNRKFSSX-UHFFFAOYNA-N
Ontology: M-methoxybenzoic acids and derivatives
COLLISIONENERGY: 10
FORMULA: C15H19NO4
RETENTIONTIME: 3.2679
IONMODE: Negative
Comment: registered in RIKEN PlaSMA
Num Peaks: 15
107.01406	20
123.05069	19
150.98708	13
151.00121	26
151.00847	24
167.03401	11
167.0489	10
168.04588	10
252.62112	10
261.09326	123
261.10446	64
262.09775	22
263.09851	13
263.10931	11
276.12347	1000

NAME: Yohimbic Acid
PRECURSORMZ: 339.17141614783
PRECURSORTYPE: [M-H]-
INSTRUMENTTYPE: LC-ESI-QTOF
SMILES: OC1CCC2CN3CCC4=C(NC5=CC=CC=C45)C3CC2C1C(O)=O
INCHIKEY: AADVZSXPNRLYLV-UHFFFAOYNA-N
Ontology: Corynanthean-type alkaloids
COLLISIONENERGY: 10
FORMULA: C20H24N2O3
RETENTIONTIME: 3.814383
IONMODE: Negative
Comment: registered in RIKEN PlaSMA
Num Peaks: 3
277.16974	24
321.1553	6
339.17026	1000

NAME: Convolidine
PRECURSORMZ: 276.12413164783
PRECURSORTYPE: [M-H]-
INSTRUMENTTYPE: LC-ESI-QTOF
SMILES: COC1=C(O)C=CC(=C1)C(=O)OC1CC2CCC(C1)N2
INCHIKEY: GWWGRYGNRKFSSX-UHFFFAOYNA-N
Ontology: M-methoxybenzoic acids and derivatives
COLLISIONENERGY: 30
FORMULA: C15H19NO4
RETENTIONTIME: 3.2679
IONMODE: Negative
Comment: registered in RIKEN PlaSMA
Num Peaks: 11
107.0137	1000
108.01434	87
108.01981	73
109.01704	71
122.03848	95
126.17913	33
148.42065	35
151.00546	189
152.01317	222
217.11241	55
261.1019	35

NAME: Yohimbic Acid
PRECURSORMZ: 339.17141614783
PRECURSORTYPE: [M-H]-
INSTRUMENTTYPE: LC-ESI-QTOF
SMILES: OC1CCC2CN3CCC4=C(NC5=CC=CC=C45)C3CC2C1C(O)=O
INCHIKEY: AADVZSXPNRLYLV-UHFFFAOYNA-N
Ontology: Corynanthean-type alkaloids
COLLISIONENERGY: 30
FORMULA: C20H24N2O3
RETENTIONTIME: 3.814383
IONMODE: Negative
Comment: registered in RIKEN PlaSMA
Num Peaks: 66
69.03568	25
116.04962	19
130.06358	21
142.06413	63
143.07413	54
144.08365	41
150.09706	14
155.07214	160
156.07979	100
168.06076	15
169.07156	27
169.07814	94
169.09033	18
170.06982	13
178.09126	21
180.06906	15
182.0726	14
182.08937	24
183.09015	45
183.0992	36
185.10399	16
194.09177	24
197.11089	14
210.10928	13
210.1252	22
211.12311	78
220.10669	13
221.1032	26
221.11833	13
223.12549	13
224.11743	22
227.90326	22
236.12724	15
238.11684	13
238.14842	13
239.15862	30
246.13673	15
248.12628	15
248.14342	16
249.14021	19
252.14755	23
264.13849	18
265.16745	13
267.15405	28
268.19312	13
273.13599	30
275.14429	20
275.15955	13
277.17007	1000
278.17303	213
278.18826	27
279.17108	18
279.18646	39
280.17966	15
291.13455	14
293.15988	218
293.17279	77
294.17059	38
295.17804	188
295.19754	15
296.18686	144
297.17368	15
321.15485	34
321.1712	13
322.16763	18
339.16074	38

NAME: Convolidine
PRECURSORMZ: 276.12413164783
PRECURSORTYPE: [M-H]-
INSTRUMENTTYPE: LC-ESI-QTOF
SMILES: COC1=C(O)C=CC(=C1)C(=O)OC1CC2CCC(C1)N2
INCHIKEY: GWWGRYGNRKFSSX-UHFFFAOYNA-N
Ontology: M-methoxybenzoic acids and derivatives
COLLISIONENERGY: 50
FORMULA: C15H19NO4
RETENTIONTIME: 3.2679
IONMODE: Negative
Comment: registered in RIKEN PlaSMA
Num Peaks: 4
51.02391	286
79.01765	143
107.01317	1000
108.01719	143

NAME: Yohimbic Acid
PRECURSORMZ: 339.17141614783
PRECURSORTYPE: [M-H]-
INSTRUMENTTYPE: LC-ESI-QTOF
SMILES: OC1CCC2CN3CCC4=C(NC5=CC=CC=C45)C3CC2C1C(O)=O
INCHIKEY: AADVZSXPNRLYLV-UHFFFAOYNA-N
Ontology: Corynanthean-type alkaloids
COLLISIONENERGY: 50
FORMULA: C20H24N2O3
RETENTIONTIME: 3.814383
IONMODE: Negative
Comment: registered in RIKEN PlaSMA
Num Peaks: 25
116.04764	221
130.06444	49
142.06755	1000
143.08293	49
154.0517	51
154.06674	57
155.0672	59
155.07718	100
156.08305	249
166.073	46
167.06396	98
169.07812	188
169.09142	57
170.09532	100
180.0739	57
180.08917	54
181.07759	46
183.09332	46
192.08116	46
221.10872	54
232.09966	62
233.10796	69
244.11334	46
277.17175	67
293.16278	69

NAME: Convolidine
PRECURSORMZ: 276.12413164783
PRECURSORTYPE: [M-H]-
INSTRUMENTTYPE: LC-ESI-QTOF
SMILES: COC1=C(O)C=CC(=C1)C(=O)OC1CC2CCC(C1)N2
INCHIKEY: GWWGRYGNRKFSSX-UHFFFAOYNA-N
Ontology: M-methoxybenzoic acids and derivatives
COLLISIONENERGY: 10
FORMULA: C15H19NO4
RETENTIONTIME: 3.2679
IONMODE: Negative
Comment: registered in RIKEN PlaSMA
Num Peaks: 13
107.01524	282
108.02004	59
109.02091	43
122.04044	41
123.03864	57
151.00679	362
152.0061	43
152.01616	48
166.02921	41
167.03291	93
261.09781	654
262.10703	189
276.12277	1000

NAME: Yohimbic Acid
PRECURSORMZ: 339.17141614783
PRECURSORTYPE: [M-H]-
INSTRUMENTTYPE: LC-ESI-QTOF
SMILES: OC1CCC2CN3CCC4=C(NC5=CC=CC=C45)C3CC2C1C(O)=O
INCHIKEY: AADVZSXPNRLYLV-UHFFFAOYNA-N
Ontology: Corynanthean-type alkaloids
COLLISIONENERGY: 10
FORMULA: C20H24N2O3
RETENTIONTIME: 3.814383
IONMODE: Negative
Comment: registered in RIKEN PlaSMA
Num Peaks: 53
60.98946	6
69.0324	6
130.07097	14
142.06676	5
154.05862	6
154.06335	12
155.07227	14
155.08182	5
156.08386	6
168.07527	6
169.07231	6
169.08282	14
170.07819	6
178.09177	11
180.08154	7
183.09241	8
192.10518	5
193.07884	5
195.09103	7
208.08817	6
209.10741	6
211.13254	18
220.10353	5
220.60435	8
221.112	13
222.10759	5
222.13954	8
231.22028	9
265.17892	8
267.14383	6
275.14938	6
276.1514	9
277.17032	326
278.16837	30
278.19431	6
278.81985	9
291.13983	6
291.15021	6
293.15775	16
293.16681	52
295.17905	93
296.17517	20
296.19324	13
299.34705	6
299.42511	7
319.12717	6
321.08124	8
321.14154	5
321.1586	35
321.1796	7
322.16443	22
323.16827	7
339.16959	1000

NAME: Convolidine
PRECURSORMZ: 276.12413164783
PRECURSORTYPE: [M-H]-
INSTRUMENTTYPE: LC-ESI-QTOF
SMILES: COC1=C(O)C=CC(=C1)C(=O)OC1CC2CCC(C1)N2
INCHIKEY: GWWGRYGNRKFSSX-UHFFFAOYNA-N
Ontology: M-methoxybenzoic acids and derivatives
COLLISIONENERGY: 10
FORMULA: C15H19NO4
RETENTIONTIME: 3.2679
IONMODE: Negative
Comment: registered in RIKEN PlaSMA
Num Peaks: 6
151.0043	31
160.38293	16
167.03383	30
261.10025	171
262.09509	16
276.12448	1000

NAME: Yohimbic Acid
PRECURSORMZ: 339.17141614783
PRECURSORTYPE: [M-H]-
INSTRUMENTTYPE: LC-ESI-QTOF
SMILES: OC1CCC2CN3CCC4=C(NC5=CC=CC=C45)C3CC2C1C(O)=O
INCHIKEY: AADVZSXPNRLYLV-UHFFFAOYNA-N
Ontology: Corynanthean-type alkaloids
COLLISIONENERGY: 10
FORMULA: C20H24N2O3
RETENTIONTIME: 3.814383
IONMODE: Negative
Comment: registered in RIKEN PlaSMA
Num Peaks: 2
277.17316	18
339.1712	1000

NAME: Convolidine
PRECURSORMZ: 276.12413164783
PRECURSORTYPE: [M-H]-
INSTRUMENTTYPE: LC-ESI-QTOF
SMILES: COC1=C(O)C=CC(=C1)C(=O)OC1CC2CCC(C1)N2
INCHIKEY: GWWGRYGNRKFSSX-UHFFFAOYNA-N
Ontology: M-methoxybenzoic acids and derivatives
COLLISIONENERGY: 30
FORMULA: C15H19NO4
RETENTIONTIME: 3.2679
IONMODE: Negative
Comment: registered in RIKEN PlaSMA
Num Peaks: 11
107.01363	1000
108.0118	60
108.01847	183
108.02636	52
109.02284	76
122.03445	104
123.03608	63
150.99921	76
151.00693	232
152.00717	264
261.0975	54

NAME: Yohimbic Acid
PRECURSORMZ: 339.17141614783
PRECURSORTYPE: [M-H]-
INSTRUMENTTYPE: LC-ESI-QTOF
SMILES: OC1CCC2CN3CCC4=C(NC5=CC=CC=C45)C3CC2C1C(O)=O
INCHIKEY: AADVZSXPNRLYLV-UHFFFAOYNA-N
Ontology: Corynanthean-type alkaloids
COLLISIONENERGY: 30
FORMULA: C20H24N2O3
RETENTIONTIME: 3.814383
IONMODE: Negative
Comment: registered in RIKEN PlaSMA
Num Peaks: 55
92.0498	21
96.0833	19
110.09757	15
116.05368	23
141.05061	15
142.06242	53
142.07246	15
143.06726	24
144.08028	68
148.07234	15
155.07227	110
155.08038	28
156.07866	91
157.0782	17
168.07733	18
169.07661	241
180.06851	15
183.08322	16
192.09377	16
208.09651	18
208.11328	15
209.11092	40
211.12231	147
212.12608	32
221.10143	36
223.12331	35
232.12009	15
234.12627	15
235.12494	17
239.15558	17
240.16032	31
249.13716	18
251.98848	17
266.15826	21
267.14069	17
267.15775	19
275.16324	17
277.17038	1000
278.16592	17
278.1767	36
278.1969	23
278.41788	15
283.13651	17
293.15448	84
293.16733	167
294.16971	17
295.16595	16
295.1835	120
295.19806	17
296.18784	58
296.20679	19
321.15356	72
322.16727	23
323.18167	17
339.16818	68

NAME: Convolidine
PRECURSORMZ: 276.12413164783
PRECURSORTYPE: [M-H]-
INSTRUMENTTYPE: LC-ESI-QTOF
SMILES: COC1=C(O)C=CC(=C1)C(=O)OC1CC2CCC(C1)N2
INCHIKEY: GWWGRYGNRKFSSX-UHFFFAOYNA-N
Ontology: M-methoxybenzoic acids and derivatives
COLLISIONENERGY: 50
FORMULA: C15H19NO4
RETENTIONTIME: 3.2679
IONMODE: Negative
Comment: registered in RIKEN PlaSMA
Num Peaks: 1
107.01432	1000

NAME: Yohimbic Acid
PRECURSORMZ: 339.17141614783
PRECURSORTYPE: [M-H]-
INSTRUMENTTYPE: LC-ESI-QTOF
SMILES: OC1CCC2CN3CCC4=C(NC5=CC=CC=C45)C3CC2C1C(O)=O
INCHIKEY: AADVZSXPNRLYLV-UHFFFAOYNA-N
Ontology: Corynanthean-type alkaloids
COLLISIONENERGY: 50
FORMULA: C20H24N2O3
RETENTIONTIME: 3.814383
IONMODE: Negative
Comment: registered in RIKEN PlaSMA
Num Peaks: 23
116.04557	78
116.05247	105
130.06372	70
142.06323	1000
143.05704	78
154.05211	70
156.07953	86
157.08148	74
167.05893	160
168.07001	90
168.08015	90
169.07494	406
169.08014	156
170.07208	70
170.0988	70
193.09055	78
195.06038	70
196.11531	86
207.08951	98
210.08658	90
219.09164	78
221.11592	121
233.11264	117

NAME: Rauwolscine
PRECURSORMZ: 353.18706624783
PRECURSORTYPE: [M-H]-
INSTRUMENTTYPE: LC-ESI-QTOF
SMILES: COC(=O)C1C(O)CCC2CN3CCC4=C(NC5=CC=CC=C45)C3CC12
INCHIKEY: BLGXFZZNTVWLAY-UHFFFAOYNA-N
Ontology: Yohimbine alkaloids
COLLISIONENERGY: 10
FORMULA: C21H26N2O3
RETENTIONTIME: 4.007733
IONMODE: Negative
Comment: registered in RIKEN PlaSMA
Num Peaks: 37
94.06489	32
107.14532	20
129.08771	20
143.07465	19
156.07581	17
156.08852	25
157.08145	18
169.08174	18
170.07733	25
171.08281	20
181.0618	23
184.0705	18
185.10918	17
185.48927	20
197.10815	17
209.08795	22
221.11003	17
221.89195	21
222.10938	39
223.09314	20
233.13008	22
250.75458	43
265.13626	28
273.14139	18
277.17288	69
278.11475	17
278.1925	19
293.1496	40
293.16577	108
294.15555	17
303.13461	38
303.1492	74
303.16235	40
304.15729	40
321.16147	112
322.16891	38
353.18933	1000

NAME: Rauwolscine
PRECURSORMZ: 399.19254555183
PRECURSORTYPE: [M+FA-H]-
INSTRUMENTTYPE: LC-ESI-QTOF
SMILES: COC(=O)C1C(O)CCC2CN3CCC4=C(NC5=CC=CC=C45)C3CC12
INCHIKEY: BLGXFZZNTVWLAY-UHFFFAOYNA-N
Ontology: Yohimbine alkaloids
COLLISIONENERGY: 10
FORMULA: C21H26N2O3
RETENTIONTIME: 4.007733
IONMODE: Negative
Comment: registered in RIKEN PlaSMA
Num Peaks: 9
156.08246	57
292.15744	46
293.17523	54
295.1683	59
302.15213	46
303.14523	46
353.16504	49
353.18814	1000
354.18225	113

NAME: Rauwolscine
PRECURSORMZ: 353.18706624783
PRECURSORTYPE: [M-H]-
INSTRUMENTTYPE: LC-ESI-QTOF
SMILES: COC(=O)C1C(O)CCC2CN3CCC4=C(NC5=CC=CC=C45)C3CC12
INCHIKEY: BLGXFZZNTVWLAY-UHFFFAOYNA-N
Ontology: Yohimbine alkaloids
COLLISIONENERGY: 10
FORMULA: C21H26N2O3
RETENTIONTIME: 4.007733
IONMODE: Negative
Comment: registered in RIKEN PlaSMA
Num Peaks: 8
148.12666	7
157.08423	14
265.13879	7
293.17288	20
303.15628	25
321.15799	29
335.17599	6
353.18661	1000

NAME: Rauwolscine
PRECURSORMZ: 399.19254555183
PRECURSORTYPE: [M+FA-H]-
INSTRUMENTTYPE: LC-ESI-QTOF
SMILES: COC(=O)C1C(O)CCC2CN3CCC4=C(NC5=CC=CC=C45)C3CC12
INCHIKEY: BLGXFZZNTVWLAY-UHFFFAOYNA-N
Ontology: Yohimbine alkaloids
COLLISIONENERGY: 10
FORMULA: C21H26N2O3
RETENTIONTIME: 4.007733
IONMODE: Negative
Comment: registered in RIKEN PlaSMA
Num Peaks: 9
118.02672	39
325.15591	52
353.18964	1000
354.18851	190
354.20551	54
355.186	37
356.18939	48
385.16986	41
399.20377	48

NAME: Rauwolscine
PRECURSORMZ: 353.18706624783
PRECURSORTYPE: [M-H]-
INSTRUMENTTYPE: LC-ESI-QTOF
SMILES: COC(=O)C1C(O)CCC2CN3CCC4=C(NC5=CC=CC=C45)C3CC12
INCHIKEY: BLGXFZZNTVWLAY-UHFFFAOYNA-N
Ontology: Yohimbine alkaloids
COLLISIONENERGY: 30
FORMULA: C21H26N2O3
RETENTIONTIME: 4.007733
IONMODE: Negative
Comment: registered in RIKEN PlaSMA
Num Peaks: 54
92.04922	68
94.03103	66
95.04773	66
96.04371	52
102.94862	58
122.09389	49
135.06352	52
142.0619	110
156.08188	99
156.08983	79
158.06294	58
158.07024	58
167.06104	118
168.06491	49
168.07484	60
169.07535	526
171.08495	145
178.08203	66
182.08357	99
183.0934	208
184.09853	90
185.10884	49
192.09602	74
206.09468	55
207.09297	63
208.10544	68
210.11723	74
221.10262	52
221.11513	55
223.11829	49
224.1391	82
235.12814	55
236.10492	181
237.1105	52
248.12614	63
250.12805	58
263.09543	58
263.15442	55
264.14838	71
265.13641	164
265.15503	55
276.16367	52
277.14075	63
277.15701	55
277.17386	290
293.16922	1000
294.168	351
295.17371	49
303.14465	153
303.15466	288
304.1524	296
319.14417	58
321.15652	101
353.19882	82

NAME: Rauwolscine
PRECURSORMZ: 399.19254555183
PRECURSORTYPE: [M+FA-H]-
INSTRUMENTTYPE: LC-ESI-QTOF
SMILES: COC(=O)C1C(O)CCC2CN3CCC4=C(NC5=CC=CC=C45)C3CC12
INCHIKEY: BLGXFZZNTVWLAY-UHFFFAOYNA-N
Ontology: Yohimbine alkaloids
COLLISIONENERGY: 30
FORMULA: C21H26N2O3
RETENTIONTIME: 4.007733
IONMODE: Negative
Comment: registered in RIKEN PlaSMA
Num Peaks: 9
136.0555	171
236.10139	203
275.15973	171
293.16071	1000
303.15112	195
304.15482	220
305.16074	154
322.17105	163
353.17209	179

NAME: Rauwolscine
PRECURSORMZ: 353.18706624783
PRECURSORTYPE: [M-H]-
INSTRUMENTTYPE: LC-ESI-QTOF
SMILES: COC(=O)C1C(O)CCC2CN3CCC4=C(NC5=CC=CC=C45)C3CC12
INCHIKEY: BLGXFZZNTVWLAY-UHFFFAOYNA-N
Ontology: Yohimbine alkaloids
COLLISIONENERGY: 50
FORMULA: C21H26N2O3
RETENTIONTIME: 4.007733
IONMODE: Negative
Comment: registered in RIKEN PlaSMA
Num Peaks: 13
107.0421	142
142.06314	319
142.07071	199
144.04961	128
169.07674	1000
193.08238	128
195.08493	149
205.08296	135
207.09152	149
221.07819	170
221.1104	149
232.10425	128
287.11069	184

NAME: Rauwolscine
PRECURSORMZ: 399.19254555183
PRECURSORTYPE: [M+FA-H]-
INSTRUMENTTYPE: LC-ESI-QTOF
SMILES: COC(=O)C1C(O)CCC2CN3CCC4=C(NC5=CC=CC=C45)C3CC12
INCHIKEY: BLGXFZZNTVWLAY-UHFFFAOYNA-N
Ontology: Yohimbine alkaloids
COLLISIONENERGY: 50
FORMULA: C21H26N2O3
RETENTIONTIME: 4.007733
IONMODE: Negative
Comment: registered in RIKEN PlaSMA
Num Peaks: 2
156.08673	450
169.07877	1000

NAME: Rauwolscine
PRECURSORMZ: 353.18706624783
PRECURSORTYPE: [M-H]-
INSTRUMENTTYPE: LC-ESI-QTOF
SMILES: COC(=O)C1C(O)CCC2CN3CCC4=C(NC5=CC=CC=C45)C3CC12
INCHIKEY: BLGXFZZNTVWLAY-UHFFFAOYNA-N
Ontology: Yohimbine alkaloids
COLLISIONENERGY: 10
FORMULA: C21H26N2O3
RETENTIONTIME: 4.007733
IONMODE: Negative
Comment: registered in RIKEN PlaSMA
Num Peaks: 35
80.04707	18
94.06607	17
109.17294	16
128.04913	23
130.06325	17
136.11963	25
142.06239	20
142.07449	16
156.07581	22
156.09087	19
166.06842	16
178.08299	17
182.0519	16
183.09859	43
197.10913	19
217.06813	20
220.10039	16
234.08728	17
234.11855	17
260.1069	16
264.11313	28
275.1514	19
277.15646	16
293.16446	269
294.16895	54
303.14658	32
303.1622	16
304.14639	45
304.15442	15
321.15457	66
321.17114	16
321.62634	16
322.15768	22
322.16953	43
353.1846	1000

NAME: Rauwolscine
PRECURSORMZ: 399.19254555183
PRECURSORTYPE: [M+FA-H]-
INSTRUMENTTYPE: LC-ESI-QTOF
SMILES: COC(=O)C1C(O)CCC2CN3CCC4=C(NC5=CC=CC=C45)C3CC12
INCHIKEY: BLGXFZZNTVWLAY-UHFFFAOYNA-N
Ontology: Yohimbine alkaloids
COLLISIONENERGY: 10
FORMULA: C21H26N2O3
RETENTIONTIME: 4.007733
IONMODE: Negative
Comment: registered in RIKEN PlaSMA
Num Peaks: 13
169.08597	102
185.11047	106
265.13931	72
295.16907	75
303.14441	166
321.16614	215
323.16119	68
353.18451	1000
354.1857	166
354.20187	166
384.17001	125
399.13693	121
399.18802	166

NAME: Rauwolscine
PRECURSORMZ: 353.18706624783
PRECURSORTYPE: [M-H]-
INSTRUMENTTYPE: LC-ESI-QTOF
SMILES: COC(=O)C1C(O)CCC2CN3CCC4=C(NC5=CC=CC=C45)C3CC12
INCHIKEY: BLGXFZZNTVWLAY-UHFFFAOYNA-N
Ontology: Yohimbine alkaloids
COLLISIONENERGY: 10
FORMULA: C21H26N2O3
RETENTIONTIME: 4.007733
IONMODE: Negative
Comment: registered in RIKEN PlaSMA
Num Peaks: 9
237.56895	9
293.16248	12
303.14606	15
321.15222	6
321.16656	23
321.1965	7
353.1171	8
353.18457	1000
353.22269	11

NAME: Rauwolscine
PRECURSORMZ: 399.19254555183
PRECURSORTYPE: [M+FA-H]-
INSTRUMENTTYPE: LC-ESI-QTOF
SMILES: COC(=O)C1C(O)CCC2CN3CCC4=C(NC5=CC=CC=C45)C3CC12
INCHIKEY: BLGXFZZNTVWLAY-UHFFFAOYNA-N
Ontology: Yohimbine alkaloids
COLLISIONENERGY: 10
FORMULA: C21H26N2O3
RETENTIONTIME: 4.007733
IONMODE: Negative
Comment: registered in RIKEN PlaSMA
Num Peaks: 6
353.18689	1000
354.19119	297
355.18839	35
355.19998	29
399.19058	70
399.20441	30

NAME: Rauwolscine
PRECURSORMZ: 353.18706624783
PRECURSORTYPE: [M-H]-
INSTRUMENTTYPE: LC-ESI-QTOF
SMILES: COC(=O)C1C(O)CCC2CN3CCC4=C(NC5=CC=CC=C45)C3CC12
INCHIKEY: BLGXFZZNTVWLAY-UHFFFAOYNA-N
Ontology: Yohimbine alkaloids
COLLISIONENERGY: 30
FORMULA: C21H26N2O3
RETENTIONTIME: 4.007733
IONMODE: Negative
Comment: registered in RIKEN PlaSMA
Num Peaks: 64
94.03327	58
96.04585	156
99.03993	78
99.04491	52
107.05238	69
130.06046	52
135.04562	61
136.07585	69
143.07213	118
144.0851	52
151.07878	112
156.08289	354
158.10139	101
159.0916	58
167.06026	176
169.07333	239
169.0799	207
170.07777	52
178.0914	130
181.0667	69
183.08899	236
183.10004	55
185.10524	133
185.11519	52
186.10373	61
194.09589	55
195.06714	66
195.09572	84
197.11189	69
210.09364	72
220.1057	55
223.11755	52
232.08913	58
233.10524	124
234.08844	63
235.0809	61
236.09679	138
238.12131	52
247.12877	69
248.1082	72
250.13533	81
260.10077	63
264.14001	55
265.12228	66
265.13034	95
265.14313	72
266.14133	55
274.12952	72
275.15567	245
277.17325	118
291.14182	52
293.1673	1000
294.16916	285
295.17572	61
303.13803	81
303.15533	239
304.15637	187
321.15283	55
321.17142	58
321.19	63
322.16537	147
335.18082	150
353.18491	135
353.19687	190

NAME: Rauwolscine
PRECURSORMZ: 399.19254555183
PRECURSORTYPE: [M+FA-H]-
INSTRUMENTTYPE: LC-ESI-QTOF
SMILES: COC(=O)C1C(O)CCC2CN3CCC4=C(NC5=CC=CC=C45)C3CC12
INCHIKEY: BLGXFZZNTVWLAY-UHFFFAOYNA-N
Ontology: Yohimbine alkaloids
COLLISIONENERGY: 30
FORMULA: C21H26N2O3
RETENTIONTIME: 4.007733
IONMODE: Negative
Comment: registered in RIKEN PlaSMA
Num Peaks: 14
96.05215	243
121.02975	215
183.08711	224
266.51794	196
275.14816	308
279.14474	187
293.15964	972
293.17584	748
303.13629	215
303.15802	224
321.1637	243
353.18768	1000
353.19727	318
360.02451	234

NAME: Rauwolscine
PRECURSORMZ: 353.18706624783
PRECURSORTYPE: [M-H]-
INSTRUMENTTYPE: LC-ESI-QTOF
SMILES: COC(=O)C1C(O)CCC2CN3CCC4=C(NC5=CC=CC=C45)C3CC12
INCHIKEY: BLGXFZZNTVWLAY-UHFFFAOYNA-N
Ontology: Yohimbine alkaloids
COLLISIONENERGY: 50
FORMULA: C21H26N2O3
RETENTIONTIME: 4.007733
IONMODE: Negative
Comment: registered in RIKEN PlaSMA
Num Peaks: 16
142.06224	302
142.07213	741
143.07828	144
150.07111	137
156.08134	1000
157.08783	129
161.92705	230
167.06314	144
169.07811	906
180.07675	151
182.07155	129
183.08957	165
194.08684	151
205.09196	158
209.11328	129
224.12579	151

NAME: Rauwolscine
PRECURSORMZ: 399.19254555183
PRECURSORTYPE: [M+FA-H]-
INSTRUMENTTYPE: LC-ESI-QTOF
SMILES: COC(=O)C1C(O)CCC2CN3CCC4=C(NC5=CC=CC=C45)C3CC12
INCHIKEY: BLGXFZZNTVWLAY-UHFFFAOYNA-N
Ontology: Yohimbine alkaloids
COLLISIONENERGY: 50
FORMULA: C21H26N2O3
RETENTIONTIME: 4.007733
IONMODE: Negative
Comment: registered in RIKEN PlaSMA
Num Peaks: 4
156.08073	1000
169.07803	361
172.08806	253
274.16678	361

NAME: Rauwolscine
PRECURSORMZ: 353.18706624783
PRECURSORTYPE: [M-H]-
INSTRUMENTTYPE: LC-ESI-QTOF
SMILES: COC(=O)C1C(O)CCC2CN3CCC4=C(NC5=CC=CC=C45)C3CC12
INCHIKEY: BLGXFZZNTVWLAY-UHFFFAOYNA-N
Ontology: Yohimbine alkaloids
COLLISIONENERGY: 10
FORMULA: C21H26N2O3
RETENTIONTIME: 4.007733
IONMODE: Negative
Comment: registered in RIKEN PlaSMA
Num Peaks: 35
69.03193	37
93.58852	17
96.04768	14
121.03117	13
125.05771	16
148.0546	14
155.07443	16
156.07979	28
157.07837	20
160.07095	21
160.07742	13
167.04608	15
168.07693	17
169.07361	81
169.15134	17
177.69569	18
181.05173	21
185.10689	18
186.10855	15
192.11913	15
222.13202	18
223.12111	16
236.11501	32
248.13365	16
250.12151	16
250.13206	16
275.15298	28
293.16168	178
294.17404	18
303.14191	80
321.16089	72
321.18448	15
322.16214	32
323.15503	14
353.18411	1000

NAME: Rauwolscine
PRECURSORMZ: 399.19254555183
PRECURSORTYPE: [M+FA-H]-
INSTRUMENTTYPE: LC-ESI-QTOF
SMILES: COC(=O)C1C(O)CCC2CN3CCC4=C(NC5=CC=CC=C45)C3CC12
INCHIKEY: BLGXFZZNTVWLAY-UHFFFAOYNA-N
Ontology: Yohimbine alkaloids
COLLISIONENERGY: 10
FORMULA: C21H26N2O3
RETENTIONTIME: 4.007733
IONMODE: Negative
Comment: registered in RIKEN PlaSMA
Num Peaks: 12
108.04372	49
221.11852	43
223.12354	40
275.15866	57
278.13116	40
278.16974	105
353.16458	87
353.18478	1000
354.17297	40
354.19089	209
354.20834	40
355.20859	49

NAME: Rauwolscine
PRECURSORMZ: 353.18706624783
PRECURSORTYPE: [M-H]-
INSTRUMENTTYPE: LC-ESI-QTOF
SMILES: COC(=O)C1C(O)CCC2CN3CCC4=C(NC5=CC=CC=C45)C3CC12
INCHIKEY: BLGXFZZNTVWLAY-UHFFFAOYNA-N
Ontology: Yohimbine alkaloids
COLLISIONENERGY: 10
FORMULA: C21H26N2O3
RETENTIONTIME: 4.007733
IONMODE: Negative
Comment: registered in RIKEN PlaSMA
Num Peaks: 8
99.61816	8
213.3867	11
275.16568	5
293.15897	6
293.16855	5
304.15063	6
321.16217	7
353.18433	1000

NAME: Rauwolscine
PRECURSORMZ: 399.19254555183
PRECURSORTYPE: [M+FA-H]-
INSTRUMENTTYPE: LC-ESI-QTOF
SMILES: COC(=O)C1C(O)CCC2CN3CCC4=C(NC5=CC=CC=C45)C3CC12
INCHIKEY: BLGXFZZNTVWLAY-UHFFFAOYNA-N
Ontology: Yohimbine alkaloids
COLLISIONENERGY: 10
FORMULA: C21H26N2O3
RETENTIONTIME: 4.007733
IONMODE: Negative
Comment: registered in RIKEN PlaSMA
Num Peaks: 5
220.54472	25
353.18832	1000
354.19012	112
354.845	27
399.1813	94

NAME: Rauwolscine
PRECURSORMZ: 353.18706624783
PRECURSORTYPE: [M-H]-
INSTRUMENTTYPE: LC-ESI-QTOF
SMILES: COC(=O)C1C(O)CCC2CN3CCC4=C(NC5=CC=CC=C45)C3CC12
INCHIKEY: BLGXFZZNTVWLAY-UHFFFAOYNA-N
Ontology: Yohimbine alkaloids
COLLISIONENERGY: 30
FORMULA: C21H26N2O3
RETENTIONTIME: 4.007733
IONMODE: Negative
Comment: registered in RIKEN PlaSMA
Num Peaks: 55
95.05445	67
109.05994	65
123.03406	59
130.06769	73
136.07939	67
142.0704	105
155.06853	54
156.08034	364
157.08696	49
167.06352	151
168.07523	97
169.07944	431
169.1051	73
170.0742	54
178.07874	70
178.08813	248
180.08348	121
182.10271	51
183.09012	162
184.10393	59
186.10759	81
192.08139	54
194.09692	51
197.11153	162
220.09326	65
221.10492	54
225.10031	51
234.12688	49
235.09502	105
236.10536	70
247.1234	57
248.10953	67
249.13335	89
251.15294	57
266.11911	54
266.13583	57
273.14532	113
275.15253	221
277.16849	119
285.13962	49
291.15308	54
293.09677	49
293.16519	1000
294.15381	108
294.16974	197
295.17725	108
303.12823	49
303.16034	466
304.16519	75
321.14993	97
321.16653	148
322.16782	49
330.92737	84
353.18344	57
353.19543	81

NAME: Rauwolscine
PRECURSORMZ: 399.19254555183
PRECURSORTYPE: [M+FA-H]-
INSTRUMENTTYPE: LC-ESI-QTOF
SMILES: COC(=O)C1C(O)CCC2CN3CCC4=C(NC5=CC=CC=C45)C3CC12
INCHIKEY: BLGXFZZNTVWLAY-UHFFFAOYNA-N
Ontology: Yohimbine alkaloids
COLLISIONENERGY: 30
FORMULA: C21H26N2O3
RETENTIONTIME: 4.007733
IONMODE: Negative
Comment: registered in RIKEN PlaSMA
Num Peaks: 14
135.03381	314
170.06941	149
234.0939	149
266.12903	182
292.16565	182
293.15057	174
293.17044	331
294.16479	157
303.1561	165
305.15909	322
353.1788	1000
353.19095	364
354.19659	174
355.18546	240

NAME: Rauwolscine
PRECURSORMZ: 353.18706624783
PRECURSORTYPE: [M-H]-
INSTRUMENTTYPE: LC-ESI-QTOF
SMILES: COC(=O)C1C(O)CCC2CN3CCC4=C(NC5=CC=CC=C45)C3CC12
INCHIKEY: BLGXFZZNTVWLAY-UHFFFAOYNA-N
Ontology: Yohimbine alkaloids
COLLISIONENERGY: 50
FORMULA: C21H26N2O3
RETENTIONTIME: 4.007733
IONMODE: Negative
Comment: registered in RIKEN PlaSMA
Num Peaks: 17
73.02683	230
108.05014	180
116.05141	200
121.03292	390
130.06293	450
130.07388	230
133.06474	290
142.06239	1000
142.06975	550
156.08377	210
167.06465	230
169.07912	640
190.06949	210
197.11073	240
218.08875	230
234.11827	190
303.15417	330

NAME: Rauwolscine
PRECURSORMZ: 399.19254555183
PRECURSORTYPE: [M+FA-H]-
INSTRUMENTTYPE: LC-ESI-QTOF
SMILES: COC(=O)C1C(O)CCC2CN3CCC4=C(NC5=CC=CC=C45)C3CC12
INCHIKEY: BLGXFZZNTVWLAY-UHFFFAOYNA-N
Ontology: Yohimbine alkaloids
COLLISIONENERGY: 50
FORMULA: C21H26N2O3
RETENTIONTIME: 4.007733
IONMODE: Negative
Comment: registered in RIKEN PlaSMA
Num Peaks: 3
129.0524	230
169.08073	1000
278.18698	276

NAME: Harman
PRECURSORMZ: 181.07712184783
PRECURSORTYPE: [M-H]-
INSTRUMENTTYPE: LC-ESI-QTOF
SMILES: CC1=C2NC3=CC=CC=C3C2=CC=N1
INCHIKEY: PSFDQSOCUJVVGF-UHFFFAOYSA-N
Ontology: Harmala alkaloids
COLLISIONENERGY: 10
FORMULA: C12H10N2
RETENTIONTIME: 3.689733
IONMODE: Negative
Comment: registered in RIKEN PlaSMA
Num Peaks: 5
96.28069	49
165.04434	24
165.05473	24
180.06696	94
181.07704	1000

NAME: Syrosingopine
PRECURSORMZ: 665.27158374783
PRECURSORTYPE: [M-H]-
INSTRUMENTTYPE: LC-ESI-QTOF
SMILES: CCOC(=O)OC1=C(OC)C=C(C=C1OC)C(=O)OC1CC2CN3CCC4=C(NC5=C4C=CC(OC)=C5)C3CC2C(C1OC)C(=O)OC
INCHIKEY: ZCDNRPPFBQDQHR-UHFFFAOYNA-N
Ontology: Yohimbine alkaloids
COLLISIONENERGY: 10
FORMULA: C35H42N2O11
RETENTIONTIME: 6.720133
IONMODE: Negative
Comment: registered in RIKEN PlaSMA
Num Peaks: 44
89.02413	6
123.00791	10
138.03188	8
165.02577	10
166.99979	9
168.00543	17
179.03612	8
181.01295	12
181.0284	7
183.03857	5
195.02925	48
196.02956	6
196.03726	14
209.00865	13
210.05374	20
225.07512	42
227.08249	5
255.05037	20
269.06686	85
271.08133	6
337.09503	7
341.29346	8
364.19055	5
405.64993	5
427.63712	6
441.84402	6
511.19269	8
575.23315	14
576.24219	12
577.20349	5
578.22614	8
578.2431	11
579.21252	7
592.23584	16
593.25031	69
594.25714	19
595.24847	11
621.26562	6
621.29291	9
622.29199	7
650.24225	30
650.2738	9
651.23383	14
665.27252	1000

NAME: Syrosingopine
PRECURSORMZ: 711.27706305183
PRECURSORTYPE: [M+FA-H]-
INSTRUMENTTYPE: LC-ESI-QTOF
SMILES: CCOC(=O)OC1=C(OC)C=C(C=C1OC)C(=O)OC1CC2CN3CCC4=C(NC5=C4C=CC(OC)=C5)C3CC2C(C1OC)C(=O)OC
INCHIKEY: ZCDNRPPFBQDQHR-UHFFFAOYNA-N
Ontology: Yohimbine alkaloids
COLLISIONENERGY: 10
FORMULA: C35H42N2O11
RETENTIONTIME: 6.720133
IONMODE: Negative
Comment: registered in RIKEN PlaSMA
Num Peaks: 26
181.00949	7
195.03035	6
196.03291	7
210.05264	10
225.0793	7
239.02138	12
269.06964	36
347.66754	8
395.202	8
578.21924	14
578.23846	16
592.24969	10
593.23779	35
593.26538	14
594.23444	7
594.26605	18
621.27405	7
650.25317	36
650.28424	8
651.25641	15
665.27161	1000
666.2749	385
667.28137	100
668.28931	14
698.22522	21
711.28235	78

NAME: Harman
PRECURSORMZ: 181.07712184783
PRECURSORTYPE: [M-H]-
INSTRUMENTTYPE: LC-ESI-QTOF
SMILES: CC1=C2NC3=CC=CC=C3C2=CC=N1
INCHIKEY: PSFDQSOCUJVVGF-UHFFFAOYSA-N
Ontology: Harmala alkaloids
COLLISIONENERGY: 10
FORMULA: C12H10N2
RETENTIONTIME: 3.689733
IONMODE: Negative
Comment: registered in RIKEN PlaSMA
Num Peaks: 3
180.06796	10
181.07652	1000
181.13652	8

NAME: Syrosingopine
PRECURSORMZ: 711.27706305183
PRECURSORTYPE: [M+FA-H]-
INSTRUMENTTYPE: LC-ESI-QTOF
SMILES: CCOC(=O)OC1=C(OC)C=C(C=C1OC)C(=O)OC1CC2CN3CCC4=C(NC5=C4C=CC(OC)=C5)C3CC2C(C1OC)C(=O)OC
INCHIKEY: ZCDNRPPFBQDQHR-UHFFFAOYNA-N
Ontology: Yohimbine alkaloids
COLLISIONENERGY: 10
FORMULA: C35H42N2O11
RETENTIONTIME: 6.720133
IONMODE: Negative
Comment: registered in RIKEN PlaSMA
Num Peaks: 8
569.93073	7
665.27118	1000
666.27527	313
667.25781	21
667.28064	74
668.26013	8
668.27832	7
711.27563	180

NAME: Harman
PRECURSORMZ: 181.07712184783
PRECURSORTYPE: [M-H]-
INSTRUMENTTYPE: LC-ESI-QTOF
SMILES: CC1=C2NC3=CC=CC=C3C2=CC=N1
INCHIKEY: PSFDQSOCUJVVGF-UHFFFAOYSA-N
Ontology: Harmala alkaloids
COLLISIONENERGY: 30
FORMULA: C12H10N2
RETENTIONTIME: 3.689733
IONMODE: Negative
Comment: registered in RIKEN PlaSMA
Num Peaks: 4
165.04227	1000
167.05794	138
180.06424	138
181.07336	308

NAME: Syrosingopine
PRECURSORMZ: 665.27158374783
PRECURSORTYPE: [M-H]-
INSTRUMENTTYPE: LC-ESI-QTOF
SMILES: CCOC(=O)OC1=C(OC)C=C(C=C1OC)C(=O)OC1CC2CN3CCC4=C(NC5=C4C=CC(OC)=C5)C3CC2C(C1OC)C(=O)OC
INCHIKEY: ZCDNRPPFBQDQHR-UHFFFAOYNA-N
Ontology: Yohimbine alkaloids
COLLISIONENERGY: 30
FORMULA: C35H42N2O11
RETENTIONTIME: 6.720133
IONMODE: Negative
Comment: registered in RIKEN PlaSMA
Num Peaks: 157
79.01552	15
102.42171	21
106.07266	23
109.44428	18
121.02988	60
122.03602	17
123.03806	16
137.02235	125
138.03235	15
150.99944	15
151.03705	16
152.04361	39
165.02155	110
166.99438	94
167.00169	70
167.02768	15
167.03604	26
168.04239	25
181.00821	165
181.01823	54
182.0246	28
183.02235	38
187.04266	18
193.0452	38
195.03	467
196.02275	21
196.03398	20
197.03548	15
197.04497	19
197.05171	21
198.04111	15
205.92108	27
206.60858	15
208.73383	15
208.99655	68
209.00812	121
210.04167	26
210.05487	184
211.02271	24
211.05315	51
211.06415	16
211.08199	15
218.05873	21
222.00816	17
225.07396	67
226.03952	20
226.08551	16
226.52837	15
236.09357	26
239.0174	187
239.38037	16
240.0367	17
241.02368	39
242.03415	16
254.04005	16
254.05238	23
255.05038	141
256.06042	22
269.06537	550
269.08865	29
270.07224	35
283.06271	18
287.06345	17
308.08197	17
316.13165	21
331.15167	15
333.13632	16
335.04971	16
335.16617	16
347.69238	15
350.14844	15
351.11203	21
363.16129	15
363.17609	39
372.10498	15
380.17426	56
393.20694	27
395.19183	32
421.70471	21
421.99304	19
438.16064	15
439.21945	22
454.15887	16
457.80841	17
484.20258	36
488.19803	17
499.23001	20
500.22534	15
501.20328	15
508.5603	15
511.18787	21
513.43134	15
515.20258	19
518.21307	19
519.20172	20
519.24835	21
526.68384	25
527.18518	19
528.17194	15
528.19543	33
529.18134	16
529.20013	20
531.25751	18
532.17773	21
532.20117	18
534.24097	23
543.2207	16
555.1557	62
555.18817	40
559.20044	17
559.22272	25
560.21149	38
561.22192	17
563.20868	17
563.23132	15
574.25818	16
575.2254	35
575.24652	36
577.22107	145
578.2146	217
578.2356	215
578.80756	16
579.21857	114
579.24152	34
580.21295	16
580.2287	39
589.1889	33
589.25659	26
590.18774	17
591.23871	41
592.22247	68
592.24042	74
593.24878	727
594.25543	229
594.29578	15
595.22272	15
595.27374	19
596.25891	22
596.72424	23
604.19275	18
604.21436	15
605.18695	21
606.24701	48
606.27795	15
609.28357	18
621.27466	61
621.31256	17
635.21686	18
636.19543	15
636.23438	15
650.24347	546
651.25134	204
651.93201	22
652.23645	15
652.25891	24
652.28925	22
665.27252	1000

NAME: Syrosingopine
PRECURSORMZ: 711.27706305183
PRECURSORTYPE: [M+FA-H]-
INSTRUMENTTYPE: LC-ESI-QTOF
SMILES: CCOC(=O)OC1=C(OC)C=C(C=C1OC)C(=O)OC1CC2CN3CCC4=C(NC5=C4C=CC(OC)=C5)C3CC2C(C1OC)C(=O)OC
INCHIKEY: ZCDNRPPFBQDQHR-UHFFFAOYNA-N
Ontology: Yohimbine alkaloids
COLLISIONENERGY: 30
FORMULA: C35H42N2O11
RETENTIONTIME: 6.720133
IONMODE: Negative
Comment: registered in RIKEN PlaSMA
Num Peaks: 125
122.0302	7
135.63824	7
148.0481	7
165.01649	6
165.02562	6
181.01416	7
182.0119	8
183.02681	6
188.92203	6
193.04994	11
193.05717	7
195.02785	15
195.03543	7
196.03094	7
196.45119	8
197.04497	7
209.00668	12
209.01329	29
210.00407	6
210.05598	23
211.04857	6
211.06107	7
225.08415	7
239.02159	6
240.024	21
254.03633	16
255.04008	7
255.05453	7
261.03671	10
269.05859	26
269.07169	43
276.13293	7
305.18549	8
325.8667	7
330.6517	7
331.15057	7
335.18848	9
336.18948	7
341.24692	6
363.17554	15
364.17276	8
364.19138	7
365.19131	8
369.9025	7
393.18628	14
395.19479	13
395.21243	7
396.18796	8
410.10861	8
435.85724	6
443.20877	9
452.1525	7
463.6366	7
469.16891	8
483.18777	13
485.20172	7
496.18301	9
500.20517	7
511.18198	6
520.98151	9
528.20129	13
533.22455	7
538.15283	7
540.28363	9
543.19897	7
543.2312	13
546.94708	7
555.16833	15
556.16986	16
557.16541	7
558.23309	7
559.21558	7
560.20526	7
561.20752	10
563.21454	8
575.21558	6
575.25671	15
576.2384	27
577.29871	12
578.24628	7
579.14264	7
579.16223	7
580.23645	6
581.21484	7
583.2016	6
587.21533	8
591.24115	6
592.23328	46
593.24829	269
593.27783	33
593.33649	7
594.24048	57
594.26428	15
594.28497	7
595.27795	7
596.26385	7
596.65259	6
606.2594	21
607.27289	9
609.27863	7
619.21832	6
621.25269	7
621.27972	39
621.37079	7
622.27026	35
623.30286	6
633.26849	9
635.25305	6
650.21814	8
650.25397	110
650.96783	9
651.22797	7
651.25836	38
652.26129	7
653.27295	6
661.67896	6
662.4577	7
665.26965	1000
666.26477	227
666.28394	189
666.96777	7
667.24286	6
667.28534	37
667.31757	10
668.27838	34

NAME: Harman
PRECURSORMZ: 181.07712184783
PRECURSORTYPE: [M-H]-
INSTRUMENTTYPE: LC-ESI-QTOF
SMILES: CC1=C2NC3=CC=CC=C3C2=CC=N1
INCHIKEY: PSFDQSOCUJVVGF-UHFFFAOYSA-N
Ontology: Harmala alkaloids
COLLISIONENERGY: 50
FORMULA: C12H10N2
RETENTIONTIME: 3.689733
IONMODE: Negative
Comment: registered in RIKEN PlaSMA
Num Peaks: 1
167.05586	1000

NAME: Syrosingopine
PRECURSORMZ: 665.27158374783
PRECURSORTYPE: [M-H]-
INSTRUMENTTYPE: LC-ESI-QTOF
SMILES: CCOC(=O)OC1=C(OC)C=C(C=C1OC)C(=O)OC1CC2CN3CCC4=C(NC5=C4C=CC(OC)=C5)C3CC2C(C1OC)C(=O)OC
INCHIKEY: ZCDNRPPFBQDQHR-UHFFFAOYNA-N
Ontology: Yohimbine alkaloids
COLLISIONENERGY: 50
FORMULA: C35H42N2O11
RETENTIONTIME: 6.720133
IONMODE: Negative
Comment: registered in RIKEN PlaSMA
Num Peaks: 124
77.0398	11
81.03402	27
89.02312	106
90.0085	11
94.00934	14
107.01585	18
108.02282	29
110.85896	13
111.0465	27
119.05169	22
120.019	11
121.02708	54
121.03517	22
122.84694	14
123.00761	271
123.04814	11
124.01057	9
124.0181	34
125.02275	17
134.00014	15
137.02121	75
137.02901	73
137.06508	11
137.34718	14
137.99693	11
138.02936	100
138.03979	12
139.0383	42
146.06166	11
151.00865	10
151.05026	10
152.04549	26
157.03442	10
158.03923	14
161.24229	12
162.69492	15
164.01004	45
164.04657	10
166.02933	10
166.99736	129
167.03911	10
167.07704	11
167.99947	14
169.01392	15
179.03569	12
182.01149	14
182.02254	15
183.02979	24
183.08527	21
185.06548	16
186.0952	16
188.04489	11
195.02805	350
195.05692	14
196.0336	64
196.04202	25
197.04424	51
197.0681	10
198.07495	15
206.0298	10
209.0134	19
209.05354	10
210.00537	12
210.05302	217
210.61087	15
211.05711	24
223.0367	12
225.05486	10
225.07785	1000
226.07858	61
227.03113	12
227.07721	25
233.00951	11
233.04301	17
235.0885	11
236.09497	13
237.10349	28
240.02791	11
240.07689	11
242.03206	12
245.07489	11
249.09779	22
249.78502	11
250.10635	10
255.04869	11
261.0329	12
263.06735	10
269.06726	178
270.06241	12
278.0918	11
281.08472	10
286.12094	10
287.11884	11
288.12463	14
315.10754	11
315.4816	12
316.11523	11
316.12759	25
334.12927	11
347.13748	11
348.1304	11
349.15494	28
351.09995	14
367.12943	12
380.15695	26
380.16769	65
381.18936	23
394.15396	15
412.18027	11
428.80774	14
445.20279	11
473.17377	15
489.20764	11
502.20938	11
530.24213	13
559.17737	10
577.23621	12
578.21344	11
589.17773	13
605.20953	12
609.06433	12
661.61456	10
665.25043	44
665.27881	144

NAME: Syrosingopine
PRECURSORMZ: 711.27706305183
PRECURSORTYPE: [M+FA-H]-
INSTRUMENTTYPE: LC-ESI-QTOF
SMILES: CCOC(=O)OC1=C(OC)C=C(C=C1OC)C(=O)OC1CC2CN3CCC4=C(NC5=C4C=CC(OC)=C5)C3CC2C(C1OC)C(=O)OC
INCHIKEY: ZCDNRPPFBQDQHR-UHFFFAOYNA-N
Ontology: Yohimbine alkaloids
COLLISIONENERGY: 50
FORMULA: C35H42N2O11
RETENTIONTIME: 6.720133
IONMODE: Negative
Comment: registered in RIKEN PlaSMA
Num Peaks: 109
84.02681	29
94.01154	21
120.02442	27
121.03063	67
122.03235	58
123.00668	151
123.01279	72
124.01019	48
125.01366	41
137.01941	38
137.03281	36
138.02994	219
139.01379	30
139.02858	20
139.03693	42
139.04813	21
143.05206	23
153.05353	47
164.00952	41
164.01865	38
165.01935	122
165.05016	19
166.99065	43
166.99844	167
168.00662	29
169.01509	24
170.00633	19
171.07178	20
174.60628	26
181.0132	94
182.01851	54
183.02852	69
186.07961	24
194.04942	21
195.03009	636
196.03256	158
196.04973	19
197.06978	28
198.08641	61
199.0753	21
199.08887	48
209.00612	211
210.05092	195
211.04851	32
211.05814	19
213.10887	19
224.06558	23
225.07587	1000
226.07635	65
226.099	19
227.08003	50
234.0499	36
235.09334	28
236.09378	19
236.10637	19
239.01773	36
239.02818	105
239.04341	27
240.01588	25
241.0345	27
251.1123	49
255.04114	23
255.05147	27
263.13681	23
265.13022	21
269.05328	76
269.06653	399
270.06467	72
272.09595	39
278.06378	19
293.12811	26
301.09213	19
303.14456	31
306.14709	20
307.17657	19
309.11862	24
313.06253	26
316.11115	23
317.1199	23
319.79929	19
320.15363	32
320.1702	23
337.09372	33
348.14246	55
350.15829	25
351.12387	19
365.12924	33
379.15726	41
380.1655	63
381.17166	43
381.18808	26
382.15747	25
406.15942	48
412.18811	21
423.12744	23
437.13724	28
456.15994	21
458.49942	20
459.18936	24
487.19818	24
496.15924	29
500.20523	20
578.21185	127
597.97736	26
605.19	19
635.20648	19
650.22021	19
650.23944	31
650.27679	24

NAME: Harman
PRECURSORMZ: 181.07712184783
PRECURSORTYPE: [M-H]-
INSTRUMENTTYPE: LC-ESI-QTOF
SMILES: CC1=C2NC3=CC=CC=C3C2=CC=N1
INCHIKEY: PSFDQSOCUJVVGF-UHFFFAOYSA-N
Ontology: Harmala alkaloids
COLLISIONENERGY: 10
FORMULA: C12H10N2
RETENTIONTIME: 3.689733
IONMODE: Negative
Comment: registered in RIKEN PlaSMA
Num Peaks: 5
166.04842	51
166.0567	31
180.06577	29
180.07246	37
181.07555	1000

NAME: Syrosingopine
PRECURSORMZ: 665.27158374783
PRECURSORTYPE: [M-H]-
INSTRUMENTTYPE: LC-ESI-QTOF
SMILES: CCOC(=O)OC1=C(OC)C=C(C=C1OC)C(=O)OC1CC2CN3CCC4=C(NC5=C4C=CC(OC)=C5)C3CC2C(C1OC)C(=O)OC
INCHIKEY: ZCDNRPPFBQDQHR-UHFFFAOYNA-N
Ontology: Yohimbine alkaloids
COLLISIONENERGY: 10
FORMULA: C35H42N2O11
RETENTIONTIME: 6.720133
IONMODE: Negative
Comment: registered in RIKEN PlaSMA
Num Peaks: 37
124.01743	6
137.01498	5
137.02286	12
165.02116	7
166.99229	6
167.00832	6
181.01115	6
182.02257	11
195.02621	18
195.04068	14
196.03572	7
209.01546	9
210.05302	10
225.07396	14
225.08659	10
239.02251	17
240.03107	6
254.05225	5
269.06152	17
269.07217	14
381.17899	5
391.04282	5
463.9245	5
527.18597	5
563.18915	6
564.20117	6
577.19952	6
578.22614	23
593.24835	50
594.26508	13
595.27155	6
621.28174	6
623.05756	6
650.2608	23
651.25317	16
651.28149	6
665.27271	1000

NAME: Syrosingopine
PRECURSORMZ: 711.27706305183
PRECURSORTYPE: [M+FA-H]-
INSTRUMENTTYPE: LC-ESI-QTOF
SMILES: CCOC(=O)OC1=C(OC)C=C(C=C1OC)C(=O)OC1CC2CN3CCC4=C(NC5=C4C=CC(OC)=C5)C3CC2C(C1OC)C(=O)OC
INCHIKEY: ZCDNRPPFBQDQHR-UHFFFAOYNA-N
Ontology: Yohimbine alkaloids
COLLISIONENERGY: 10
FORMULA: C35H42N2O11
RETENTIONTIME: 6.720133
IONMODE: Negative
Comment: registered in RIKEN PlaSMA
Num Peaks: 34
181.01631	7
195.03693	10
210.05209	8
225.0751	34
239.0144	16
241.14282	7
269.06497	16
277.84338	7
341.89896	6
365.81558	6
391.20709	7
499.6572	8
577.22546	9
578.24683	7
592.24084	7
592.26514	5
593.23511	22
593.25641	22
594.2583	7
594.27588	10
622.27478	14
622.2998	6
650.23804	19
650.27606	13
651.25452	9
652.24921	7
665.27087	1000
665.31732	11
666.27539	394
667.27191	27
667.30225	28
668.26599	16
711.26904	22
711.28918	17

NAME: Harman
PRECURSORMZ: 181.07712184783
PRECURSORTYPE: [M-H]-
INSTRUMENTTYPE: LC-ESI-QTOF
SMILES: CC1=C2NC3=CC=CC=C3C2=CC=N1
INCHIKEY: PSFDQSOCUJVVGF-UHFFFAOYSA-N
Ontology: Harmala alkaloids
COLLISIONENERGY: 10
FORMULA: C12H10N2
RETENTIONTIME: 3.689733
IONMODE: Negative
Comment: registered in RIKEN PlaSMA
Num Peaks: 3
180.06938	28
180.64684	12
181.07663	1000

NAME: Syrosingopine
PRECURSORMZ: 711.27706305183
PRECURSORTYPE: [M+FA-H]-
INSTRUMENTTYPE: LC-ESI-QTOF
SMILES: CCOC(=O)OC1=C(OC)C=C(C=C1OC)C(=O)OC1CC2CN3CCC4=C(NC5=C4C=CC(OC)=C5)C3CC2C(C1OC)C(=O)OC
INCHIKEY: ZCDNRPPFBQDQHR-UHFFFAOYNA-N
Ontology: Yohimbine alkaloids
COLLISIONENERGY: 10
FORMULA: C35H42N2O11
RETENTIONTIME: 6.720133
IONMODE: Negative
Comment: registered in RIKEN PlaSMA
Num Peaks: 7
665.27051	1000
666.2738	369
666.33337	8
667.27789	97
668.25836	6
668.29498	13
711.27515	197

NAME: Harman
PRECURSORMZ: 181.07712184783
PRECURSORTYPE: [M-H]-
INSTRUMENTTYPE: LC-ESI-QTOF
SMILES: CC1=C2NC3=CC=CC=C3C2=CC=N1
INCHIKEY: PSFDQSOCUJVVGF-UHFFFAOYSA-N
Ontology: Harmala alkaloids
COLLISIONENERGY: 30
FORMULA: C12H10N2
RETENTIONTIME: 3.689733
IONMODE: Negative
Comment: registered in RIKEN PlaSMA
Num Peaks: 2
165.04179	1000
181.0748	680

NAME: Syrosingopine
PRECURSORMZ: 665.27158374783
PRECURSORTYPE: [M-H]-
INSTRUMENTTYPE: LC-ESI-QTOF
SMILES: CCOC(=O)OC1=C(OC)C=C(C=C1OC)C(=O)OC1CC2CN3CCC4=C(NC5=C4C=CC(OC)=C5)C3CC2C(C1OC)C(=O)OC
INCHIKEY: ZCDNRPPFBQDQHR-UHFFFAOYNA-N
Ontology: Yohimbine alkaloids
COLLISIONENERGY: 30
FORMULA: C35H42N2O11
RETENTIONTIME: 6.720133
IONMODE: Negative
Comment: registered in RIKEN PlaSMA
Num Peaks: 180
97.02525	17
105.07256	20
107.04508	18
121.02419	25
121.03128	21
124.01255	18
135.03734	15
135.04388	29
137.02742	45
138.02782	16
138.03398	16
151.00662	16
153.05547	30
164.00711	17
165.02142	116
166.07278	18
166.99678	52
167.00514	22
167.03485	67
174.052	16
176.07027	17
176.8886	24
178.7765	36
180.01692	19
181.01665	243
182.01694	36
183.02222	84
183.02974	250
184.06647	16
193.04655	20
195.00093	20
195.02789	377
196.02927	63
196.03999	18
197.03522	45
197.04814	17
198.07233	16
209.01076	249
210.0153	17
210.03685	25
210.05058	179
210.05745	56
210.07405	16
211.05806	56
212.05994	17
213.05937	16
224.07019	20
225.07312	99
226.45488	16
236.07176	20
239.02075	321
240.02184	22
240.05014	17
241.02058	18
241.02945	19
244.07951	20
249.09605	19
254.04387	18
255.0489	248
256.04507	19
257.05652	43
267.04575	19
269.06442	575
270.05936	21
271.08505	18
276.41193	16
278.14175	22
281.06378	18
300.96411	17
313.02145	16
321.0903	29
333.15952	17
335.26276	22
342.21555	24
343.49817	18
344.14313	17
344.59827	16
345.16263	17
349.15924	19
351.09015	22
358.05978	17
363.17947	34
379.10715	24
379.16202	21
380.16455	16
380.18176	55
381.20535	23
384.14569	20
390.12772	16
397.19434	24
409.10339	20
414.22	24
424.12064	20
437.14615	24
441.18402	17
455.20227	24
457.21143	17
468.14148	32
468.18881	18
478.24954	18
485.22397	18
498.16626	16
499.18057	19
512.17303	19
513.19232	18
516.20996	18
516.23157	33
518.79669	20
527.17139	20
527.18787	16
528.20251	17
529.19684	20
530.19537	22
531.39648	25
532.18286	18
532.23877	16
532.26385	18
534.2262	44
538.15845	18
543.229	52
544.19263	26
549.24921	26
555.18195	55
556.16962	60
556.18835	18
559.59351	18
560.19727	55
560.21844	49
561.21991	19
562.14441	16
562.2135	18
562.27148	18
566.1839	22
569.20679	29
570.1875	19
575.22314	19
575.23932	65
575.25714	21
577.2041	37
577.22229	18
577.25	18
578.22418	318
578.25171	57
579.20032	37
579.22888	134
579.27209	19
580.21411	22
587.19171	18
591.22406	20
591.35077	21
592.24292	148
592.27161	16
593.25006	885
593.68842	16
594.25098	208
594.28528	22
595.25238	21
595.66559	18
596.45264	18
603.19781	18
605.21136	17
606.23969	38
606.27014	34
607.27246	90
608.25885	20
621.2829	33
622.30713	18
623.2688	22
623.50116	18
634.21948	20
635.21313	16
635.24518	20
637.26318	21
645.22729	18
650.2478	675
651.22278	62
651.25195	228
652.2597	18
664.37048	16
665.27618	1000

NAME: Syrosingopine
PRECURSORMZ: 711.27706305183
PRECURSORTYPE: [M+FA-H]-
INSTRUMENTTYPE: LC-ESI-QTOF
SMILES: CCOC(=O)OC1=C(OC)C=C(C=C1OC)C(=O)OC1CC2CN3CCC4=C(NC5=C4C=CC(OC)=C5)C3CC2C(C1OC)C(=O)OC
INCHIKEY: ZCDNRPPFBQDQHR-UHFFFAOYNA-N
Ontology: Yohimbine alkaloids
COLLISIONENERGY: 30
FORMULA: C35H42N2O11
RETENTIONTIME: 6.720133
IONMODE: Negative
Comment: registered in RIKEN PlaSMA
Num Peaks: 92
141.71262	7
150.03975	7
164.71252	8
165.01682	5
169.00789	5
182.0256	7
182.07294	6
183.03319	27
195.02367	6
196.02914	11
196.03513	22
196.04594	11
200.10767	6
209.01201	59
210.04799	16
210.05757	7
211.01698	5
211.05573	6
239.0173	22
240.02151	5
240.03656	8
255.04401	19
255.05748	21
269.065	28
269.07947	6
270.06308	18
335.17795	6
363.15802	7
380.16586	6
380.17975	6
382.18829	5
392.44641	6
395.2084	6
406.1524	12
480.16858	7
499.19913	13
527.17212	7
531.26215	7
532.17877	10
532.26239	6
533.54053	5
544.20764	6
555.17456	36
555.19263	16
556.17822	6
560.23438	15
561.22803	7
575.22778	20
575.25031	50
576.24005	11
577.22455	12
577.24756	9
578.22504	12
578.28058	7
579.22485	6
579.24182	7
588.59021	6
592.24469	23
593.24664	217
593.28491	21
593.32764	9
594.22772	14
594.24994	57
595.26801	18
596.25757	8
606.25281	14
606.2771	13
607.23987	5
610.42444	5
619.22833	5
621.27637	18
621.29266	15
622.27008	8
622.28638	24
623.2785	5
633.25128	7
635.23499	6
645.2572	5
649.23492	7
650.24847	148
651.21735	8
651.24286	19
652.26636	17
665.22015	11
665.27179	1000
665.81738	5
666.27075	383
667.21594	7
667.27136	92
667.30267	8
668.26038	7
668.30548	7

NAME: Harman
PRECURSORMZ: 181.07712184783
PRECURSORTYPE: [M-H]-
INSTRUMENTTYPE: LC-ESI-QTOF
SMILES: CC1=C2NC3=CC=CC=C3C2=CC=N1
INCHIKEY: PSFDQSOCUJVVGF-UHFFFAOYSA-N
Ontology: Harmala alkaloids
COLLISIONENERGY: 50
FORMULA: C12H10N2
RETENTIONTIME: 3.689733
IONMODE: Negative
Comment: registered in RIKEN PlaSMA
Num Peaks: 1
165.04982	1000

NAME: Syrosingopine
PRECURSORMZ: 665.27158374783
PRECURSORTYPE: [M-H]-
INSTRUMENTTYPE: LC-ESI-QTOF
SMILES: CCOC(=O)OC1=C(OC)C=C(C=C1OC)C(=O)OC1CC2CN3CCC4=C(NC5=C4C=CC(OC)=C5)C3CC2C(C1OC)C(=O)OC
INCHIKEY: ZCDNRPPFBQDQHR-UHFFFAOYNA-N
Ontology: Yohimbine alkaloids
COLLISIONENERGY: 50
FORMULA: C35H42N2O11
RETENTIONTIME: 6.720133
IONMODE: Negative
Comment: registered in RIKEN PlaSMA
Num Peaks: 121
81.03717	17
89.02325	176
90.03081	12
93.03193	14
106.04411	10
109.03117	11
120.99471	12
121.02934	31
121.03407	44
122.00166	12
122.0333	36
122.0392	10
123.00613	219
123.04127	11
124.00827	21
124.01671	15
137.02295	120
137.03374	15
137.9957	25
138.02473	19
138.03081	68
138.03944	14
139.04527	15
139.07248	10
151.03899	11
152.04791	11
153.05392	15
163.00563	11
164.0118	58
165.01491	15
166.99545	46
167.00491	22
167.99966	46
169.01851	25
171.04999	13
171.07133	14
179.02324	14
181.00572	10
181.01266	15
182.01605	22
183.02382	13
187.08372	14
195.02702	449
195.06035	14
196.04053	18
197.04514	11
197.06696	15
198.06952	10
198.08913	24
209.01291	40
210.02187	10
210.05185	305
211.05856	43
213.10307	11
223.0726	12
225.07542	1000
226.06912	56
226.08542	62
227.02917	12
227.07362	11
227.08519	10
229.01543	10
236.09105	25
237.07176	10
237.09341	29
237.1042	10
239.0744	12
240.02599	33
240.03519	12
245.03232	11
248.09758	14
249.1198	14
251.10922	12
252.0704	15
252.10764	11
253.00282	18
254.05553	12
264.12009	15
265.07117	11
269.06744	197
270.08194	36
273.04471	10
273.11002	11
275.10718	13
278.09647	16
278.10516	12
280.10272	10
287.10947	20
288.11935	12
289.13641	11
290.1333	12
291.10321	10
298.10397	14
304.11685	23
315.11166	25
315.17563	14
316.6864	12
317.12183	21
318.13165	13
320.15549	20
321.16357	12
348.15491	27
348.16742	10
349.1304	16
349.17657	16
365.14032	11
380.17593	99
382.18353	13
423.15497	26
425.18597	11
426.17758	11
436.13809	12
445.23639	11
474.20529	11
549.22809	17
550.22662	16
555.17609	13
563.19238	12
577.19598	13
590.17365	10
606.20068	14

NAME: Harman
PRECURSORMZ: 181.07712184783
PRECURSORTYPE: [M-H]-
INSTRUMENTTYPE: LC-ESI-QTOF
SMILES: CC1=C2NC3=CC=CC=C3C2=CC=N1
INCHIKEY: PSFDQSOCUJVVGF-UHFFFAOYSA-N
Ontology: Harmala alkaloids
COLLISIONENERGY: 10
FORMULA: C12H10N2
RETENTIONTIME: 3.689733
IONMODE: Negative
Comment: registered in RIKEN PlaSMA
Num Peaks: 7
91.91193	18
96.23209	18
137.48265	42
165.05171	21
176.94044	20
180.07414	22
181.07651	1000

NAME: Syrosingopine
PRECURSORMZ: 665.27158374783
PRECURSORTYPE: [M-H]-
INSTRUMENTTYPE: LC-ESI-QTOF
SMILES: CCOC(=O)OC1=C(OC)C=C(C=C1OC)C(=O)OC1CC2CN3CCC4=C(NC5=C4C=CC(OC)=C5)C3CC2C(C1OC)C(=O)OC
INCHIKEY: ZCDNRPPFBQDQHR-UHFFFAOYNA-N
Ontology: Yohimbine alkaloids
COLLISIONENERGY: 10
FORMULA: C35H42N2O11
RETENTIONTIME: 6.720133
IONMODE: Negative
Comment: registered in RIKEN PlaSMA
Num Peaks: 41
55.77785	7
138.03116	24
165.01735	12
167.00404	9
167.03264	11
168.00787	6
181.01115	14
182.02097	20
183.02068	10
195.02071	23
195.02957	34
196.03889	23
197.03076	7
209.00497	15
210.00636	11
210.05322	32
225.07884	11
239.0257	15
240.03012	7
255.05446	11
269.0614	17
269.07364	16
270.0748	8
337.09637	6
449.72128	5
515.20148	6
526.33258	6
578.2121	21
578.23102	13
579.26227	7
591.23328	7
592.24139	18
592.25836	6
593.25616	60
594.24731	33
606.26642	8
621.29742	8
650.25513	17
651.24237	16
651.26434	11
665.27081	1000

NAME: Harman
PRECURSORMZ: 181.07712184783
PRECURSORTYPE: [M-H]-
INSTRUMENTTYPE: LC-ESI-QTOF
SMILES: CC1=C2NC3=CC=CC=C3C2=CC=N1
INCHIKEY: PSFDQSOCUJVVGF-UHFFFAOYSA-N
Ontology: Harmala alkaloids
COLLISIONENERGY: 10
FORMULA: C12H10N2
RETENTIONTIME: 3.689733
IONMODE: Negative
Comment: registered in RIKEN PlaSMA
Num Peaks: 5
99.65662	10
138.90654	13
180.071	19
180.86635	9
181.07745	1000

NAME: Syrosingopine
PRECURSORMZ: 665.27158374783
PRECURSORTYPE: [M-H]-
INSTRUMENTTYPE: LC-ESI-QTOF
SMILES: CCOC(=O)OC1=C(OC)C=C(C=C1OC)C(=O)OC1CC2CN3CCC4=C(NC5=C4C=CC(OC)=C5)C3CC2C(C1OC)C(=O)OC
INCHIKEY: ZCDNRPPFBQDQHR-UHFFFAOYNA-N
Ontology: Yohimbine alkaloids
COLLISIONENERGY: 10
FORMULA: C35H42N2O11
RETENTIONTIME: 6.720133
IONMODE: Negative
Comment: registered in RIKEN PlaSMA
Num Peaks: 2
665.1322	5
665.26862	1000

NAME: Harman
PRECURSORMZ: 181.07712184783
PRECURSORTYPE: [M-H]-
INSTRUMENTTYPE: LC-ESI-QTOF
SMILES: CC1=C2NC3=CC=CC=C3C2=CC=N1
INCHIKEY: PSFDQSOCUJVVGF-UHFFFAOYSA-N
Ontology: Harmala alkaloids
COLLISIONENERGY: 30
FORMULA: C12H10N2
RETENTIONTIME: 3.689733
IONMODE: Negative
Comment: registered in RIKEN PlaSMA
Num Peaks: 4
153.05728	175
165.04651	219
166.05508	167
181.07697	1000

NAME: Syrosingopine
PRECURSORMZ: 665.27158374783
PRECURSORTYPE: [M-H]-
INSTRUMENTTYPE: LC-ESI-QTOF
SMILES: CCOC(=O)OC1=C(OC)C=C(C=C1OC)C(=O)OC1CC2CN3CCC4=C(NC5=C4C=CC(OC)=C5)C3CC2C(C1OC)C(=O)OC
INCHIKEY: ZCDNRPPFBQDQHR-UHFFFAOYNA-N
Ontology: Yohimbine alkaloids
COLLISIONENERGY: 30
FORMULA: C35H42N2O11
RETENTIONTIME: 6.720133
IONMODE: Negative
Comment: registered in RIKEN PlaSMA
Num Peaks: 149
81.03294	26
93.03655	14
121.03513	19
122.03728	20
137.02309	48
138.03362	15
140.03345	16
150.03827	14
150.99762	16
151.00766	15
152.01372	38
165.01054	14
165.02115	49
165.04829	16
166.03073	24
167.00023	110
181.01498	132
182.01801	53
182.02969	40
183.02917	151
193.0457	21
195.02934	238
196.03587	119
196.04782	19
197.03813	15
197.04669	33
198.04202	18
209.00394	85
209.01532	169
210.00436	15
210.04407	61
210.05307	175
210.73216	20
211.0195	20
211.05409	21
212.05125	15
216.06886	19
216.13492	16
225.07744	74
226.0838	38
227.08949	16
239.02013	197
239.03542	14
240.02496	16
240.92984	16
251.05154	16
254.0358	14
254.04985	35
255.05267	127
256.04987	17
263.11456	16
266.07773	18
267.05371	16
268.05499	16
269.06638	391
270.07709	26
271.06415	16
275.74054	14
281.05658	14
303.15433	16
314.89615	20
319.14145	17
321.16727	18
335.17316	19
335.19	15
345.1539	33
346.16116	17
347.12772	20
348.14142	55
361.15335	14
364.18503	16
380.15878	15
380.17508	19
393.17648	29
396.20816	20
397.2085	14
408.88681	14
433.55881	16
435.13116	16
453.17624	20
469.1683	15
485.17496	19
496.16373	20
499.22318	15
516.21735	18
516.2467	16
521.59448	19
527.18475	20
527.43024	16
528.19165	16
532.16071	20
533.2627	16
534.23639	18
543.21771	31
555.15625	17
555.18884	109
556.17822	14
560.21094	16
560.23083	20
561.20221	16
562.14716	15
575.24951	55
575.27734	26
576.18811	21
576.2196	34
576.25964	32
576.6449	14
577.20966	16
577.23065	39
578.22986	311
579.2392	74
580.22046	15
580.25012	16
583.03638	23
587.20306	21
589.17419	14
589.19019	16
590.19739	16
591.25079	33
592.22266	16
592.23615	37
592.25916	16
593.24945	1000
594.22284	37
594.25549	87
595.22681	15
595.25507	16
596.27051	18
596.68683	15
604.1955	17
605.22174	14
606.21967	14
606.26935	30
607.25458	34
608.25018	17
619.23169	16
621.27716	23
621.29773	49
622.2821	51
649.24225	23
650.24854	612
650.29541	14
651.23761	61
651.25568	79
652.25842	21
652.28662	16
663.29523	14
665.22473	14
665.27087	531

NAME: Syrosingopine
PRECURSORMZ: 711.27706305183
PRECURSORTYPE: [M+FA-H]-
INSTRUMENTTYPE: LC-ESI-QTOF
SMILES: CCOC(=O)OC1=C(OC)C=C(C=C1OC)C(=O)OC1CC2CN3CCC4=C(NC5=C4C=CC(OC)=C5)C3CC2C(C1OC)C(=O)OC
INCHIKEY: ZCDNRPPFBQDQHR-UHFFFAOYNA-N
Ontology: Yohimbine alkaloids
COLLISIONENERGY: 30
FORMULA: C35H42N2O11
RETENTIONTIME: 6.720133
IONMODE: Negative
Comment: registered in RIKEN PlaSMA
Num Peaks: 117
123.04092	8
163.04387	7
165.02086	22
167.03302	12
169.00372	6
183.02814	7
183.0407	7
193.05223	7
196.03319	27
197.05147	8
198.04778	6
200.11716	7
209.00189	12
209.01219	8
210.05243	50
211.05855	17
212.0705	17
225.07053	6
239.0204	7
239.02997	6
239.99695	7
240.02794	15
255.0457	13
255.06081	13
256.05276	10
259.02893	6
269.056	18
269.06943	62
270.0787	9
270.74045	8
272.07007	7
300.32565	15
317.16824	7
335.17096	15
335.18628	11
335.86209	8
341.10339	6
344.11401	8
349.1507	8
353.5874	6
363.16144	13
364.17957	7
365.17612	9
367.50092	7
380.17441	7
396.19879	8
396.21103	6
443.19464	7
468.18353	6
487.19934	6
491.55032	7
496.16504	13
500.20218	7
501.25125	6
511.18753	20
515.38562	7
516.20203	7
527.18481	14
528.17572	8
528.19452	6
531.25818	11
532.18475	9
545.20569	11
545.22302	8
555.16449	28
556.19775	18
571.19073	9
575.21429	12
575.22809	25
575.25751	12
576.23889	27
577.21362	14
578.22852	31
579.22382	7
580.77313	14
587.21362	8
588.2049	12
588.22742	7
591.22937	7
592.21545	12
592.23578	22
592.25244	14
593.21802	12
593.25336	174
593.26672	72
594.24078	23
594.26367	43
595.2818	8
595.34161	6
596.27557	8
601.23224	11
605.22986	7
606.26495	23
607.25928	7
618.35754	7
619.21387	21
621.28296	28
621.30768	7
622.27057	14
622.29236	18
623.54022	9
633.21613	6
635.24945	7
647.20514	9
649.2511	6
650.22791	54
650.25684	138
650.67792	8
651.24048	21
651.26874	13
664.24933	13
665.26874	1000
666.28027	398
667.28461	65
668.26447	7
668.29352	7
668.31592	8

NAME: Syrosingopine
PRECURSORMZ: 665.27158374783
PRECURSORTYPE: [M-H]-
INSTRUMENTTYPE: LC-ESI-QTOF
SMILES: CCOC(=O)OC1=C(OC)C=C(C=C1OC)C(=O)OC1CC2CN3CCC4=C(NC5=C4C=CC(OC)=C5)C3CC2C(C1OC)C(=O)OC
INCHIKEY: ZCDNRPPFBQDQHR-UHFFFAOYNA-N
Ontology: Yohimbine alkaloids
COLLISIONENERGY: 50
FORMULA: C35H42N2O11
RETENTIONTIME: 6.720133
IONMODE: Negative
Comment: registered in RIKEN PlaSMA
Num Peaks: 137
67.05377	10
81.03542	24
89.02052	26
89.02596	71
90.00994	26
90.02827	33
95.04614	12
96.01863	15
97.03161	11
104.99328	10
106.00195	10
107.01726	12
116.04523	10
119.77749	10
120.02361	23
121.028	57
121.03547	9
122.00347	29
123.00855	209
123.04498	10
125.02073	27
126.02235	16
135.00063	12
137.02357	129
138.03131	46
138.99843	13
139.03165	11
146.0573	10
151.0042	10
152.04294	22
152.04893	26
153.05455	39
160.01756	10
163.03023	11
164.00911	22
165.00952	12
165.01828	40
166.06226	10
166.99211	19
167.00288	74
167.0377	15
167.9966	11
168.00175	28
168.01007	12
169.01636	11
169.05548	17
170.06325	11
175.79256	10
181.01494	11
181.06268	10
183.02739	63
183.03998	10
183.05887	13
184.02881	11
184.06769	10
194.99316	29
195.03079	251
196.03455	119
196.05501	20
197.03636	23
198.06335	10
199.0916	10
208.06567	13
209.00764	11
210.01949	12
210.05238	198
210.07379	16
211.04482	16
211.09401	15
212.0533	10
212.0672	12
213.05888	34
213.1188	13
214.05847	13
216.03818	11
221.1077	11
222.0773	15
223.02954	10
225.0768	1000
226.06514	11
226.08177	166
227.0743	10
235.09068	13
236.09158	11
237.09744	10
239.08794	10
240.01796	13
247.09059	20
248.08972	12
250.10747	11
253.09288	13
255.03885	22
255.08139	11
258.05408	10
260.10941	15
261.07681	10
261.1207	11
263.13254	10
269.06259	141
269.08786	10
270.06796	47
270.09229	13
271.07327	12
272.10986	18
287.11359	10
288.11572	19
297.1116	13
304.05649	10
305.17111	11
315.12125	12
316.10043	13
330.74908	11
333.12418	13
337.09872	19
337.12192	15
349.15619	10
350.15759	15
351.09637	13
363.16333	16
380.1687	75
380.18472	39
381.18323	31
382.02325	11
387.21033	10
438.16193	13
467.17316	15
469.16272	11
470.16385	19
486.18701	10
499.13467	14
500.20694	15
518.19855	11
548.20392	13
564.22125	23
577.20142	11
578.24017	11
604.19324	10

NAME: Harmol
PRECURSORMZ: 197.07203654783
PRECURSORTYPE: [M-H]-
INSTRUMENTTYPE: LC-ESI-QTOF
SMILES: CC1=C2NC3=C(C=CC(O)=C3)C2=CC=N1
INCHIKEY: SATMZMMKDDTOSQ-UHFFFAOYSA-N
Ontology: Harmala alkaloids
COLLISIONENERGY: 10
FORMULA: C12H10N2O
RETENTIONTIME: 3.1657
IONMODE: Negative
Comment: registered in RIKEN PlaSMA
Num Peaks: 13
154.07086	12
168.07259	36
169.07616	56
169.0856	10
170.07466	12
182.03932	19
182.04958	55
183.05252	12
184.05606	29
196.06238	72
196.07326	26
197.07094	1000
197.0905	17

NAME: alpha-Solanine
PRECURSORMZ: 866.49074424783
PRECURSORTYPE: [M-H]-
INSTRUMENTTYPE: LC-ESI-QTOF
SMILES: CC1C2CCC(C)CN2C2CC3C4CC=C5CC(CCC5(C)C4CCC3(C)C12)OC1OC(CO)C(O)C(OC2OC(CO)C(O)C(O)C2O)C1OC1OC(C)C(O)C(O)C1O
INCHIKEY: ZGVSETXHNHBTRK-UHFFFAOYNA-N
Ontology: Steroidal saponins
COLLISIONENERGY: 10
FORMULA: C45H73NO15
RETENTIONTIME: 4.95765
IONMODE: Negative
Comment: registered in RIKEN PlaSMA
Num Peaks: 16
101.02328	117
114.71175	36
119.03463	29
143.02779	33
205.0695	54
205.07869	29
357.40652	39
558.37103	33
704.4455	220
705.41058	41
705.43866	203
705.46399	78
706.43604	37
720.44336	88
866.4826	1000
866.51123	307

NAME: alpha-Solanine
PRECURSORMZ: 912.49622355183
PRECURSORTYPE: [M+FA-H]-
INSTRUMENTTYPE: LC-ESI-QTOF
SMILES: CC1C2CCC(C)CN2C2CC3C4CC=C5CC(CCC5(C)C4CCC3(C)C12)OC1OC(CO)C(O)C(OC2OC(CO)C(O)C(O)C2O)C1OC1OC(C)C(O)C(O)C1O
INCHIKEY: ZGVSETXHNHBTRK-UHFFFAOYNA-N
Ontology: Steroidal saponins
COLLISIONENERGY: 10
FORMULA: C45H73NO15
RETENTIONTIME: 4.95765
IONMODE: Negative
Comment: registered in RIKEN PlaSMA
Num Peaks: 22
59.01412	6
119.0358	11
143.033	13
161.0455	6
163.06389	17
179.05179	7
205.06926	10
468.93134	5
704.43976	291
705.4397	127
706.45404	20
707.42944	7
720.43109	6
721.44208	6
866.48969	1000
866.55243	15
867.49371	502
868.47455	52
868.49896	91
869.50293	21
870.50543	5
912.49652	879

NAME: Harmol
PRECURSORMZ: 197.07203654783
PRECURSORTYPE: [M-H]-
INSTRUMENTTYPE: LC-ESI-QTOF
SMILES: CC1=C2NC3=C(C=CC(O)=C3)C2=CC=N1
INCHIKEY: SATMZMMKDDTOSQ-UHFFFAOYSA-N
Ontology: Harmala alkaloids
COLLISIONENERGY: 10
FORMULA: C12H10N2O
RETENTIONTIME: 3.1657
IONMODE: Negative
Comment: registered in RIKEN PlaSMA
Num Peaks: 4
179.23738	5
182.05328	14
196.06656	24
197.07143	1000

NAME: alpha-Solanine
PRECURSORMZ: 866.49074424783
PRECURSORTYPE: [M-H]-
INSTRUMENTTYPE: LC-ESI-QTOF
SMILES: CC1C2CCC(C)CN2C2CC3C4CC=C5CC(CCC5(C)C4CCC3(C)C12)OC1OC(CO)C(O)C(OC2OC(CO)C(O)C(O)C2O)C1OC1OC(C)C(O)C(O)C1O
INCHIKEY: ZGVSETXHNHBTRK-UHFFFAOYNA-N
Ontology: Steroidal saponins
COLLISIONENERGY: 10
FORMULA: C45H73NO15
RETENTIONTIME: 4.95765
IONMODE: Negative
Comment: registered in RIKEN PlaSMA
Num Peaks: 7
102.54084	18
365.10672	33
704.41925	18
704.44464	66
705.42865	22
866.48474	1000
866.53027	62

NAME: alpha-Solanine
PRECURSORMZ: 912.49622355183
PRECURSORTYPE: [M+FA-H]-
INSTRUMENTTYPE: LC-ESI-QTOF
SMILES: CC1C2CCC(C)CN2C2CC3C4CC=C5CC(CCC5(C)C4CCC3(C)C12)OC1OC(CO)C(O)C(OC2OC(CO)C(O)C(O)C2O)C1OC1OC(C)C(O)C(O)C1O
INCHIKEY: ZGVSETXHNHBTRK-UHFFFAOYNA-N
Ontology: Steroidal saponins
COLLISIONENERGY: 10
FORMULA: C45H73NO15
RETENTIONTIME: 4.95765
IONMODE: Negative
Comment: registered in RIKEN PlaSMA
Num Peaks: 9
504.7439	6
866.48572	739
867.4928	445
867.55975	6
868.44971	9
868.50061	110
869.50397	14
870.47986	6
912.49225	1000

NAME: Harmol
PRECURSORMZ: 197.07203654783
PRECURSORTYPE: [M-H]-
INSTRUMENTTYPE: LC-ESI-QTOF
SMILES: CC1=C2NC3=C(C=CC(O)=C3)C2=CC=N1
INCHIKEY: SATMZMMKDDTOSQ-UHFFFAOYSA-N
Ontology: Harmala alkaloids
COLLISIONENERGY: 30
FORMULA: C12H10N2O
RETENTIONTIME: 3.1657
IONMODE: Negative
Comment: registered in RIKEN PlaSMA
Num Peaks: 14
154.04332	72
154.0544	729
155.06572	110
168.07065	1000
169.04871	107
169.05692	72
169.07309	210
169.08455	107
169.40131	69
182.04283	158
182.0511	268
183.0511	196
196.06059	227
197.06946	127

NAME: alpha-Solanine
PRECURSORMZ: 866.49074424783
PRECURSORTYPE: [M-H]-
INSTRUMENTTYPE: LC-ESI-QTOF
SMILES: CC1C2CCC(C)CN2C2CC3C4CC=C5CC(CCC5(C)C4CCC3(C)C12)OC1OC(CO)C(O)C(OC2OC(CO)C(O)C(O)C2O)C1OC1OC(C)C(O)C(O)C1O
INCHIKEY: ZGVSETXHNHBTRK-UHFFFAOYNA-N
Ontology: Steroidal saponins
COLLISIONENERGY: 30
FORMULA: C45H73NO15
RETENTIONTIME: 4.95765
IONMODE: Negative
Comment: registered in RIKEN PlaSMA
Num Peaks: 30
85.03056	23
89.02356	47
89.02889	18
101.02962	39
103.02357	17
103.04388	18
113.02406	42
119.03118	24
143.03349	58
161.0481	25
163.05685	26
205.06805	46
247.08096	20
327.10864	18
424.82468	19
441.28424	32
558.37817	66
558.40002	20
559.37457	37
704.43298	1000
704.48022	39
705.41602	67
705.44061	326
706.43994	69
710.19012	19
720.40955	35
721.43658	19
866.4458	25
866.47638	105
866.51514	52

NAME: alpha-Solanine
PRECURSORMZ: 912.49622355183
PRECURSORTYPE: [M+FA-H]-
INSTRUMENTTYPE: LC-ESI-QTOF
SMILES: CC1C2CCC(C)CN2C2CC3C4CC=C5CC(CCC5(C)C4CCC3(C)C12)OC1OC(CO)C(O)C(OC2OC(CO)C(O)C(O)C2O)C1OC1OC(C)C(O)C(O)C1O
INCHIKEY: ZGVSETXHNHBTRK-UHFFFAOYNA-N
Ontology: Steroidal saponins
COLLISIONENERGY: 30
FORMULA: C45H73NO15
RETENTIONTIME: 4.95765
IONMODE: Negative
Comment: registered in RIKEN PlaSMA
Num Peaks: 35
87.00766	6
89.01924	5
89.02412	6
101.02107	22
119.03332	10
143.03064	28
143.04071	19
161.04349	35
161.05406	6
163.06355	18
179.05594	18
205.06837	7
205.07878	10
247.07686	6
558.36688	28
559.38477	10
560.37793	5
704.43823	1000
704.5022	8
705.43829	499
706.43799	100
707.45123	28
720.41528	14
720.44775	25
720.48956	6
721.41968	10
721.46722	6
722.42566	7
866.48682	757
867.4928	374
868.49524	112
869.47968	5
869.52637	10
870.49097	5
870.51477	5

NAME: Harmol
PRECURSORMZ: 197.07203654783
PRECURSORTYPE: [M-H]-
INSTRUMENTTYPE: LC-ESI-QTOF
SMILES: CC1=C2NC3=C(C=CC(O)=C3)C2=CC=N1
INCHIKEY: SATMZMMKDDTOSQ-UHFFFAOYSA-N
Ontology: Harmala alkaloids
COLLISIONENERGY: 50
FORMULA: C12H10N2O
RETENTIONTIME: 3.1657
IONMODE: Negative
Comment: registered in RIKEN PlaSMA
Num Peaks: 2
167.05603	636
183.01947	1000

NAME: alpha-Solanine
PRECURSORMZ: 866.49074424783
PRECURSORTYPE: [M-H]-
INSTRUMENTTYPE: LC-ESI-QTOF
SMILES: CC1C2CCC(C)CN2C2CC3C4CC=C5CC(CCC5(C)C4CCC3(C)C12)OC1OC(CO)C(O)C(OC2OC(CO)C(O)C(O)C2O)C1OC1OC(C)C(O)C(O)C1O
INCHIKEY: ZGVSETXHNHBTRK-UHFFFAOYNA-N
Ontology: Steroidal saponins
COLLISIONENERGY: 50
FORMULA: C45H73NO15
RETENTIONTIME: 4.95765
IONMODE: Negative
Comment: registered in RIKEN PlaSMA
Num Peaks: 21
59.01022	312
59.0155	110
68.27905	92
71.01315	427
89.02499	523
101.02219	812
113.01817	92
113.02455	96
114.02733	115
114.03516	147
115.0257	106
119.03284	1000
120.03996	92
125.0218	183
131.04631	83
143.03343	307
159.04065	92
161.03857	87
163.06192	87
205.07422	110
639.27832	83

NAME: alpha-Solanine
PRECURSORMZ: 912.49622355183
PRECURSORTYPE: [M+FA-H]-
INSTRUMENTTYPE: LC-ESI-QTOF
SMILES: CC1C2CCC(C)CN2C2CC3C4CC=C5CC(CCC5(C)C4CCC3(C)C12)OC1OC(CO)C(O)C(OC2OC(CO)C(O)C(O)C2O)C1OC1OC(C)C(O)C(O)C1O
INCHIKEY: ZGVSETXHNHBTRK-UHFFFAOYNA-N
Ontology: Steroidal saponins
COLLISIONENERGY: 50
FORMULA: C45H73NO15
RETENTIONTIME: 4.95765
IONMODE: Negative
Comment: registered in RIKEN PlaSMA
Num Peaks: 89
59.01242	77
68.64004	11
70.46308	13
70.88464	11
71.0137	179
72.01342	12
73.03141	28
83.01351	26
85.02715	84
86.03311	18
87.00831	24
87.03735	14
89.02351	822
89.29588	11
90.87346	11
91.03072	11
95.01462	28
97.02847	12
99.00911	12
101.02418	1000
102.02285	12
102.03252	16
103.02292	14
103.03992	216
103.07328	11
105.04374	12
112.01427	12
113.02383	496
114.02797	42
115.03865	14
115.04899	14
119.03496	616
121.04192	12
125.0241	87
127.03313	12
127.0419	32
131.03496	207
131.53964	11
139.03903	14
143.03448	412
144.03323	12
145.0495	46
149.04369	25
149.05237	23
150.05505	11
159.03069	24
161.03642	24
161.05141	68
162.04315	12
162.05161	16
163.06131	208
164.05994	28
179.05618	113
180.05458	15
180.06116	14
181.06929	11
205.06819	282
206.49704	12
247.03107	16
247.08299	14
248.08389	11
289.09531	19
291.09061	14
291.10617	11
295.09341	15
296.09821	11
331.47696	12
439.80365	15
492.35648	26
493.34232	32
553.9696	12
558.15961	12
558.375	70
558.39716	58
559.37042	12
559.40833	32
561.30414	11
561.89709	16
704.41815	79
704.44757	228
705.42542	24
705.45319	112
706.41492	12
706.44482	11
706.46796	12
707.43274	15
720.43048	16
722.46899	15
867.4859	11

NAME: Harmol
PRECURSORMZ: 197.07203654783
PRECURSORTYPE: [M-H]-
INSTRUMENTTYPE: LC-ESI-QTOF
SMILES: CC1=C2NC3=C(C=CC(O)=C3)C2=CC=N1
INCHIKEY: SATMZMMKDDTOSQ-UHFFFAOYSA-N
Ontology: Harmala alkaloids
COLLISIONENERGY: 10
FORMULA: C12H10N2O
RETENTIONTIME: 3.1657
IONMODE: Negative
Comment: registered in RIKEN PlaSMA
Num Peaks: 14
142.06624	11
144.07101	10
154.04901	22
154.05916	62
168.04308	10
168.06923	42
168.07446	13
169.07268	30
169.08032	19
182.05013	125
183.05327	10
196.06856	105
197.07253	1000
197.22278	11

NAME: alpha-Solanine
PRECURSORMZ: 866.49074424783
PRECURSORTYPE: [M-H]-
INSTRUMENTTYPE: LC-ESI-QTOF
SMILES: CC1C2CCC(C)CN2C2CC3C4CC=C5CC(CCC5(C)C4CCC3(C)C12)OC1OC(CO)C(O)C(OC2OC(CO)C(O)C(O)C2O)C1OC1OC(C)C(O)C(O)C1O
INCHIKEY: ZGVSETXHNHBTRK-UHFFFAOYNA-N
Ontology: Steroidal saponins
COLLISIONENERGY: 10
FORMULA: C45H73NO15
RETENTIONTIME: 4.95765
IONMODE: Negative
Comment: registered in RIKEN PlaSMA
Num Peaks: 11
101.02239	13
119.03664	19
143.03394	27
205.07198	12
558.36377	13
704.38049	12
704.4325	129
705.42926	15
705.45575	51
866.38879	11
866.49371	1000

NAME: alpha-Solanine
PRECURSORMZ: 912.49622355183
PRECURSORTYPE: [M+FA-H]-
INSTRUMENTTYPE: LC-ESI-QTOF
SMILES: CC1C2CCC(C)CN2C2CC3C4CC=C5CC(CCC5(C)C4CCC3(C)C12)OC1OC(CO)C(O)C(OC2OC(CO)C(O)C(O)C2O)C1OC1OC(C)C(O)C(O)C1O
INCHIKEY: ZGVSETXHNHBTRK-UHFFFAOYNA-N
Ontology: Steroidal saponins
COLLISIONENERGY: 10
FORMULA: C45H73NO15
RETENTIONTIME: 4.95765
IONMODE: Negative
Comment: registered in RIKEN PlaSMA
Num Peaks: 23
89.02248	21
101.02194	7
113.0243	26
119.03335	27
143.03802	10
161.04385	22
163.06529	6
205.07483	14
558.38208	23
704.43872	419
705.44208	141
705.48132	15
706.43231	32
706.4549	25
707.44678	6
720.43933	13
866.49054	1000
867.49323	495
868.47186	32
868.49689	106
869.50659	23
869.52972	6
912.49817	299

NAME: Harmol
PRECURSORMZ: 197.07203654783
PRECURSORTYPE: [M-H]-
INSTRUMENTTYPE: LC-ESI-QTOF
SMILES: CC1=C2NC3=C(C=CC(O)=C3)C2=CC=N1
INCHIKEY: SATMZMMKDDTOSQ-UHFFFAOYSA-N
Ontology: Harmala alkaloids
COLLISIONENERGY: 10
FORMULA: C12H10N2O
RETENTIONTIME: 3.1657
IONMODE: Negative
Comment: registered in RIKEN PlaSMA
Num Peaks: 6
182.04874	17
183.04594	9
195.0592	5
196.06303	15
196.53745	7
197.07109	1000

NAME: alpha-Solanine
PRECURSORMZ: 866.49074424783
PRECURSORTYPE: [M-H]-
INSTRUMENTTYPE: LC-ESI-QTOF
SMILES: CC1C2CCC(C)CN2C2CC3C4CC=C5CC(CCC5(C)C4CCC3(C)C12)OC1OC(CO)C(O)C(OC2OC(CO)C(O)C(O)C2O)C1OC1OC(C)C(O)C(O)C1O
INCHIKEY: ZGVSETXHNHBTRK-UHFFFAOYNA-N
Ontology: Steroidal saponins
COLLISIONENERGY: 10
FORMULA: C45H73NO15
RETENTIONTIME: 4.95765
IONMODE: Negative
Comment: registered in RIKEN PlaSMA
Num Peaks: 6
455.76511	22
704.42688	26
705.43396	49
705.48737	21
706.44647	20
866.4978	1000

NAME: alpha-Solanine
PRECURSORMZ: 912.49622355183
PRECURSORTYPE: [M+FA-H]-
INSTRUMENTTYPE: LC-ESI-QTOF
SMILES: CC1C2CCC(C)CN2C2CC3C4CC=C5CC(CCC5(C)C4CCC3(C)C12)OC1OC(CO)C(O)C(OC2OC(CO)C(O)C(O)C2O)C1OC1OC(C)C(O)C(O)C1O
INCHIKEY: ZGVSETXHNHBTRK-UHFFFAOYNA-N
Ontology: Steroidal saponins
COLLISIONENERGY: 10
FORMULA: C45H73NO15
RETENTIONTIME: 4.95765
IONMODE: Negative
Comment: registered in RIKEN PlaSMA
Num Peaks: 5
866.49048	628
867.49481	319
868.49121	93
869.51959	8
912.49463	1000

NAME: Harmol
PRECURSORMZ: 197.07203654783
PRECURSORTYPE: [M-H]-
INSTRUMENTTYPE: LC-ESI-QTOF
SMILES: CC1=C2NC3=C(C=CC(O)=C3)C2=CC=N1
INCHIKEY: SATMZMMKDDTOSQ-UHFFFAOYSA-N
Ontology: Harmala alkaloids
COLLISIONENERGY: 30
FORMULA: C12H10N2O
RETENTIONTIME: 3.1657
IONMODE: Negative
Comment: registered in RIKEN PlaSMA
Num Peaks: 15
127.04108	158
154.05138	68
154.05872	197
155.03221	65
168.05367	72
168.06659	208
168.07619	104
169.07224	68
181.03676	75
182.04817	222
183.05544	65
193.89409	108
195.06169	79
196.06665	1000
197.07614	72

NAME: alpha-Solanine
PRECURSORMZ: 866.49074424783
PRECURSORTYPE: [M-H]-
INSTRUMENTTYPE: LC-ESI-QTOF
SMILES: CC1C2CCC(C)CN2C2CC3C4CC=C5CC(CCC5(C)C4CCC3(C)C12)OC1OC(CO)C(O)C(OC2OC(CO)C(O)C(O)C2O)C1OC1OC(C)C(O)C(O)C1O
INCHIKEY: ZGVSETXHNHBTRK-UHFFFAOYNA-N
Ontology: Steroidal saponins
COLLISIONENERGY: 30
FORMULA: C45H73NO15
RETENTIONTIME: 4.95765
IONMODE: Negative
Comment: registered in RIKEN PlaSMA
Num Peaks: 36
84.01172	18
85.02908	43
101.02448	110
103.03831	43
115.03872	20
119.03485	41
131.03458	17
143.02768	39
143.03818	71
144.03906	20
161.04845	97
163.0473	17
163.05528	29
167.03281	17
179.05118	21
179.05942	44
205.07211	24
492.35223	24
522.92841	20
558.39325	17
560.3941	21
561.47717	16
658.01715	20
704.43658	1000
704.49512	23
705.42139	109
705.45337	240
706.43823	73
706.46631	24
707.43188	16
707.46686	32
720.4726	18
721.44366	19
722.43054	27
751.31403	16
866.48376	115

NAME: alpha-Solanine
PRECURSORMZ: 912.49622355183
PRECURSORTYPE: [M+FA-H]-
INSTRUMENTTYPE: LC-ESI-QTOF
SMILES: CC1C2CCC(C)CN2C2CC3C4CC=C5CC(CCC5(C)C4CCC3(C)C12)OC1OC(CO)C(O)C(OC2OC(CO)C(O)C(O)C2O)C1OC1OC(C)C(O)C(O)C1O
INCHIKEY: ZGVSETXHNHBTRK-UHFFFAOYNA-N
Ontology: Steroidal saponins
COLLISIONENERGY: 30
FORMULA: C45H73NO15
RETENTIONTIME: 4.95765
IONMODE: Negative
Comment: registered in RIKEN PlaSMA
Num Peaks: 38
71.0138	6
73.02911	5
89.02525	27
101.02389	19
119.03404	31
119.03841	11
143.03651	21
149.04247	5
159.02861	6
161.04787	34
163.06009	15
164.06189	6
179.05402	17
205.07262	8
247.07973	5
466.84659	6
492.36374	5
535.68768	5
558.36578	10
558.3905	21
559.37091	10
559.39288	9
704.43683	1000
704.49518	9
705.43994	411
706.44263	91
707.44366	12
720.4317	43
720.46283	6
721.44971	9
722.43542	6
866.48859	800
866.56006	12
867.49481	417
867.56281	8
868.49615	93
868.52441	35
869.51025	15

NAME: Harmol
PRECURSORMZ: 197.07203654783
PRECURSORTYPE: [M-H]-
INSTRUMENTTYPE: LC-ESI-QTOF
SMILES: CC1=C2NC3=C(C=CC(O)=C3)C2=CC=N1
INCHIKEY: SATMZMMKDDTOSQ-UHFFFAOYSA-N
Ontology: Harmala alkaloids
COLLISIONENERGY: 50
FORMULA: C12H10N2O
RETENTIONTIME: 3.1657
IONMODE: Negative
Comment: registered in RIKEN PlaSMA
Num Peaks: 1
168.07083	1000

NAME: alpha-Solanine
PRECURSORMZ: 866.49074424783
PRECURSORTYPE: [M-H]-
INSTRUMENTTYPE: LC-ESI-QTOF
SMILES: CC1C2CCC(C)CN2C2CC3C4CC=C5CC(CCC5(C)C4CCC3(C)C12)OC1OC(CO)C(O)C(OC2OC(CO)C(O)C(O)C2O)C1OC1OC(C)C(O)C(O)C1O
INCHIKEY: ZGVSETXHNHBTRK-UHFFFAOYNA-N
Ontology: Steroidal saponins
COLLISIONENERGY: 50
FORMULA: C45H73NO15
RETENTIONTIME: 4.95765
IONMODE: Negative
Comment: registered in RIKEN PlaSMA
Num Peaks: 13
71.01238	105
85.02507	111
89.0201	211
89.02979	132
101.01516	105
101.02476	1000
103.04051	100
113.0293	100
119.03717	221
143.03018	389
143.03777	168
205.07327	205
492.34314	100

NAME: alpha-Solanine
PRECURSORMZ: 912.49622355183
PRECURSORTYPE: [M+FA-H]-
INSTRUMENTTYPE: LC-ESI-QTOF
SMILES: CC1C2CCC(C)CN2C2CC3C4CC=C5CC(CCC5(C)C4CCC3(C)C12)OC1OC(CO)C(O)C(OC2OC(CO)C(O)C(O)C2O)C1OC1OC(C)C(O)C(O)C1O
INCHIKEY: ZGVSETXHNHBTRK-UHFFFAOYNA-N
Ontology: Steroidal saponins
COLLISIONENERGY: 50
FORMULA: C45H73NO15
RETENTIONTIME: 4.95765
IONMODE: Negative
Comment: registered in RIKEN PlaSMA
Num Peaks: 72
58.00409	16
59.01336	181
60.01445	39
71.01313	200
72.01617	29
73.02933	31
83.01257	28
85.02927	57
87.00938	19
89.02386	805
90.02281	14
90.02845	26
95.00911	31
97.03122	19
99.0035	14
99.01147	28
101.02393	1000
102.02428	19
103.02802	21
103.03873	156
112.01628	12
112.0218	12
113.02066	150
113.02647	496
114.02515	12
115.04231	12
119.03496	690
120.03841	52
120.15418	12
125.02282	35
125.02797	34
127.03596	74
131.03564	133
137.02171	14
138.02992	28
143.02861	113
143.03699	200
144.03568	12
145.04286	15
145.05312	32
149.04521	28
159.02747	12
161.0437	76
162.05119	16
163.05815	184
163.06482	108
164.06033	14
171.83038	12
179.0567	45
181.06432	12
205.07326	284
206.06821	19
247.09373	12
275.08148	14
290.08875	17
358.67053	17
397.32816	17
424.15948	21
492.34552	49
492.35922	21
558.36646	12
559.36847	41
559.38422	55
607.40765	15
697.98517	13
701.18109	14
704.42358	109
704.45502	149
705.448	87
706.44788	53
707.46442	12
866.51184	12

NAME: Harmol
PRECURSORMZ: 197.07203654783
PRECURSORTYPE: [M-H]-
INSTRUMENTTYPE: LC-ESI-QTOF
SMILES: CC1=C2NC3=C(C=CC(O)=C3)C2=CC=N1
INCHIKEY: SATMZMMKDDTOSQ-UHFFFAOYSA-N
Ontology: Harmala alkaloids
COLLISIONENERGY: 10
FORMULA: C12H10N2O
RETENTIONTIME: 3.1657
IONMODE: Negative
Comment: registered in RIKEN PlaSMA
Num Peaks: 17
141.04625	10
154.04456	15
154.05046	50
155.05667	23
155.06891	10
168.06012	11
168.0743	14
169.06335	10
169.07919	31
170.07986	10
182.04698	168
182.05603	49
183.05998	12
195.05698	15
196.06737	245
196.08022	23
197.07208	1000

NAME: alpha-Solanine
PRECURSORMZ: 866.49074424783
PRECURSORTYPE: [M-H]-
INSTRUMENTTYPE: LC-ESI-QTOF
SMILES: CC1C2CCC(C)CN2C2CC3C4CC=C5CC(CCC5(C)C4CCC3(C)C12)OC1OC(CO)C(O)C(OC2OC(CO)C(O)C(O)C2O)C1OC1OC(C)C(O)C(O)C1O
INCHIKEY: ZGVSETXHNHBTRK-UHFFFAOYNA-N
Ontology: Steroidal saponins
COLLISIONENERGY: 10
FORMULA: C45H73NO15
RETENTIONTIME: 4.95765
IONMODE: Negative
Comment: registered in RIKEN PlaSMA
Num Peaks: 18
89.02757	32
107.04102	46
143.03723	51
145.05058	37
179.05582	39
424.26166	37
609.65375	35
704.43115	543
704.48193	35
705.41998	81
705.46716	110
706.45673	96
720.4693	107
849.03528	35
864.95148	32
866.44482	49
866.49066	1000
866.53912	53

NAME: alpha-Solanine
PRECURSORMZ: 912.49622355183
PRECURSORTYPE: [M+FA-H]-
INSTRUMENTTYPE: LC-ESI-QTOF
SMILES: CC1C2CCC(C)CN2C2CC3C4CC=C5CC(CCC5(C)C4CCC3(C)C12)OC1OC(CO)C(O)C(OC2OC(CO)C(O)C(O)C2O)C1OC1OC(C)C(O)C(O)C1O
INCHIKEY: ZGVSETXHNHBTRK-UHFFFAOYNA-N
Ontology: Steroidal saponins
COLLISIONENERGY: 10
FORMULA: C45H73NO15
RETENTIONTIME: 4.95765
IONMODE: Negative
Comment: registered in RIKEN PlaSMA
Num Peaks: 32
59.01199	7
89.0237	31
101.02459	16
113.02555	17
119.03364	17
131.03476	7
143.03461	11
161.04057	11
163.05823	11
163.06631	15
179.0518	20
205.07211	15
206.07887	8
247.0764	6
522.36536	5
558.37482	30
559.38708	12
704.43695	411
705.44073	197
706.43561	8
706.4574	19
707.44928	8
720.42932	24
721.45813	10
866.49072	1000
867.49396	507
867.56317	7
868.50098	113
869.35754	5
869.49646	8
869.52686	6
912.49268	252

NAME: Harmol
PRECURSORMZ: 197.07203654783
PRECURSORTYPE: [M-H]-
INSTRUMENTTYPE: LC-ESI-QTOF
SMILES: CC1=C2NC3=C(C=CC(O)=C3)C2=CC=N1
INCHIKEY: SATMZMMKDDTOSQ-UHFFFAOYSA-N
Ontology: Harmala alkaloids
COLLISIONENERGY: 10
FORMULA: C12H10N2O
RETENTIONTIME: 3.1657
IONMODE: Negative
Comment: registered in RIKEN PlaSMA
Num Peaks: 6
70.45657	6
123.496	5
182.04468	18
196.06284	10
196.07326	6
197.07138	1000

NAME: alpha-Solanine
PRECURSORMZ: 866.49074424783
PRECURSORTYPE: [M-H]-
INSTRUMENTTYPE: LC-ESI-QTOF
SMILES: CC1C2CCC(C)CN2C2CC3C4CC=C5CC(CCC5(C)C4CCC3(C)C12)OC1OC(CO)C(O)C(OC2OC(CO)C(O)C(O)C2O)C1OC1OC(C)C(O)C(O)C1O
INCHIKEY: ZGVSETXHNHBTRK-UHFFFAOYNA-N
Ontology: Steroidal saponins
COLLISIONENERGY: 10
FORMULA: C45H73NO15
RETENTIONTIME: 4.95765
IONMODE: Negative
Comment: registered in RIKEN PlaSMA
Num Peaks: 11
138.76239	18
391.64496	11
405.22424	12
427.0459	11
447.15964	13
458.39828	11
530.55994	14
588.84064	11
704.43091	38
705.43347	16
866.48883	1000

NAME: alpha-Solanine
PRECURSORMZ: 912.49622355183
PRECURSORTYPE: [M+FA-H]-
INSTRUMENTTYPE: LC-ESI-QTOF
SMILES: CC1C2CCC(C)CN2C2CC3C4CC=C5CC(CCC5(C)C4CCC3(C)C12)OC1OC(CO)C(O)C(OC2OC(CO)C(O)C(O)C2O)C1OC1OC(C)C(O)C(O)C1O
INCHIKEY: ZGVSETXHNHBTRK-UHFFFAOYNA-N
Ontology: Steroidal saponins
COLLISIONENERGY: 10
FORMULA: C45H73NO15
RETENTIONTIME: 4.95765
IONMODE: Negative
Comment: registered in RIKEN PlaSMA
Num Peaks: 10
397.66135	6
568.71741	5
704.42932	8
704.44653	6
866.48846	751
866.54523	8
867.49487	382
868.48816	115
869.49139	19
912.49628	1000

NAME: Harmol
PRECURSORMZ: 197.07203654783
PRECURSORTYPE: [M-H]-
INSTRUMENTTYPE: LC-ESI-QTOF
SMILES: CC1=C2NC3=C(C=CC(O)=C3)C2=CC=N1
INCHIKEY: SATMZMMKDDTOSQ-UHFFFAOYSA-N
Ontology: Harmala alkaloids
COLLISIONENERGY: 30
FORMULA: C12H10N2O
RETENTIONTIME: 3.1657
IONMODE: Negative
Comment: registered in RIKEN PlaSMA
Num Peaks: 11
154.05013	907
155.05548	173
168.06586	756
169.07851	173
182.03658	71
182.0453	249
182.05096	520
195.05801	107
196.06442	1000
197.06271	222
197.07176	453

NAME: alpha-Solanine
PRECURSORMZ: 866.49074424783
PRECURSORTYPE: [M-H]-
INSTRUMENTTYPE: LC-ESI-QTOF
SMILES: CC1C2CCC(C)CN2C2CC3C4CC=C5CC(CCC5(C)C4CCC3(C)C12)OC1OC(CO)C(O)C(OC2OC(CO)C(O)C(O)C2O)C1OC1OC(C)C(O)C(O)C1O
INCHIKEY: ZGVSETXHNHBTRK-UHFFFAOYNA-N
Ontology: Steroidal saponins
COLLISIONENERGY: 30
FORMULA: C45H73NO15
RETENTIONTIME: 4.95765
IONMODE: Negative
Comment: registered in RIKEN PlaSMA
Num Peaks: 30
71.0117	24
83.01553	32
89.01814	25
89.0241	36
101.02161	38
113.0193	30
113.0257	63
119.03626	38
123.00665	20
143.03293	101
161.04689	19
163.0611	28
179.06093	27
287.1402	23
384.05804	21
410.34018	22
505.34949	19
538.5462	25
558.37842	39
558.4032	24
559.37756	23
645.10461	19
704.43591	1000
705.44202	539
706.4176	20
706.44366	39
720.42896	27
721.43658	19
866.44531	21
866.50354	118

NAME: alpha-Solanine
PRECURSORMZ: 912.49622355183
PRECURSORTYPE: [M+FA-H]-
INSTRUMENTTYPE: LC-ESI-QTOF
SMILES: CC1C2CCC(C)CN2C2CC3C4CC=C5CC(CCC5(C)C4CCC3(C)C12)OC1OC(CO)C(O)C(OC2OC(CO)C(O)C(O)C2O)C1OC1OC(C)C(O)C(O)C1O
INCHIKEY: ZGVSETXHNHBTRK-UHFFFAOYNA-N
Ontology: Steroidal saponins
COLLISIONENERGY: 30
FORMULA: C45H73NO15
RETENTIONTIME: 4.95765
IONMODE: Negative
Comment: registered in RIKEN PlaSMA
Num Peaks: 36
89.0237	20
101.02597	17
103.0416	7
113.02379	9
119.03332	9
119.04124	7
120.03772	5
131.03168	8
143.03748	26
161.04419	31
163.04971	5
163.06271	10
179.05093	21
179.0618	7
205.07021	11
468.43985	6
558.37573	33
559.35956	6
559.40094	13
560.39032	7
704.43622	1000
705.38794	13
705.43738	389
706.44476	99
707.4458	8
720.41302	14
720.44415	26
721.43378	11
866.48761	733
866.56812	10
867.49194	397
868.4563	13
868.49719	87
869.48737	23
869.52972	13
870.46973	7

NAME: Harmol
PRECURSORMZ: 197.07203654783
PRECURSORTYPE: [M-H]-
INSTRUMENTTYPE: LC-ESI-QTOF
SMILES: CC1=C2NC3=C(C=CC(O)=C3)C2=CC=N1
INCHIKEY: SATMZMMKDDTOSQ-UHFFFAOYSA-N
Ontology: Harmala alkaloids
COLLISIONENERGY: 50
FORMULA: C12H10N2O
RETENTIONTIME: 3.1657
IONMODE: Negative
Comment: registered in RIKEN PlaSMA
Num Peaks: 1
183.04558	1000

NAME: alpha-Solanine
PRECURSORMZ: 866.49074424783
PRECURSORTYPE: [M-H]-
INSTRUMENTTYPE: LC-ESI-QTOF
SMILES: CC1C2CCC(C)CN2C2CC3C4CC=C5CC(CCC5(C)C4CCC3(C)C12)OC1OC(CO)C(O)C(OC2OC(CO)C(O)C(O)C2O)C1OC1OC(C)C(O)C(O)C1O
INCHIKEY: ZGVSETXHNHBTRK-UHFFFAOYNA-N
Ontology: Steroidal saponins
COLLISIONENERGY: 50
FORMULA: C45H73NO15
RETENTIONTIME: 4.95765
IONMODE: Negative
Comment: registered in RIKEN PlaSMA
Num Peaks: 12
59.01365	97
73.03088	93
89.02449	428
101.02342	1000
113.0229	230
113.03165	101
119.03288	74
120.03686	101
125.0204	78
143.03424	78
161.04475	78
704.43433	89

NAME: alpha-Solanine
PRECURSORMZ: 912.49622355183
PRECURSORTYPE: [M+FA-H]-
INSTRUMENTTYPE: LC-ESI-QTOF
SMILES: CC1C2CCC(C)CN2C2CC3C4CC=C5CC(CCC5(C)C4CCC3(C)C12)OC1OC(CO)C(O)C(OC2OC(CO)C(O)C(O)C2O)C1OC1OC(C)C(O)C(O)C1O
INCHIKEY: ZGVSETXHNHBTRK-UHFFFAOYNA-N
Ontology: Steroidal saponins
COLLISIONENERGY: 50
FORMULA: C45H73NO15
RETENTIONTIME: 4.95765
IONMODE: Negative
Comment: registered in RIKEN PlaSMA
Num Peaks: 75
59.01345	191
67.27709	20
71.0116	162
73.02835	35
81.035	23
83.01022	28
83.01788	33
85.02975	128
87.00751	26
89.02383	1000
90.02523	58
91.02473	13
95.01717	31
101.02409	874
103.03022	15
103.04087	158
103.05036	11
104.04655	17
107.03445	14
112.02036	17
113.02393	563
113.15714	14
115.04247	78
116.05151	25
119.03487	653
119.64317	13
120.03679	61
125.02182	27
131.03365	136
132.04117	17
133.05281	14
143.03479	496
144.03278	14
145.05486	15
149.04294	52
159.02878	39
161.04597	211
162.03519	14
163.06126	253
163.07835	13
164.06258	60
165.06178	15
179.05246	53
179.06396	38
205.06747	176
205.07716	118
206.07751	13
207.0732	15
233.06531	14
247.09343	19
275.06335	13
275.07791	13
278.25235	14
286.86395	29
343.85159	15
492.36099	28
494.35413	19
558.37659	66
559.39465	14
704.42621	482
704.46283	84
705.38873	13
705.427	93
705.44415	52
705.47363	32
706.42377	49
706.44641	31
866.48315	121
867.4809	14
868.362	14
868.50836	17
903.49152	20
910.479	19
912.4892	282
912.52112	81

NAME: Harmine
PRECURSORMZ: 211.08768654783
PRECURSORTYPE: [M-H]-
INSTRUMENTTYPE: LC-ESI-QTOF
SMILES: COC1=CC2=C(C=C1)C1=CC=NC(C)=C1N2
INCHIKEY: BXNJHAXVSOCGBA-UHFFFAOYSA-N
Ontology: Harmala alkaloids
COLLISIONENERGY: 10
FORMULA: C13H12N2O
RETENTIONTIME: 4.07435
IONMODE: Negative
Comment: registered in RIKEN PlaSMA
Num Peaks: 12
139.24013	12
168.07024	112
169.06395	9
169.07451	22
176.38518	12
195.0583	45
196.06395	1000
197.00204	10
197.06985	191
198.0705	30
199.07072	10
211.08914	208

NAME: Harmine
PRECURSORMZ: 211.08768654783
PRECURSORTYPE: [M-H]-
INSTRUMENTTYPE: LC-ESI-QTOF
SMILES: COC1=CC2=C(C=C1)C1=CC=NC(C)=C1N2
INCHIKEY: BXNJHAXVSOCGBA-UHFFFAOYSA-N
Ontology: Harmala alkaloids
COLLISIONENERGY: 10
FORMULA: C13H12N2O
RETENTIONTIME: 4.07435
IONMODE: Negative
Comment: registered in RIKEN PlaSMA
Num Peaks: 6
146.99838	8
168.0761	8
196.06378	1000
196.08463	10
197.06609	144
211.08669	944

NAME: Harmine
PRECURSORMZ: 211.08768654783
PRECURSORTYPE: [M-H]-
INSTRUMENTTYPE: LC-ESI-QTOF
SMILES: COC1=CC2=C(C=C1)C1=CC=NC(C)=C1N2
INCHIKEY: BXNJHAXVSOCGBA-UHFFFAOYSA-N
Ontology: Harmala alkaloids
COLLISIONENERGY: 30
FORMULA: C13H12N2O
RETENTIONTIME: 4.07435
IONMODE: Negative
Comment: registered in RIKEN PlaSMA
Num Peaks: 7
168.07072	417
169.06639	107
169.07576	45
169.08456	54
195.05583	230
196.06377	1000
197.06253	94

NAME: Harmine
PRECURSORMZ: 211.08768654783
PRECURSORTYPE: [M-H]-
INSTRUMENTTYPE: LC-ESI-QTOF
SMILES: COC1=CC2=C(C=C1)C1=CC=NC(C)=C1N2
INCHIKEY: BXNJHAXVSOCGBA-UHFFFAOYSA-N
Ontology: Harmala alkaloids
COLLISIONENERGY: 50
FORMULA: C13H12N2O
RETENTIONTIME: 4.07435
IONMODE: Negative
Comment: registered in RIKEN PlaSMA
Num Peaks: 1
195.05934	1000

NAME: Harmine
PRECURSORMZ: 211.08768654783
PRECURSORTYPE: [M-H]-
INSTRUMENTTYPE: LC-ESI-QTOF
SMILES: COC1=CC2=C(C=C1)C1=CC=NC(C)=C1N2
INCHIKEY: BXNJHAXVSOCGBA-UHFFFAOYSA-N
Ontology: Harmala alkaloids
COLLISIONENERGY: 10
FORMULA: C13H12N2O
RETENTIONTIME: 4.07435
IONMODE: Negative
Comment: registered in RIKEN PlaSMA
Num Peaks: 10
80.50095	20
168.0453	10
168.05986	50
168.07227	51
193.14291	8
195.06007	36
196.06357	1000
196.39236	8
197.06633	144
211.08702	246

NAME: Harmine
PRECURSORMZ: 211.08768654783
PRECURSORTYPE: [M-H]-
INSTRUMENTTYPE: LC-ESI-QTOF
SMILES: COC1=CC2=C(C=C1)C1=CC=NC(C)=C1N2
INCHIKEY: BXNJHAXVSOCGBA-UHFFFAOYSA-N
Ontology: Harmala alkaloids
COLLISIONENERGY: 10
FORMULA: C13H12N2O
RETENTIONTIME: 4.07435
IONMODE: Negative
Comment: registered in RIKEN PlaSMA
Num Peaks: 3
196.06352	1000
197.06718	97
211.08856	910

NAME: Harmine
PRECURSORMZ: 211.08768654783
PRECURSORTYPE: [M-H]-
INSTRUMENTTYPE: LC-ESI-QTOF
SMILES: COC1=CC2=C(C=C1)C1=CC=NC(C)=C1N2
INCHIKEY: BXNJHAXVSOCGBA-UHFFFAOYSA-N
Ontology: Harmala alkaloids
COLLISIONENERGY: 30
FORMULA: C13H12N2O
RETENTIONTIME: 4.07435
IONMODE: Negative
Comment: registered in RIKEN PlaSMA
Num Peaks: 8
168.06244	297
168.06982	385
169.06932	117
195.05783	320
196.04808	43
196.06613	1000
197.05894	48
197.06822	93

NAME: Harmine
PRECURSORMZ: 211.08768654783
PRECURSORTYPE: [M-H]-
INSTRUMENTTYPE: LC-ESI-QTOF
SMILES: COC1=CC2=C(C=C1)C1=CC=NC(C)=C1N2
INCHIKEY: BXNJHAXVSOCGBA-UHFFFAOYSA-N
Ontology: Harmala alkaloids
COLLISIONENERGY: 50
FORMULA: C13H12N2O
RETENTIONTIME: 4.07435
IONMODE: Negative
Comment: registered in RIKEN PlaSMA
Num Peaks: 2
195.05792	1000
196.0694	677

NAME: Harmine
PRECURSORMZ: 211.08768654783
PRECURSORTYPE: [M-H]-
INSTRUMENTTYPE: LC-ESI-QTOF
SMILES: COC1=CC2=C(C=C1)C1=CC=NC(C)=C1N2
INCHIKEY: BXNJHAXVSOCGBA-UHFFFAOYSA-N
Ontology: Harmala alkaloids
COLLISIONENERGY: 10
FORMULA: C13H12N2O
RETENTIONTIME: 4.07435
IONMODE: Negative
Comment: registered in RIKEN PlaSMA
Num Peaks: 13
111.33694	8
165.15787	8
167.95534	10
168.04335	12
168.06807	164
169.0528	9
169.06595	11
169.0753	29
195.05081	18
196.06236	1000
197.06427	85
198.06671	9
211.08623	247

NAME: Harmine
PRECURSORMZ: 211.08768654783
PRECURSORTYPE: [M-H]-
INSTRUMENTTYPE: LC-ESI-QTOF
SMILES: COC1=CC2=C(C=C1)C1=CC=NC(C)=C1N2
INCHIKEY: BXNJHAXVSOCGBA-UHFFFAOYSA-N
Ontology: Harmala alkaloids
COLLISIONENERGY: 10
FORMULA: C13H12N2O
RETENTIONTIME: 4.07435
IONMODE: Negative
Comment: registered in RIKEN PlaSMA
Num Peaks: 14
85.44753	6
103.11673	7
112.01396	9
142.74596	8
168.07185	14
169.16426	6
196.0632	1000
197.06407	70
197.07327	61
198.06483	6
198.07701	8
202.75291	7
204.59897	8
211.08727	733

NAME: Harmine
PRECURSORMZ: 211.08768654783
PRECURSORTYPE: [M-H]-
INSTRUMENTTYPE: LC-ESI-QTOF
SMILES: COC1=CC2=C(C=C1)C1=CC=NC(C)=C1N2
INCHIKEY: BXNJHAXVSOCGBA-UHFFFAOYSA-N
Ontology: Harmala alkaloids
COLLISIONENERGY: 30
FORMULA: C13H12N2O
RETENTIONTIME: 4.07435
IONMODE: Negative
Comment: registered in RIKEN PlaSMA
Num Peaks: 9
167.07039	36
168.03928	36
168.04611	95
168.06754	1000
169.07069	77
195.04523	42
195.06122	192
196.06136	894
197.07097	91

NAME: Harmine
PRECURSORMZ: 211.08768654783
PRECURSORTYPE: [M-H]-
INSTRUMENTTYPE: LC-ESI-QTOF
SMILES: COC1=CC2=C(C=C1)C1=CC=NC(C)=C1N2
INCHIKEY: BXNJHAXVSOCGBA-UHFFFAOYSA-N
Ontology: Harmala alkaloids
COLLISIONENERGY: 50
FORMULA: C13H12N2O
RETENTIONTIME: 4.07435
IONMODE: Negative
Comment: registered in RIKEN PlaSMA
Num Peaks: 1
169.05212	1000

NAME: Reserpic acid
PRECURSORMZ: 399.19254554783
PRECURSORTYPE: [M-H]-
INSTRUMENTTYPE: LC-ESI-QTOF
SMILES: COC1C(O)CC2CN3CCC4=C(NC5=C4C=CC(OC)=C5)C3CC2C1C(O)=O
INCHIKEY: JVHNBFFHWQQPLL-UHFFFAOYNA-N
Ontology: Corynanthean-type alkaloids
COLLISIONENERGY: 10
FORMULA: C22H28N2O5
RETENTIONTIME: 3.89345
IONMODE: Negative
Comment: registered in RIKEN PlaSMA
Num Peaks: 66
157.05156	7
158.05768	7
159.05006	8
163.77333	8
170.04858	11
170.06102	45
172.07497	8
183.07187	8
184.06352	43
184.07652	14
185.0553	11
185.07315	88
186.06985	23
196.06461	7
197.06897	8
199.07846	7
199.088	48
200.08751	25
201.02895	7
201.09018	8
212.10019	17
213.09753	18
236.08443	9
236.09816	9
237.10291	8
248.11011	15
250.1086	8
251.11063	8
253.45161	13
262.1236	7
266.10748	9
269.75342	7
278.1163	12
288.1167	25
289.12289	33
289.14902	8
290.14093	168
291.13092	10
291.14871	32
292.1189	8
305.11993	8
305.164	137
305.18036	16
306.16211	16
306.1759	15
307.14404	8
307.15842	7
308.15118	468
308.18164	9
309.15475	80
309.16495	23
310.13074	8
310.15417	8
321.16714	9
323.17612	482
324.18094	94
325.17984	9
325.1926	7
331.82239	10
340.1778	74
341.16479	7
342.18549	8
355.19958	67
356.20575	22
362.18704	7
399.19138	1000

NAME: Tetrahydroalstonine
PRECURSORMZ: 351.17141614783
PRECURSORTYPE: [M-H]-
INSTRUMENTTYPE: LC-ESI-QTOF
SMILES: COC(=O)C1=COC(C)C2CN3CCC4=C(NC5=CC=CC=C45)C3CC12
INCHIKEY: GRTOGORTSDXSFK-UHFFFAOYNA-N
Ontology: Yohimbine alkaloids
COLLISIONENERGY: 10
FORMULA: C21H24N2O3
RETENTIONTIME: 4.86205
IONMODE: Negative
Comment: registered in RIKEN PlaSMA
Num Peaks: 8
155.07169	111
182.09372	90
197.10832	90
208.07533	90
265.08832	126
268.37851	176
351.17096	1000
351.21021	106

NAME: Reserpic acid
PRECURSORMZ: 399.19254554783
PRECURSORTYPE: [M-H]-
INSTRUMENTTYPE: LC-ESI-QTOF
SMILES: COC1C(O)CC2CN3CCC4=C(NC5=C4C=CC(OC)=C5)C3CC2C1C(O)=O
INCHIKEY: JVHNBFFHWQQPLL-UHFFFAOYNA-N
Ontology: Corynanthean-type alkaloids
COLLISIONENERGY: 10
FORMULA: C22H28N2O5
RETENTIONTIME: 3.89345
IONMODE: Negative
Comment: registered in RIKEN PlaSMA
Num Peaks: 8
305.16385	36
308.14563	5
323.17563	158
324.16699	7
324.18405	14
355.20084	19
398.1763	6
399.19073	1000

NAME: Tetrahydroalstonine
PRECURSORMZ: 351.17141614783
PRECURSORTYPE: [M-H]-
INSTRUMENTTYPE: LC-ESI-QTOF
SMILES: COC(=O)C1=COC(C)C2CN3CCC4=C(NC5=CC=CC=C45)C3CC12
INCHIKEY: GRTOGORTSDXSFK-UHFFFAOYNA-N
Ontology: Yohimbine alkaloids
COLLISIONENERGY: 10
FORMULA: C21H24N2O3
RETENTIONTIME: 4.86205
IONMODE: Negative
Comment: registered in RIKEN PlaSMA
Num Peaks: 3
101.02579	22
292.83957	23
351.1713	1000

NAME: Reserpic acid
PRECURSORMZ: 399.19254554783
PRECURSORTYPE: [M-H]-
INSTRUMENTTYPE: LC-ESI-QTOF
SMILES: COC1C(O)CC2CN3CCC4=C(NC5=C4C=CC(OC)=C5)C3CC2C1C(O)=O
INCHIKEY: JVHNBFFHWQQPLL-UHFFFAOYNA-N
Ontology: Corynanthean-type alkaloids
COLLISIONENERGY: 30
FORMULA: C22H28N2O5
RETENTIONTIME: 3.89345
IONMODE: Negative
Comment: registered in RIKEN PlaSMA
Num Peaks: 64
83.04707	9
144.05031	7
145.05772	23
157.05122	14
170.05794	20
171.06419	7
182.04137	7
183.07079	7
184.06601	70
185.07401	181
185.08864	8
186.06322	10
186.07669	36
194.05057	7
197.06575	9
197.07497	24
198.07149	23
198.08321	24
199.08775	50
200.08032	9
200.09711	26
211.08862	9
213.1015	7
236.09088	32
237.10439	12
248.10063	7
248.11348	7
249.09947	15
251.12694	20
260.10068	7
261.11356	9
262.20593	7
263.12994	7
267.11194	7
275.11682	7
279.14307	7
289.13336	46
290.1434	421
291.13327	16
291.14951	72
292.14313	7
292.15427	11
305.16507	41
306.13947	8
307.14044	34
307.16104	7
307.17722	9
308.15155	1000
309.14645	63
309.15811	205
310.14423	7
310.17133	8
313.15076	9
323.15427	7
323.17654	147
323.20255	20
324.17587	13
339.18112	10
340.17096	51
340.18588	35
341.17944	11
341.19879	14
342.17712	11
399.18719	8

NAME: Tetrahydroalstonine
PRECURSORMZ: 351.17141614783
PRECURSORTYPE: [M-H]-
INSTRUMENTTYPE: LC-ESI-QTOF
SMILES: COC(=O)C1=COC(C)C2CN3CCC4=C(NC5=CC=CC=C45)C3CC12
INCHIKEY: GRTOGORTSDXSFK-UHFFFAOYNA-N
Ontology: Yohimbine alkaloids
COLLISIONENERGY: 30
FORMULA: C21H24N2O3
RETENTIONTIME: 4.86205
IONMODE: Negative
Comment: registered in RIKEN PlaSMA
Num Peaks: 17
101.02534	272
120.04825	133
127.03835	1000
135.04608	100
169.07144	100
171.04811	117
183.09305	111
190.26489	144
208.06929	117
211.12996	139
221.11053	122
223.12073	111
247.11024	111
249.11946	100
274.14807	111
291.14282	100
291.15683	100

NAME: Reserpic acid
PRECURSORMZ: 399.19254554783
PRECURSORTYPE: [M-H]-
INSTRUMENTTYPE: LC-ESI-QTOF
SMILES: COC1C(O)CC2CN3CCC4=C(NC5=C4C=CC(OC)=C5)C3CC2C1C(O)=O
INCHIKEY: JVHNBFFHWQQPLL-UHFFFAOYNA-N
Ontology: Corynanthean-type alkaloids
COLLISIONENERGY: 50
FORMULA: C22H28N2O5
RETENTIONTIME: 3.89345
IONMODE: Negative
Comment: registered in RIKEN PlaSMA
Num Peaks: 81
93.02906	34
116.05293	37
132.04303	30
136.07683	34
142.02892	54
143.04263	34
144.04559	96
145.05324	34
154.05176	35
157.04297	55
157.05405	168
158.05698	185
159.06851	108
162.66707	42
169.04955	84
169.05641	133
169.08354	34
170.05966	926
170.06783	218
171.05762	37
171.07253	49
172.07242	30
179.08223	40
182.04659	97
183.04411	40
183.06	237
184.06682	761
185.05666	35
185.07021	1000
186.06042	34
186.07135	37
186.08171	72
195.05099	40
196.05132	40
196.06294	143
196.08255	37
197.07321	333
198.07144	62
198.08209	79
199.07979	42
207.0555	54
209.07607	69
209.09407	34
210.08029	40
212.09375	42
213.09315	30
213.10312	35
220.058	30
221.07309	37
222.0719	34
222.09012	34
223.08368	42
233.07579	76
234.0896	71
235.09306	82
236.09734	37
237.06769	32
237.09523	35
237.10522	34
246.08344	39
247.08214	34
248.07478	40
248.10217	52
249.10979	50
250.10748	55
251.08328	64
251.13112	50
280.11868	71
287.11133	34
289.12546	64
290.11157	55
290.13522	96
290.14575	79
291.14951	35
292.12933	32
293.13824	59
307.14297	64
307.16187	35
308.14941	67
309.16342	34
340.18466	32

NAME: Tetrahydroalstonine
PRECURSORMZ: 351.17141614783
PRECURSORTYPE: [M-H]-
INSTRUMENTTYPE: LC-ESI-QTOF
SMILES: COC(=O)C1=COC(C)C2CN3CCC4=C(NC5=CC=CC=C45)C3CC12
INCHIKEY: GRTOGORTSDXSFK-UHFFFAOYNA-N
Ontology: Yohimbine alkaloids
COLLISIONENERGY: 50
FORMULA: C21H24N2O3
RETENTIONTIME: 4.86205
IONMODE: Negative
Comment: registered in RIKEN PlaSMA
Num Peaks: 1
194.09058	1000

NAME: Reserpic acid
PRECURSORMZ: 399.19254554783
PRECURSORTYPE: [M-H]-
INSTRUMENTTYPE: LC-ESI-QTOF
SMILES: COC1C(O)CC2CN3CCC4=C(NC5=C4C=CC(OC)=C5)C3CC2C1C(O)=O
INCHIKEY: JVHNBFFHWQQPLL-UHFFFAOYNA-N
Ontology: Corynanthean-type alkaloids
COLLISIONENERGY: 10
FORMULA: C22H28N2O5
RETENTIONTIME: 3.89345
IONMODE: Negative
Comment: registered in RIKEN PlaSMA
Num Peaks: 68
158.05724	16
169.05376	27
170.06816	9
171.05396	11
171.07751	10
172.07564	17
173.5295	9
174.20953	7
183.05779	8
184.06055	12
184.07062	12
185.06746	41
185.08049	8
186.07072	10
196.06148	7
198.06953	10
198.08354	12
199.08327	50
199.09534	10
200.0882	8
210.67619	7
211.0936	9
223.07971	8
236.09392	12
236.10374	10
237.09702	18
237.10936	9
248.11624	15
249.10336	7
250.10754	8
262.11206	19
266.1152	18
267.923	11
268.17767	8
274.10699	11
276.11441	8
278.11996	10
289.1312	17
290.14499	74
290.15802	18
290.87027	13
291.14975	34
298.41129	10
305.16357	163
306.1651	33
307.14258	17
308.15186	537
309.15311	26
309.16553	45
310.14304	13
310.16742	9
321.17065	21
323.17517	540
323.1944	31
324.17599	97
324.18878	44
325.18115	9
339.18085	10
340.18161	108
341.16785	7
341.18137	27
344.19644	7
355.20132	60
356.19949	9
356.21982	18
358.21561	9
399.10083	11
399.19089	1000

NAME: Tetrahydroalstonine
PRECURSORMZ: 351.17141614783
PRECURSORTYPE: [M-H]-
INSTRUMENTTYPE: LC-ESI-QTOF
SMILES: COC(=O)C1=COC(C)C2CN3CCC4=C(NC5=CC=CC=C45)C3CC12
INCHIKEY: GRTOGORTSDXSFK-UHFFFAOYNA-N
Ontology: Yohimbine alkaloids
COLLISIONENERGY: 10
FORMULA: C21H24N2O3
RETENTIONTIME: 4.86205
IONMODE: Negative
Comment: registered in RIKEN PlaSMA
Num Peaks: 8
102.94972	45
127.0402	45
162.92538	102
174.87607	47
197.10271	45
221.07359	57
291.15652	90
351.17383	1000

NAME: Reserpic acid
PRECURSORMZ: 399.19254554783
PRECURSORTYPE: [M-H]-
INSTRUMENTTYPE: LC-ESI-QTOF
SMILES: COC1C(O)CC2CN3CCC4=C(NC5=C4C=CC(OC)=C5)C3CC2C1C(O)=O
INCHIKEY: JVHNBFFHWQQPLL-UHFFFAOYNA-N
Ontology: Corynanthean-type alkaloids
COLLISIONENERGY: 10
FORMULA: C22H28N2O5
RETENTIONTIME: 3.89345
IONMODE: Negative
Comment: registered in RIKEN PlaSMA
Num Peaks: 6
305.16675	18
323.17792	157
324.17914	7
355.20782	35
399.15445	7
399.19308	1000

NAME: Tetrahydroalstonine
PRECURSORMZ: 351.17141614783
PRECURSORTYPE: [M-H]-
INSTRUMENTTYPE: LC-ESI-QTOF
SMILES: COC(=O)C1=COC(C)C2CN3CCC4=C(NC5=CC=CC=C45)C3CC12
INCHIKEY: GRTOGORTSDXSFK-UHFFFAOYNA-N
Ontology: Yohimbine alkaloids
COLLISIONENERGY: 10
FORMULA: C21H24N2O3
RETENTIONTIME: 4.86205
IONMODE: Negative
Comment: registered in RIKEN PlaSMA
Num Peaks: 3
146.93616	27
351.17242	1000
351.22003	20

NAME: Reserpic acid
PRECURSORMZ: 399.19254554783
PRECURSORTYPE: [M-H]-
INSTRUMENTTYPE: LC-ESI-QTOF
SMILES: COC1C(O)CC2CN3CCC4=C(NC5=C4C=CC(OC)=C5)C3CC2C1C(O)=O
INCHIKEY: JVHNBFFHWQQPLL-UHFFFAOYNA-N
Ontology: Corynanthean-type alkaloids
COLLISIONENERGY: 30
FORMULA: C22H28N2O5
RETENTIONTIME: 3.89345
IONMODE: Negative
Comment: registered in RIKEN PlaSMA
Num Peaks: 77
145.04495	8
157.05304	8
158.05435	7
158.06342	14
159.07495	8
165.1151	6
170.05362	14
171.06203	8
172.0694	10
183.05914	20
184.05061	14
184.06389	106
184.08069	22
185.06903	131
186.08687	15
197.07683	8
198.07904	34
199.07343	11
199.08504	70
199.95604	21
200.09235	6
203.64388	9
209.0715	6
210.08043	6
211.09715	6
212.09756	6
212.56628	8
213.09995	23
215.11502	6
223.08736	14
224.0932	6
227.11066	7
236.08473	7
236.09343	15
237.10022	6
237.10869	10
247.09683	7
248.10014	6
248.11209	6
249.0972	7
263.12335	7
264.12967	8
265.13412	7
267.09943	7
289.13123	23
289.14252	12
290.14255	284
290.44452	6
291.13867	43
291.15189	25
291.16931	8
295.14301	6
304.16125	6
305.15973	29
305.17105	33
306.12823	6
306.17291	80
307.15015	13
308.15326	1000
309.1557	202
310.15411	26
310.18192	8
321.09531	10
323.16	15
323.16806	28
323.18137	63
324.16602	15
324.19241	24
324.56027	9
337.16281	7
338.16403	8
340.17926	75
340.19339	19
341.18427	49
341.1994	11
355.20392	8
399.18265	7

NAME: Tetrahydroalstonine
PRECURSORMZ: 351.17141614783
PRECURSORTYPE: [M-H]-
INSTRUMENTTYPE: LC-ESI-QTOF
SMILES: COC(=O)C1=COC(C)C2CN3CCC4=C(NC5=CC=CC=C45)C3CC12
INCHIKEY: GRTOGORTSDXSFK-UHFFFAOYNA-N
Ontology: Yohimbine alkaloids
COLLISIONENERGY: 30
FORMULA: C21H24N2O3
RETENTIONTIME: 4.86205
IONMODE: Negative
Comment: registered in RIKEN PlaSMA
Num Peaks: 16
67.01317	128
101.02101	151
127.03873	1000
129.0416	122
157.08644	116
169.07635	110
170.07414	122
179.07198	145
180.06934	105
181.07886	227
183.09097	122
197.10208	116
197.11501	151
249.12393	122
262.08957	174
276.13849	105

NAME: Tetrahydroalstonine
PRECURSORMZ: 397.17689545183
PRECURSORTYPE: [M+FA-H]-
INSTRUMENTTYPE: LC-ESI-QTOF
SMILES: COC(=O)C1=COC(C)C2CN3CCC4=C(NC5=CC=CC=C45)C3CC12
INCHIKEY: GRTOGORTSDXSFK-UHFFFAOYNA-N
Ontology: Yohimbine alkaloids
COLLISIONENERGY: 30
FORMULA: C21H24N2O3
RETENTIONTIME: 4.86205
IONMODE: Negative
Comment: registered in RIKEN PlaSMA
Num Peaks: 3
127.04085	1000
291.15085	299
351.16168	299

NAME: Reserpic acid
PRECURSORMZ: 399.19254554783
PRECURSORTYPE: [M-H]-
INSTRUMENTTYPE: LC-ESI-QTOF
SMILES: COC1C(O)CC2CN3CCC4=C(NC5=C4C=CC(OC)=C5)C3CC2C1C(O)=O
INCHIKEY: JVHNBFFHWQQPLL-UHFFFAOYNA-N
Ontology: Corynanthean-type alkaloids
COLLISIONENERGY: 50
FORMULA: C22H28N2O5
RETENTIONTIME: 3.89345
IONMODE: Negative
Comment: registered in RIKEN PlaSMA
Num Peaks: 81
116.0546	34
128.0531	22
131.0403	25
133.05545	27
157.05106	82
158.06096	168
159.0571	47
160.71667	23
169.0506	86
170.04268	76
170.05008	161
170.06281	669
171.04663	26
171.06215	115
172.06358	36
172.07773	31
182.04135	22
182.04883	60
182.06482	67
183.05077	153
183.06001	54
183.0695	20
184.06403	699
185.0704	1000
186.07288	114
195.06856	29
196.01212	23
196.06129	39
196.07053	64
196.09219	25
197.07028	64
198.06517	23
198.08334	50
199.08755	69
199.09668	31
200.09399	28
208.0591	32
208.07271	28
210.07852	23
211.07864	25
212.07845	37
212.09099	22
213.10229	48
220.08116	23
222.08362	29
223.08147	45
233.07169	22
233.09186	66
235.08176	143
235.09494	33
236.08661	61
237.09499	28
237.11121	23
237.26056	32
238.12648	25
239.07443	31
248.09886	25
252.07722	22
258.10156	47
261.09988	33
261.1192	40
264.09961	44
273.0939	48
275.11722	23
275.12714	25
278.11365	27
288.12363	25
289.12567	33
289.13922	80
290.14267	49
290.15048	23
291.12112	44
292.12302	27
298.14609	26
305.12476	22
306.14166	26
307.13257	23
307.14697	72
308.14902	31
308.16025	23
309.40442	22

NAME: Tetrahydroalstonine
PRECURSORMZ: 351.17141614783
PRECURSORTYPE: [M-H]-
INSTRUMENTTYPE: LC-ESI-QTOF
SMILES: COC(=O)C1=COC(C)C2CN3CCC4=C(NC5=CC=CC=C45)C3CC12
INCHIKEY: GRTOGORTSDXSFK-UHFFFAOYNA-N
Ontology: Yohimbine alkaloids
COLLISIONENERGY: 50
FORMULA: C21H24N2O3
RETENTIONTIME: 4.86205
IONMODE: Negative
Comment: registered in RIKEN PlaSMA
Num Peaks: 2
68.02709	1000
169.06834	571

NAME: Reserpic acid
PRECURSORMZ: 399.19254554783
PRECURSORTYPE: [M-H]-
INSTRUMENTTYPE: LC-ESI-QTOF
SMILES: COC1C(O)CC2CN3CCC4=C(NC5=C4C=CC(OC)=C5)C3CC2C1C(O)=O
INCHIKEY: JVHNBFFHWQQPLL-UHFFFAOYNA-N
Ontology: Corynanthean-type alkaloids
COLLISIONENERGY: 10
FORMULA: C22H28N2O5
RETENTIONTIME: 3.89345
IONMODE: Negative
Comment: registered in RIKEN PlaSMA
Num Peaks: 65
132.03349	7
157.04958	7
158.06021	8
170.05841	8
172.0798	7
182.05878	9
183.05115	7
183.06903	7
184.06985	33
185.07182	143
186.07626	34
198.07341	7
199.08441	70
201.44025	6
209.07071	8
210.0722	6
210.08461	8
211.07199	7
211.08711	6
213.09848	8
221.07753	11
236.08305	15
236.09468	6
238.10948	15
248.10326	7
249.10963	7
250.07715	7
251.11975	7
255.35266	16
261.11853	9
266.11832	6
269.37442	7
271.35413	7
279.11285	6
281.13605	9
289.12579	20
290.14136	93
291.12939	14
291.14978	21
305.16385	209
306.13013	7
306.15533	7
306.17313	12
307.13983	7
307.16318	16
308.15091	471
309.15509	59
309.16809	23
310.16965	17
323.17529	537
323.72348	17
324.1778	89
324.18607	27
325.17996	6
328.16196	6
337.15985	6
340.18185	64
341.16867	12
341.18677	6
341.21402	9
355.20593	70
356.20544	30
357.20734	8
388.6965	6
399.19028	1000

NAME: Tetrahydroalstonine
PRECURSORMZ: 351.17141614783
PRECURSORTYPE: [M-H]-
INSTRUMENTTYPE: LC-ESI-QTOF
SMILES: COC(=O)C1=COC(C)C2CN3CCC4=C(NC5=CC=CC=C45)C3CC12
INCHIKEY: GRTOGORTSDXSFK-UHFFFAOYNA-N
Ontology: Yohimbine alkaloids
COLLISIONENERGY: 10
FORMULA: C21H24N2O3
RETENTIONTIME: 4.86205
IONMODE: Negative
Comment: registered in RIKEN PlaSMA
Num Peaks: 7
107.05573	59
127.04206	388
130.89619	51
183.09677	48
207.09381	77
302.12576	54
351.17368	1000

NAME: Reserpic acid
PRECURSORMZ: 399.19254554783
PRECURSORTYPE: [M-H]-
INSTRUMENTTYPE: LC-ESI-QTOF
SMILES: COC1C(O)CC2CN3CCC4=C(NC5=C4C=CC(OC)=C5)C3CC2C1C(O)=O
INCHIKEY: JVHNBFFHWQQPLL-UHFFFAOYNA-N
Ontology: Corynanthean-type alkaloids
COLLISIONENERGY: 10
FORMULA: C22H28N2O5
RETENTIONTIME: 3.89345
IONMODE: Negative
Comment: registered in RIKEN PlaSMA
Num Peaks: 12
290.13797	6
305.15457	8
305.16275	14
305.17316	13
308.14551	6
308.16022	13
323.17749	112
324.17453	27
324.18677	15
355.20135	41
399.19214	1000
399.224	7

NAME: Tetrahydroalstonine
PRECURSORMZ: 351.17141614783
PRECURSORTYPE: [M-H]-
INSTRUMENTTYPE: LC-ESI-QTOF
SMILES: COC(=O)C1=COC(C)C2CN3CCC4=C(NC5=CC=CC=C45)C3CC12
INCHIKEY: GRTOGORTSDXSFK-UHFFFAOYNA-N
Ontology: Yohimbine alkaloids
COLLISIONENERGY: 10
FORMULA: C21H24N2O3
RETENTIONTIME: 4.86205
IONMODE: Negative
Comment: registered in RIKEN PlaSMA
Num Peaks: 4
183.08754	27
319.14276	25
351.16888	1000
351.3429	20

NAME: Reserpic acid
PRECURSORMZ: 399.19254554783
PRECURSORTYPE: [M-H]-
INSTRUMENTTYPE: LC-ESI-QTOF
SMILES: COC1C(O)CC2CN3CCC4=C(NC5=C4C=CC(OC)=C5)C3CC2C1C(O)=O
INCHIKEY: JVHNBFFHWQQPLL-UHFFFAOYNA-N
Ontology: Corynanthean-type alkaloids
COLLISIONENERGY: 30
FORMULA: C22H28N2O5
RETENTIONTIME: 3.89345
IONMODE: Negative
Comment: registered in RIKEN PlaSMA
Num Peaks: 72
55.31651	10
58.44699	7
158.05156	6
160.45033	9
170.0576	13
170.06781	29
171.0688	20
183.05278	16
184.05922	60
185.06967	158
186.06363	16
187.0891	8
197.06261	7
197.07588	28
198.07811	14
198.08823	31
199.08746	69
200.09245	17
202.12898	6
211.32211	8
212.08592	6
212.10225	16
213.1037	10
214.09973	8
224.0881	8
227.12077	9
235.10173	8
236.09291	24
236.09966	10
237.09824	7
248.0997	8
249.09741	9
251.10359	8
252.10347	8
252.12857	6
267.10431	8
267.14508	8
278.11627	7
278.14459	9
279.15277	11
284.12738	6
286.21509	8
288.11084	7
289.1308	36
289.41266	7
290.08118	6
290.14185	222
291.13861	23
291.15158	33
293.12616	6
295.10992	9
305.1618	106
305.18866	8
306.17004	27
307.13382	14
307.14828	8
308.15201	1000
309.15887	154
310.11304	7
310.16028	32
320.87314	7
323.16165	30
323.17734	122
324.17361	32
324.18561	21
339.16983	10
339.18094	7
340.17682	36
340.18713	55
355.20093	8
383.48273	9
399.19849	7

NAME: Tetrahydroalstonine
PRECURSORMZ: 351.17141614783
PRECURSORTYPE: [M-H]-
INSTRUMENTTYPE: LC-ESI-QTOF
SMILES: COC(=O)C1=COC(C)C2CN3CCC4=C(NC5=CC=CC=C45)C3CC12
INCHIKEY: GRTOGORTSDXSFK-UHFFFAOYNA-N
Ontology: Yohimbine alkaloids
COLLISIONENERGY: 30
FORMULA: C21H24N2O3
RETENTIONTIME: 4.86205
IONMODE: Negative
Comment: registered in RIKEN PlaSMA
Num Peaks: 8
67.01735	238
127.04015	1000
142.06612	232
148.03851	127
156.07489	127
168.07164	99
169.07603	160
291.15182	99

NAME: Reserpic acid
PRECURSORMZ: 399.19254554783
PRECURSORTYPE: [M-H]-
INSTRUMENTTYPE: LC-ESI-QTOF
SMILES: COC1C(O)CC2CN3CCC4=C(NC5=C4C=CC(OC)=C5)C3CC2C1C(O)=O
INCHIKEY: JVHNBFFHWQQPLL-UHFFFAOYNA-N
Ontology: Corynanthean-type alkaloids
COLLISIONENERGY: 50
FORMULA: C22H28N2O5
RETENTIONTIME: 3.89345
IONMODE: Negative
Comment: registered in RIKEN PlaSMA
Num Peaks: 74
106.02941	33
111.04198	37
114.03207	36
128.0441	31
134.0668	30
140.0533	30
142.07164	31
143.03349	28
144.03333	64
144.04028	99
156.03979	27
157.04709	57
157.05588	75
158.0567	137
158.06471	130
159.05893	28
168.04269	104
169.04683	37
169.05733	79
170.06029	1000
170.07799	31
171.05222	27
171.06425	115
182.04784	64
183.0578	696
184.06366	497
185.07556	730
186.07089	101
186.08591	91
196.06216	63
196.07487	46
197.07109	160
198.04741	31
198.07877	125
199.08511	30
199.09506	27
200.08806	30
208.07213	31
209.03503	27
210.07292	27
212.08966	28
219.04854	30
222.08263	67
223.08484	31
224.08127	30
224.09399	34
235.0842	251
236.09041	113
236.10252	33
237.09177	28
237.10527	88
238.09282	31
246.08414	73
248.10153	57
248.1902	36
249.10231	27
251.11398	28
262.11243	30
266.11923	27
269.16968	28
273.10315	40
274.112	45
275.10312	33
275.11624	63
277.13065	27
280.1369	30
287.11868	40
289.12228	64
290.15381	34
307.1319	28
307.13977	79
308.13773	28
309.14905	40
396.03677	42

NAME: Tetrahydroalstonine
PRECURSORMZ: 351.17141614783
PRECURSORTYPE: [M-H]-
INSTRUMENTTYPE: LC-ESI-QTOF
SMILES: COC(=O)C1=COC(C)C2CN3CCC4=C(NC5=CC=CC=C45)C3CC12
INCHIKEY: GRTOGORTSDXSFK-UHFFFAOYNA-N
Ontology: Yohimbine alkaloids
COLLISIONENERGY: 50
FORMULA: C21H24N2O3
RETENTIONTIME: 4.86205
IONMODE: Negative
Comment: registered in RIKEN PlaSMA
Num Peaks: 3
142.06442	462
169.07726	1000
206.0954	846

NAME: Norharman
PRECURSORMZ: 167.06147184783
PRECURSORTYPE: [M-H]-
INSTRUMENTTYPE: LC-ESI-QTOF
SMILES: N1C2=CC=CC=C2C2=CC=NC=C12
INCHIKEY: AIFRHYZBTHREPW-UHFFFAOYSA-N
Ontology: Beta carbolines
COLLISIONENERGY: 10
FORMULA: C11H8N2
RETENTIONTIME: 3.474233
IONMODE: Negative
Comment: registered in RIKEN PlaSMA
Num Peaks: 4
93.03315	50
127.03124	29
141.05441	40
167.06136	1000

NAME: Norharman
PRECURSORMZ: 167.06147184783
PRECURSORTYPE: [M-H]-
INSTRUMENTTYPE: LC-ESI-QTOF
SMILES: N1C2=CC=CC=C2C2=CC=NC=C12
INCHIKEY: AIFRHYZBTHREPW-UHFFFAOYSA-N
Ontology: Beta carbolines
COLLISIONENERGY: 10
FORMULA: C11H8N2
RETENTIONTIME: 3.474233
IONMODE: Negative
Comment: registered in RIKEN PlaSMA
Num Peaks: 2
140.04558	12
167.0607	1000

NAME: Norharman
PRECURSORMZ: 167.06147184783
PRECURSORTYPE: [M-H]-
INSTRUMENTTYPE: LC-ESI-QTOF
SMILES: N1C2=CC=CC=C2C2=CC=NC=C12
INCHIKEY: AIFRHYZBTHREPW-UHFFFAOYSA-N
Ontology: Beta carbolines
COLLISIONENERGY: 30
FORMULA: C11H8N2
RETENTIONTIME: 3.474233
IONMODE: Negative
Comment: registered in RIKEN PlaSMA
Num Peaks: 3
140.04555	303
141.05603	394
167.06606	1000

NAME: Norharman
PRECURSORMZ: 167.06147184783
PRECURSORTYPE: [M-H]-
INSTRUMENTTYPE: LC-ESI-QTOF
SMILES: N1C2=CC=CC=C2C2=CC=NC=C12
INCHIKEY: AIFRHYZBTHREPW-UHFFFAOYSA-N
Ontology: Beta carbolines
COLLISIONENERGY: 50
FORMULA: C11H8N2
RETENTIONTIME: 3.474233
IONMODE: Negative
Comment: registered in RIKEN PlaSMA
Num Peaks: 1
60.64627	1000

NAME: Norharman
PRECURSORMZ: 167.06147184783
PRECURSORTYPE: [M-H]-
INSTRUMENTTYPE: LC-ESI-QTOF
SMILES: N1C2=CC=CC=C2C2=CC=NC=C12
INCHIKEY: AIFRHYZBTHREPW-UHFFFAOYSA-N
Ontology: Beta carbolines
COLLISIONENERGY: 10
FORMULA: C11H8N2
RETENTIONTIME: 3.474233
IONMODE: Negative
Comment: registered in RIKEN PlaSMA
Num Peaks: 3
140.0513	72
167.06029	1000
167.06654	350

NAME: Norharman
PRECURSORMZ: 167.06147184783
PRECURSORTYPE: [M-H]-
INSTRUMENTTYPE: LC-ESI-QTOF
SMILES: N1C2=CC=CC=C2C2=CC=NC=C12
INCHIKEY: AIFRHYZBTHREPW-UHFFFAOYSA-N
Ontology: Beta carbolines
COLLISIONENERGY: 30
FORMULA: C11H8N2
RETENTIONTIME: 3.474233
IONMODE: Negative
Comment: registered in RIKEN PlaSMA
Num Peaks: 2
140.04918	288
167.06122	1000

NAME: Norharman
PRECURSORMZ: 167.06147184783
PRECURSORTYPE: [M-H]-
INSTRUMENTTYPE: LC-ESI-QTOF
SMILES: N1C2=CC=CC=C2C2=CC=NC=C12
INCHIKEY: AIFRHYZBTHREPW-UHFFFAOYSA-N
Ontology: Beta carbolines
COLLISIONENERGY: 10
FORMULA: C11H8N2
RETENTIONTIME: 3.474233
IONMODE: Negative
Comment: registered in RIKEN PlaSMA
Num Peaks: 2
155.28362	10
167.05997	1000

NAME: Norharman
PRECURSORMZ: 167.06147184783
PRECURSORTYPE: [M-H]-
INSTRUMENTTYPE: LC-ESI-QTOF
SMILES: N1C2=CC=CC=C2C2=CC=NC=C12
INCHIKEY: AIFRHYZBTHREPW-UHFFFAOYSA-N
Ontology: Beta carbolines
COLLISIONENERGY: 30
FORMULA: C11H8N2
RETENTIONTIME: 3.474233
IONMODE: Negative
Comment: registered in RIKEN PlaSMA
Num Peaks: 1
140.05363	1000

NAME: Norharman
PRECURSORMZ: 167.06147184783
PRECURSORTYPE: [M-H]-
INSTRUMENTTYPE: LC-ESI-QTOF
SMILES: N1C2=CC=CC=C2C2=CC=NC=C12
INCHIKEY: AIFRHYZBTHREPW-UHFFFAOYSA-N
Ontology: Beta carbolines
COLLISIONENERGY: 50
FORMULA: C11H8N2
RETENTIONTIME: 3.474233
IONMODE: Negative
Comment: registered in RIKEN PlaSMA
Num Peaks: 1
113.21958	1000

NAME: Chrysanthellin A
PRECURSORMZ: 1189.60114254783
PRECURSORTYPE: [M-H]-
INSTRUMENTTYPE: LC-ESI-QTOF
SMILES: CC1OC(OC2C(O)COC(OC3C(C)OC(OC4C(O)C(O)COC4OC(=O)C45CCC(C)(C)CC4C4=CCC6C7(C)CCC(OC8OC(CO)C(O)C(O)C8O)C(C)(C)C7CCC6(C)C4(C)CC5O)C(O)C3O)C2O)C(O)C(O)C1O
INCHIKEY: IBEZGTWSSFFKNB-UHFFFAOYNA-N
Ontology: Triterpene saponins
COLLISIONENERGY: 10
FORMULA: C58H94O25
RETENTIONTIME: 6.121867
IONMODE: Negative
Comment: registered in RIKEN PlaSMA
Num Peaks: 20
163.05299	41
295.10992	71
381.1416	44
436.9433	41
441.16873	99
466.14224	48
483.17114	159
483.19098	57
484.17099	46
555.19489	48
556.19287	60
633.38702	159
633.43121	57
634.43903	46
698.01501	41
1099.54163	51
1099.59082	41
1111.96277	51
1171.56409	44
1189.60242	1000

NAME: Chrysanthellin A
PRECURSORMZ: 1235.60662185183
PRECURSORTYPE: [M+FA-H]-
INSTRUMENTTYPE: LC-ESI-QTOF
SMILES: CC1OC(OC2C(O)COC(OC3C(C)OC(OC4C(O)C(O)COC4OC(=O)C45CCC(C)(C)CC4C4=CCC6C7(C)CCC(OC8OC(CO)C(O)C(O)C8O)C(C)(C)C7CCC6(C)C4(C)CC5O)C(O)C3O)C2O)C(O)C(O)C1O
INCHIKEY: IBEZGTWSSFFKNB-UHFFFAOYNA-N
Ontology: Triterpene saponins
COLLISIONENERGY: 10
FORMULA: C58H94O25
RETENTIONTIME: 6.121867
IONMODE: Negative
Comment: registered in RIKEN PlaSMA
Num Peaks: 55
113.02615	5
131.03761	22
145.03632	5
145.04865	5
163.05383	6
295.10489	13
337.09738	5
343.03714	5
409.21976	5
412.64661	6
441.14728	27
441.17215	7
483.16953	96
483.22159	7
484.17169	31
484.18961	8
485.18146	11
555.18597	20
555.20728	16
556.18298	11
561.36047	6
574.20728	5
588.66003	7
621.43933	9
633.40363	45
634.39514	11
634.41547	15
635.41931	17
638.99023	6
677.44305	6
699.62982	5
744.94177	5
849.55182	6
895.98108	7
914.48389	5
979.48004	7
1040.51685	5
1099.56409	57
1099.60852	13
1100.5575	6
1101.54272	7
1101.57764	5
1171.61011	8
1172.58093	7
1189.60413	1000
1189.72314	5
1190.60901	512
1190.72107	6
1191.55005	9
1191.61658	147
1192.56421	13
1192.60657	28
1193.61584	13
1194.58838	13
1235.60803	100

NAME: Chrysanthellin A
PRECURSORMZ: 1189.60114254783
PRECURSORTYPE: [M-H]-
INSTRUMENTTYPE: LC-ESI-QTOF
SMILES: CC1OC(OC2C(O)COC(OC3C(C)OC(OC4C(O)C(O)COC4OC(=O)C45CCC(C)(C)CC4C4=CCC6C7(C)CCC(OC8OC(CO)C(O)C(O)C8O)C(C)(C)C7CCC6(C)C4(C)CC5O)C(O)C3O)C2O)C(O)C(O)C1O
INCHIKEY: IBEZGTWSSFFKNB-UHFFFAOYNA-N
Ontology: Triterpene saponins
COLLISIONENERGY: 10
FORMULA: C58H94O25
RETENTIONTIME: 6.121867
IONMODE: Negative
Comment: registered in RIKEN PlaSMA
Num Peaks: 3
483.17178	33
700.51459	33
1189.60315	1000

NAME: Chrysanthellin A
PRECURSORMZ: 1235.60662185183
PRECURSORTYPE: [M+FA-H]-
INSTRUMENTTYPE: LC-ESI-QTOF
SMILES: CC1OC(OC2C(O)COC(OC3C(C)OC(OC4C(O)C(O)COC4OC(=O)C45CCC(C)(C)CC4C4=CCC6C7(C)CCC(OC8OC(CO)C(O)C(O)C8O)C(C)(C)C7CCC6(C)C4(C)CC5O)C(O)C3O)C2O)C(O)C(O)C1O
INCHIKEY: IBEZGTWSSFFKNB-UHFFFAOYNA-N
Ontology: Triterpene saponins
COLLISIONENERGY: 10
FORMULA: C58H94O25
RETENTIONTIME: 6.121867
IONMODE: Negative
Comment: registered in RIKEN PlaSMA
Num Peaks: 26
89.52276	18
569.68597	24
589.31299	14
662.86255	16
709.5	16
771.97021	14
903.28455	16
974.58344	12
1028.75989	14
1061.38489	17
1087.57104	18
1189.6001	621
1190.14246	14
1190.6012	336
1191.6134	106
1191.66077	14
1191.94373	13
1192.55237	13
1192.59644	12
1213.12671	32
1214.55945	18
1216.08484	37
1217.03918	14
1218.08716	18
1235.60632	1000
1235.80627	12

NAME: Chrysanthellin A
PRECURSORMZ: 1189.60114254783
PRECURSORTYPE: [M-H]-
INSTRUMENTTYPE: LC-ESI-QTOF
SMILES: CC1OC(OC2C(O)COC(OC3C(C)OC(OC4C(O)C(O)COC4OC(=O)C45CCC(C)(C)CC4C4=CCC6C7(C)CCC(OC8OC(CO)C(O)C(O)C8O)C(C)(C)C7CCC6(C)C4(C)CC5O)C(O)C3O)C2O)C(O)C(O)C1O
INCHIKEY: IBEZGTWSSFFKNB-UHFFFAOYNA-N
Ontology: Triterpene saponins
COLLISIONENERGY: 30
FORMULA: C58H94O25
RETENTIONTIME: 6.121867
IONMODE: Negative
Comment: registered in RIKEN PlaSMA
Num Peaks: 35
131.03398	143
145.04666	86
164.05551	68
295.09964	83
295.10962	79
296.10181	68
381.13437	75
443.15005	75
483.15479	75
483.17206	86
483.19647	68
484.15945	147
484.18634	154
555.18591	320
556.19312	94
556.21002	75
573.198	79
633.41412	68
634.40283	117
999.4892	68
1003.3233	68
1039.53101	86
1058.53369	75
1099.54907	387
1099.58936	274
1100.5343	71
1100.58228	75
1100.63586	68
1101.52844	68
1101.69055	75
1102.83008	79
1171.55298	68
1171.60742	75
1172.6178	214
1189.62439	1000

NAME: Chrysanthellin A
PRECURSORMZ: 1235.60662185183
PRECURSORTYPE: [M+FA-H]-
INSTRUMENTTYPE: LC-ESI-QTOF
SMILES: CC1OC(OC2C(O)COC(OC3C(C)OC(OC4C(O)C(O)COC4OC(=O)C45CCC(C)(C)CC4C4=CCC6C7(C)CCC(OC8OC(CO)C(O)C(O)C8O)C(C)(C)C7CCC6(C)C4(C)CC5O)C(O)C3O)C2O)C(O)C(O)C1O
INCHIKEY: IBEZGTWSSFFKNB-UHFFFAOYNA-N
Ontology: Triterpene saponins
COLLISIONENERGY: 30
FORMULA: C58H94O25
RETENTIONTIME: 6.121867
IONMODE: Negative
Comment: registered in RIKEN PlaSMA
Num Peaks: 27
145.04848	10
146.05377	11
146.05815	5
233.65514	5
483.16486	40
484.16183	10
525.18286	6
555.16968	10
555.19916	21
633.3844	21
634.39612	6
691.17908	6
859.74426	5
1099.52161	9
1099.57092	45
1099.62695	10
1100.55591	22
1100.58057	9
1101.57227	7
1102.5625	9
1142.57629	6
1171.61084	17
1189.59888	1000
1190.60315	522
1191.60486	185
1192.58765	6
1192.63159	22

NAME: Chrysanthellin A
PRECURSORMZ: 1189.60114254783
PRECURSORTYPE: [M-H]-
INSTRUMENTTYPE: LC-ESI-QTOF
SMILES: CC1OC(OC2C(O)COC(OC3C(C)OC(OC4C(O)C(O)COC4OC(=O)C45CCC(C)(C)CC4C4=CCC6C7(C)CCC(OC8OC(CO)C(O)C(O)C8O)C(C)(C)C7CCC6(C)C4(C)CC5O)C(O)C3O)C2O)C(O)C(O)C1O
INCHIKEY: IBEZGTWSSFFKNB-UHFFFAOYNA-N
Ontology: Triterpene saponins
COLLISIONENERGY: 50
FORMULA: C58H94O25
RETENTIONTIME: 6.121867
IONMODE: Negative
Comment: registered in RIKEN PlaSMA
Num Peaks: 49
85.03058	34
99.00378	38
101.01853	38
101.02618	43
112.02243	34
113.02072	41
113.03	38
115.03922	36
121.03642	45
131.033	368
143.03258	45
144.99052	62
145.04424	43
145.0519	109
147.04816	39
163.06287	51
181.85278	75
235.37151	41
277.09518	81
295.10147	38
319.10696	47
320.10248	38
337.11472	139
338.11569	38
373.11737	45
381.1427	143
421.13077	38
423.14285	39
423.1636	75
424.13934	34
441.18698	34
469.05383	38
483.17612	1000
484.16464	86
484.18042	251
485.18484	36
528.74438	43
555.17029	38
555.19653	81
633.39124	422
633.4126	129
633.43536	41
634.38898	109
634.40692	111
634.46436	38
635.39978	68
635.43805	38
637.42981	53
648.43091	34

NAME: Chrysanthellin A
PRECURSORMZ: 1235.60662185183
PRECURSORTYPE: [M+FA-H]-
INSTRUMENTTYPE: LC-ESI-QTOF
SMILES: CC1OC(OC2C(O)COC(OC3C(C)OC(OC4C(O)C(O)COC4OC(=O)C45CCC(C)(C)CC4C4=CCC6C7(C)CCC(OC8OC(CO)C(O)C(O)C8O)C(C)(C)C7CCC6(C)C4(C)CC5O)C(O)C3O)C2O)C(O)C(O)C1O
INCHIKEY: IBEZGTWSSFFKNB-UHFFFAOYNA-N
Ontology: Triterpene saponins
COLLISIONENERGY: 50
FORMULA: C58H94O25
RETENTIONTIME: 6.121867
IONMODE: Negative
Comment: registered in RIKEN PlaSMA
Num Peaks: 64
60.95032	6
71.00912	5
89.02049	6
101.01885	6
101.0266	13
113.02441	30
113.05867	8
115.04351	5
127.0409	5
131.03377	209
143.0338	5
145.04945	87
146.05013	10
149.05125	5
163.05408	18
163.06226	18
164.07047	5
173.04657	12
215.05389	5
277.09216	23
295.09146	15
295.10754	34
337.11035	6
337.12833	24
361.10815	9
379.12595	11
381.14099	31
387.12219	5
404.82306	5
405.14429	5
423.15457	53
424.14569	18
424.16724	10
441.16379	54
465.16306	7
466.16745	5
483.17282	1000
483.21173	9
484.16757	126
485.172	17
485.19574	5
525.18951	5
555.18353	34
555.19861	81
557.20074	5
587.42065	5
633.40027	563
634.39142	62
634.40979	121
635.40765	16
635.42761	5
646.69531	8
665.49518	6
717.39825	11
717.42102	5
743.43842	5
823.92896	5
1099.59558	15
1100.55725	11
1100.59204	23
1101.57446	19
1189.62402	19
1190.58691	5
1190.62073	10

NAME: Chrysanthellin A
PRECURSORMZ: 1189.60114254783
PRECURSORTYPE: [M-H]-
INSTRUMENTTYPE: LC-ESI-QTOF
SMILES: CC1OC(OC2C(O)COC(OC3C(C)OC(OC4C(O)C(O)COC4OC(=O)C45CCC(C)(C)CC4C4=CCC6C7(C)CCC(OC8OC(CO)C(O)C(O)C8O)C(C)(C)C7CCC6(C)C4(C)CC5O)C(O)C3O)C2O)C(O)C(O)C1O
INCHIKEY: IBEZGTWSSFFKNB-UHFFFAOYNA-N
Ontology: Triterpene saponins
COLLISIONENERGY: 10
FORMULA: C58H94O25
RETENTIONTIME: 6.121867
IONMODE: Negative
Comment: registered in RIKEN PlaSMA
Num Peaks: 17
189.14212	40
295.10233	40
296.09769	113
483.16653	302
484.1626	107
484.18378	36
555.19513	77
556.19531	43
556.22003	43
633.37323	85
633.41461	73
635.39532	61
779.47839	40
892.65454	36
1099.56836	51
1189.49231	45
1189.60498	1000

NAME: Chrysanthellin A
PRECURSORMZ: 1235.60662185183
PRECURSORTYPE: [M+FA-H]-
INSTRUMENTTYPE: LC-ESI-QTOF
SMILES: CC1OC(OC2C(O)COC(OC3C(C)OC(OC4C(O)C(O)COC4OC(=O)C45CCC(C)(C)CC4C4=CCC6C7(C)CCC(OC8OC(CO)C(O)C(O)C8O)C(C)(C)C7CCC6(C)C4(C)CC5O)C(O)C3O)C2O)C(O)C(O)C1O
INCHIKEY: IBEZGTWSSFFKNB-UHFFFAOYNA-N
Ontology: Triterpene saponins
COLLISIONENERGY: 10
FORMULA: C58H94O25
RETENTIONTIME: 6.121867
IONMODE: Negative
Comment: registered in RIKEN PlaSMA
Num Peaks: 52
113.01909	6
131.03369	22
134.04781	5
277.08078	9
281.13678	5
290.57892	6
294.21695	5
295.09543	27
295.11194	5
381.12305	19
441.15381	11
441.19531	5
483.1691	143
483.18027	53
483.20557	7
484.17972	19
555.19141	71
555.21606	11
556.17737	5
556.19824	11
622.0943	5
633.3717	18
633.39612	31
634.39758	5
634.41504	11
635.40271	14
732.75629	5
892.6593	5
904.13715	5
913.51782	7
929.49634	9
1041.646	5
1099.54932	39
1099.60461	36
1100.57556	32
1101.57983	8
1102.57617	5
1171.61658	5
1172.55627	5
1172.83655	6
1173.53748	5
1188.34766	5
1189.59851	1000
1190.60474	601
1191.60681	153
1192.58789	19
1192.62292	23
1214.11182	6
1215.06445	5
1217.53528	7
1235.60718	69
1235.67163	6

NAME: Chrysanthellin A
PRECURSORMZ: 1189.60114254783
PRECURSORTYPE: [M-H]-
INSTRUMENTTYPE: LC-ESI-QTOF
SMILES: CC1OC(OC2C(O)COC(OC3C(C)OC(OC4C(O)C(O)COC4OC(=O)C45CCC(C)(C)CC4C4=CCC6C7(C)CCC(OC8OC(CO)C(O)C(O)C8O)C(C)(C)C7CCC6(C)C4(C)CC5O)C(O)C3O)C2O)C(O)C(O)C1O
INCHIKEY: IBEZGTWSSFFKNB-UHFFFAOYNA-N
Ontology: Triterpene saponins
COLLISIONENERGY: 10
FORMULA: C58H94O25
RETENTIONTIME: 6.121867
IONMODE: Negative
Comment: registered in RIKEN PlaSMA
Num Peaks: 5
664.02209	66
799.76044	49
845.591	49
1073.52612	68
1189.60339	1000

NAME: Chrysanthellin A
PRECURSORMZ: 1235.60662185183
PRECURSORTYPE: [M+FA-H]-
INSTRUMENTTYPE: LC-ESI-QTOF
SMILES: CC1OC(OC2C(O)COC(OC3C(C)OC(OC4C(O)C(O)COC4OC(=O)C45CCC(C)(C)CC4C4=CCC6C7(C)CCC(OC8OC(CO)C(O)C(O)C8O)C(C)(C)C7CCC6(C)C4(C)CC5O)C(O)C3O)C2O)C(O)C(O)C1O
INCHIKEY: IBEZGTWSSFFKNB-UHFFFAOYNA-N
Ontology: Triterpene saponins
COLLISIONENERGY: 10
FORMULA: C58H94O25
RETENTIONTIME: 6.121867
IONMODE: Negative
Comment: registered in RIKEN PlaSMA
Num Peaks: 30
91.9699	15
394.1077	17
489.52005	13
570.45734	17
706.73474	13
726.69928	17
746.57825	19
754.06561	16
754.39148	15
773.48224	17
777.77277	15
889.82977	15
1189.60791	596
1190.08618	15
1190.43701	13
1190.58875	188
1190.65967	62
1191.63184	76
1192.58887	15
1192.63831	14
1208.25171	17
1213.13513	28
1213.6239	26
1214.08423	15
1214.57544	15
1216.57568	39
1217.06421	15
1217.11511	20
1235.60938	1000
1235.71338	13

NAME: Chrysanthellin A
PRECURSORMZ: 1189.60114254783
PRECURSORTYPE: [M-H]-
INSTRUMENTTYPE: LC-ESI-QTOF
SMILES: CC1OC(OC2C(O)COC(OC3C(C)OC(OC4C(O)C(O)COC4OC(=O)C45CCC(C)(C)CC4C4=CCC6C7(C)CCC(OC8OC(CO)C(O)C(O)C8O)C(C)(C)C7CCC6(C)C4(C)CC5O)C(O)C3O)C2O)C(O)C(O)C1O
INCHIKEY: IBEZGTWSSFFKNB-UHFFFAOYNA-N
Ontology: Triterpene saponins
COLLISIONENERGY: 30
FORMULA: C58H94O25
RETENTIONTIME: 6.121867
IONMODE: Negative
Comment: registered in RIKEN PlaSMA
Num Peaks: 41
113.02594	81
131.02917	63
145.04639	70
258.01318	81
334.52188	92
379.12494	148
381.11929	92
381.14871	74
386.50699	63
424.14743	99
442.16116	81
442.18271	74
448.14328	85
483.16681	606
484.17093	113
503.65387	70
548.16205	63
555.17731	194
557.18616	63
573.18536	63
605.69696	67
633.39563	373
634.38019	67
675.39264	99
677.41699	67
763.47156	85
780.43591	92
1041.54944	81
1099.52454	70
1099.56641	482
1099.63367	77
1100.53857	85
1100.57837	127
1100.6239	63
1101.6178	70
1171.54395	85
1172.60217	67
1172.63318	63
1173.57104	74
1189.57483	229
1189.62292	1000

NAME: Chrysanthellin A
PRECURSORMZ: 1235.60662185183
PRECURSORTYPE: [M+FA-H]-
INSTRUMENTTYPE: LC-ESI-QTOF
SMILES: CC1OC(OC2C(O)COC(OC3C(C)OC(OC4C(O)C(O)COC4OC(=O)C45CCC(C)(C)CC4C4=CCC6C7(C)CCC(OC8OC(CO)C(O)C(O)C8O)C(C)(C)C7CCC6(C)C4(C)CC5O)C(O)C3O)C2O)C(O)C(O)C1O
INCHIKEY: IBEZGTWSSFFKNB-UHFFFAOYNA-N
Ontology: Triterpene saponins
COLLISIONENERGY: 30
FORMULA: C58H94O25
RETENTIONTIME: 6.121867
IONMODE: Negative
Comment: registered in RIKEN PlaSMA
Num Peaks: 36
131.03822	9
145.04939	13
268.95538	5
295.10114	8
337.09518	6
381.13925	5
447.96805	5
483.1716	35
483.1875	20
555.19849	43
556.18182	8
616.22626	6
633.3894	9
633.4054	8
634.38678	8
665.81201	8
688.28339	5
1057.56384	8
1099.526	29
1099.573	35
1100.56104	51
1101.5791	16
1102.58276	13
1168.66797	5
1171.5907	20
1172.57056	15
1172.61853	19
1187.06152	6
1189.59888	1000
1190.60681	627
1191.57886	53
1191.61108	169
1192.57788	32
1192.62122	43
1193.55933	8
1193.60327	10

NAME: Chrysanthellin A
PRECURSORMZ: 1189.60114254783
PRECURSORTYPE: [M-H]-
INSTRUMENTTYPE: LC-ESI-QTOF
SMILES: CC1OC(OC2C(O)COC(OC3C(C)OC(OC4C(O)C(O)COC4OC(=O)C45CCC(C)(C)CC4C4=CCC6C7(C)CCC(OC8OC(CO)C(O)C(O)C8O)C(C)(C)C7CCC6(C)C4(C)CC5O)C(O)C3O)C2O)C(O)C(O)C1O
INCHIKEY: IBEZGTWSSFFKNB-UHFFFAOYNA-N
Ontology: Triterpene saponins
COLLISIONENERGY: 50
FORMULA: C58H94O25
RETENTIONTIME: 6.121867
IONMODE: Negative
Comment: registered in RIKEN PlaSMA
Num Peaks: 34
99.00694	36
113.02422	117
113.02908	38
125.02383	36
131.0329	408
131.04175	65
132.04123	52
133.04086	42
145.04729	38
145.05669	34
161.04713	38
163.05666	92
277.08432	34
295.08911	77
337.10782	54
337.11868	142
338.10934	42
379.12021	48
423.15192	42
441.15027	36
483.14075	88
483.17114	722
484.16635	36
555.19061	38
557.20923	48
632.75763	34
633.39478	1000
633.42749	109
634.39832	339
634.42145	119
635.4007	40
743.41895	34
1099.5625	38
1101.58545	34

NAME: Chrysanthellin A
PRECURSORMZ: 1235.60662185183
PRECURSORTYPE: [M+FA-H]-
INSTRUMENTTYPE: LC-ESI-QTOF
SMILES: CC1OC(OC2C(O)COC(OC3C(C)OC(OC4C(O)C(O)COC4OC(=O)C45CCC(C)(C)CC4C4=CCC6C7(C)CCC(OC8OC(CO)C(O)C(O)C8O)C(C)(C)C7CCC6(C)C4(C)CC5O)C(O)C3O)C2O)C(O)C(O)C1O
INCHIKEY: IBEZGTWSSFFKNB-UHFFFAOYNA-N
Ontology: Triterpene saponins
COLLISIONENERGY: 50
FORMULA: C58H94O25
RETENTIONTIME: 6.121867
IONMODE: Negative
Comment: registered in RIKEN PlaSMA
Num Peaks: 67
73.02773	16
101.02006	32
101.02631	35
101.03263	11
103.03999	5
113.02244	25
114.02332	10
127.04299	13
131.03497	234
132.03896	17
143.03404	7
145.03754	6
145.04936	75
161.04486	7
163.05956	58
217.14102	7
259.07623	8
277.08765	14
295.09396	23
295.10574	36
295.11539	15
296.0217	5
306.81339	7
309.92474	7
337.11612	72
361.12793	5
379.12787	10
381.13049	17
382.14719	5
397.14011	6
405.11356	6
409.7345	5
421.1358	9
423.14496	36
424.15918	15
425.15997	6
426.15985	7
441.1395	5
441.1586	10
447.14371	10
447.16168	6
483.12616	5
483.17029	1000
483.21793	6
484.1257	7
484.16849	68
484.19162	35
485.17249	5
485.18756	5
555.18488	69
555.20575	32
556.17328	6
556.1925	31
633.35541	11
633.39893	505
634.40228	208
634.43774	20
635.40033	38
635.42041	26
636.40961	6
683.04254	7
929.54907	7
1099.52185	5
1099.56262	10
1102.55029	6
1189.5708	14
1189.6134	9

NAME: Chrysanthellin A
PRECURSORMZ: 1189.60114254783
PRECURSORTYPE: [M-H]-
INSTRUMENTTYPE: LC-ESI-QTOF
SMILES: CC1OC(OC2C(O)COC(OC3C(C)OC(OC4C(O)C(O)COC4OC(=O)C45CCC(C)(C)CC4C4=CCC6C7(C)CCC(OC8OC(CO)C(O)C(O)C8O)C(C)(C)C7CCC6(C)C4(C)CC5O)C(O)C3O)C2O)C(O)C(O)C1O
INCHIKEY: IBEZGTWSSFFKNB-UHFFFAOYNA-N
Ontology: Triterpene saponins
COLLISIONENERGY: 10
FORMULA: C58H94O25
RETENTIONTIME: 6.121867
IONMODE: Negative
Comment: registered in RIKEN PlaSMA
Num Peaks: 19
92.17892	43
101.02247	53
164.06856	37
295.11624	49
423.15131	45
483.17499	117
484.10132	39
484.16467	45
555.20349	37
556.20233	45
633.3869	43
633.40234	57
634.41687	37
636.4787	41
651.35962	45
930.48822	37
1099.55701	86
1172.60754	49
1189.61035	1000

NAME: Chrysanthellin A
PRECURSORMZ: 1235.60662185183
PRECURSORTYPE: [M+FA-H]-
INSTRUMENTTYPE: LC-ESI-QTOF
SMILES: CC1OC(OC2C(O)COC(OC3C(C)OC(OC4C(O)C(O)COC4OC(=O)C45CCC(C)(C)CC4C4=CCC6C7(C)CCC(OC8OC(CO)C(O)C(O)C8O)C(C)(C)C7CCC6(C)C4(C)CC5O)C(O)C3O)C2O)C(O)C(O)C1O
INCHIKEY: IBEZGTWSSFFKNB-UHFFFAOYNA-N
Ontology: Triterpene saponins
COLLISIONENERGY: 10
FORMULA: C58H94O25
RETENTIONTIME: 6.121867
IONMODE: Negative
Comment: registered in RIKEN PlaSMA
Num Peaks: 53
62.0471	6
115.21823	5
131.02806	13
163.06412	5
338.10248	5
375.07565	5
379.11948	5
381.13422	6
425.15506	5
441.14438	5
441.15918	10
441.17899	5
442.16833	9
482.34729	6
483.16885	81
483.18945	21
483.21841	5
484.17337	30
485.17975	11
515.53931	5
526.1745	7
555.1925	86
556.18042	12
556.19653	6
609.11127	7
619.93188	6
633.38983	20
633.40387	41
634.40045	31
647.9292	7
651.97711	5
761.44366	5
787.18671	8
840.54773	5
944.91974	6
1099.5332	5
1099.57886	37
1099.66931	5
1100.57068	54
1113.10205	8
1171.55652	10
1171.6178	15
1172.60547	11
1189.60596	1000
1189.69446	10
1190.60779	640
1191.60388	183
1192.61011	20
1192.66418	10
1212.61987	5
1214.77344	5
1215.12524	7
1235.60559	121

NAME: Chrysanthellin A
PRECURSORMZ: 1189.60114254783
PRECURSORTYPE: [M-H]-
INSTRUMENTTYPE: LC-ESI-QTOF
SMILES: CC1OC(OC2C(O)COC(OC3C(C)OC(OC4C(O)C(O)COC4OC(=O)C45CCC(C)(C)CC4C4=CCC6C7(C)CCC(OC8OC(CO)C(O)C(O)C8O)C(C)(C)C7CCC6(C)C4(C)CC5O)C(O)C3O)C2O)C(O)C(O)C1O
INCHIKEY: IBEZGTWSSFFKNB-UHFFFAOYNA-N
Ontology: Triterpene saponins
COLLISIONENERGY: 10
FORMULA: C58H94O25
RETENTIONTIME: 6.121867
IONMODE: Negative
Comment: registered in RIKEN PlaSMA
Num Peaks: 3
89.68385	45
1172.93359	48
1189.59985	1000

NAME: Chrysanthellin A
PRECURSORMZ: 1235.60662185183
PRECURSORTYPE: [M+FA-H]-
INSTRUMENTTYPE: LC-ESI-QTOF
SMILES: CC1OC(OC2C(O)COC(OC3C(C)OC(OC4C(O)C(O)COC4OC(=O)C45CCC(C)(C)CC4C4=CCC6C7(C)CCC(OC8OC(CO)C(O)C(O)C8O)C(C)(C)C7CCC6(C)C4(C)CC5O)C(O)C3O)C2O)C(O)C(O)C1O
INCHIKEY: IBEZGTWSSFFKNB-UHFFFAOYNA-N
Ontology: Triterpene saponins
COLLISIONENERGY: 10
FORMULA: C58H94O25
RETENTIONTIME: 6.121867
IONMODE: Negative
Comment: registered in RIKEN PlaSMA
Num Peaks: 28
80.73093	9
530.84692	8
590.96179	7
626.05438	8
660.97388	7
715.94165	8
893.59076	12
955.05981	11
1020.25592	9
1120.00537	7
1189.59741	445
1190.60693	377
1191.13098	8
1191.59399	53
1191.62732	46
1191.69385	8
1192.60388	38
1192.67249	8
1193.56348	9
1194.57544	8
1212.58496	16
1213.11108	10
1214.1427	8
1214.58582	7
1217.05981	8
1218.58191	8
1235.52478	8
1235.60974	1000

NAME: Chrysanthellin A
PRECURSORMZ: 1189.60114254783
PRECURSORTYPE: [M-H]-
INSTRUMENTTYPE: LC-ESI-QTOF
SMILES: CC1OC(OC2C(O)COC(OC3C(C)OC(OC4C(O)C(O)COC4OC(=O)C45CCC(C)(C)CC4C4=CCC6C7(C)CCC(OC8OC(CO)C(O)C(O)C8O)C(C)(C)C7CCC6(C)C4(C)CC5O)C(O)C3O)C2O)C(O)C(O)C1O
INCHIKEY: IBEZGTWSSFFKNB-UHFFFAOYNA-N
Ontology: Triterpene saponins
COLLISIONENERGY: 30
FORMULA: C58H94O25
RETENTIONTIME: 6.121867
IONMODE: Negative
Comment: registered in RIKEN PlaSMA
Num Peaks: 32
145.05586	66
363.12238	52
441.17401	96
483.16537	376
483.18988	74
484.16452	49
484.18518	52
485.17984	54
491.80038	44
555.20715	101
556.18646	54
633.38324	98
633.40344	187
675.40485	52
909.21838	54
1039.5415	103
1039.58972	44
1041.60291	44
1058.52441	52
1092.26331	47
1099.56055	211
1099.62561	44
1100.59912	155
1101.22827	49
1102.60303	44
1171.59863	44
1172.58484	140
1173.58948	61
1173.64404	49
1189.56323	214
1189.59924	1000
1189.67786	64

NAME: Chrysanthellin A
PRECURSORMZ: 1235.60662185183
PRECURSORTYPE: [M+FA-H]-
INSTRUMENTTYPE: LC-ESI-QTOF
SMILES: CC1OC(OC2C(O)COC(OC3C(C)OC(OC4C(O)C(O)COC4OC(=O)C45CCC(C)(C)CC4C4=CCC6C7(C)CCC(OC8OC(CO)C(O)C(O)C8O)C(C)(C)C7CCC6(C)C4(C)CC5O)C(O)C3O)C2O)C(O)C(O)C1O
INCHIKEY: IBEZGTWSSFFKNB-UHFFFAOYNA-N
Ontology: Triterpene saponins
COLLISIONENERGY: 30
FORMULA: C58H94O25
RETENTIONTIME: 6.121867
IONMODE: Negative
Comment: registered in RIKEN PlaSMA
Num Peaks: 27
127.03802	6
131.0314	8
146.05194	10
382.14365	5
405.63153	5
423.14639	12
483.15829	23
483.17435	33
555.1864	17
633.38153	7
633.40326	21
634.41132	7
917.86597	6
954.46472	6
1099.54688	23
1099.57996	51
1100.57043	46
1171.5437	6
1171.5824	28
1172.60901	13
1173.60461	14
1189.60278	1000
1189.68726	6
1190.53125	6
1190.60632	622
1191.60657	204
1192.58252	25

NAME: Chrysanthellin A
PRECURSORMZ: 1189.60114254783
PRECURSORTYPE: [M-H]-
INSTRUMENTTYPE: LC-ESI-QTOF
SMILES: CC1OC(OC2C(O)COC(OC3C(C)OC(OC4C(O)C(O)COC4OC(=O)C45CCC(C)(C)CC4C4=CCC6C7(C)CCC(OC8OC(CO)C(O)C(O)C8O)C(C)(C)C7CCC6(C)C4(C)CC5O)C(O)C3O)C2O)C(O)C(O)C1O
INCHIKEY: IBEZGTWSSFFKNB-UHFFFAOYNA-N
Ontology: Triterpene saponins
COLLISIONENERGY: 50
FORMULA: C58H94O25
RETENTIONTIME: 6.121867
IONMODE: Negative
Comment: registered in RIKEN PlaSMA
Num Peaks: 40
71.0109	41
73.03001	34
97.02924	41
101.02168	90
103.03655	85
103.04013	32
113.02242	34
127.04035	31
131.03175	344
131.03792	94
145.0473	175
151.05795	31
155.49141	36
163.05579	31
206.84119	41
295.11465	36
337.11603	124
338.11533	85
363.12231	61
363.13541	36
381.13721	48
381.15265	34
390.9472	31
410.14188	31
415.77542	31
423.1442	31
423.18347	34
473.76663	60
483.17154	1000
484.17062	65
484.18762	31
555.21838	32
574.409	46
575.32837	34
616.39819	34
633.39923	646
634.39252	77
634.41528	105
635.39294	65
894.40753	31

NAME: Chrysanthellin A
PRECURSORMZ: 1235.60662185183
PRECURSORTYPE: [M+FA-H]-
INSTRUMENTTYPE: LC-ESI-QTOF
SMILES: CC1OC(OC2C(O)COC(OC3C(C)OC(OC4C(O)C(O)COC4OC(=O)C45CCC(C)(C)CC4C4=CCC6C7(C)CCC(OC8OC(CO)C(O)C(O)C8O)C(C)(C)C7CCC6(C)C4(C)CC5O)C(O)C3O)C2O)C(O)C(O)C1O
INCHIKEY: IBEZGTWSSFFKNB-UHFFFAOYNA-N
Ontology: Triterpene saponins
COLLISIONENERGY: 50
FORMULA: C58H94O25
RETENTIONTIME: 6.121867
IONMODE: Negative
Comment: registered in RIKEN PlaSMA
Num Peaks: 84
59.01239	6
85.03076	7
89.03323	6
101.02359	43
103.03567	12
106.05331	6
113.02276	48
125.02598	5
127.03467	11
131.0329	306
132.03648	9
141.78552	6
143.03349	12
145.04924	78
145.05525	23
146.05321	13
163.05879	46
163.07088	5
185.04674	8
213.62495	8
277.0921	59
295.10144	28
296.10953	5
335.10947	6
337.1124	66
337.1228	34
338.10901	11
338.12363	19
351.26624	5
353.56622	5
361.11737	16
362.50784	6
363.11142	5
364.12943	5
365.43445	5
379.11792	5
379.1286	12
381.1344	18
381.15161	17
381.16907	5
386.06705	7
387.12613	5
413.15762	6
423.14743	40
424.16245	16
425.17215	5
431.1442	12
441.1658	30
483.17123	1000
484.11517	7
484.17401	157
484.21341	5
485.17575	33
488.18729	9
526.17865	7
555.18793	58
555.21918	18
556.18341	20
556.20361	10
557.21692	14
572.74939	5
576.45874	5
587.39148	6
615.36865	6
615.40417	5
633.40027	664
633.44635	5
634.40295	190
635.38593	11
635.42334	33
636.40656	5
654.27271	7
675.42395	5
717.45398	10
730.39417	5
762.44751	6
929.47211	6
1037.5658	7
1099.58862	5
1100.54773	17
1103.54492	5
1171.57336	5
1172.58179	6
1189.58875	18

NAME: Chrysanthellin B
PRECURSORMZ: 1205.59605654783
PRECURSORTYPE: [M-H]-
INSTRUMENTTYPE: LC-ESI-QTOF
SMILES: CC1OC(OC2C(O)COC(OC3C(C)OC(OC4C(O)C(O)COC4OC(=O)C45CCC(C)(C)CC4C4=CCC6C7(C)CCC(OC8OC(CO)C(O)C(O)C8O)C(C)(CO)C7CCC6(C)C4(C)CC5O)C(O)C3O)C2O)C(O)C(O)C1O
INCHIKEY: WNGIVKPPGCCJNP-UHFFFAOYNA-N
Ontology: Triterpene saponins
COLLISIONENERGY: 10
FORMULA: C58H94O26
RETENTIONTIME: 5.782933
IONMODE: Negative
Comment: registered in RIKEN PlaSMA
Num Peaks: 27
131.0305	34
145.05017	18
295.10364	27
338.1196	19
361.11389	20
381.1312	25
441.18152	17
483.14719	18
483.17554	57
484.14511	17
486.17422	16
487.35025	18
555.18451	20
555.21869	18
649.39252	34
650.39594	17
652.38208	18
781.42059	17
915.63531	18
985.7442	18
1115.54773	16
1116.5592	18
1116.58289	36
1181.23096	19
1187.62415	25
1188.63135	19
1205.59546	1000

NAME: Chrysanthellin B
PRECURSORMZ: 1251.60153585183
PRECURSORTYPE: [M+FA-H]-
INSTRUMENTTYPE: LC-ESI-QTOF
SMILES: CC1OC(OC2C(O)COC(OC3C(C)OC(OC4C(O)C(O)COC4OC(=O)C45CCC(C)(C)CC4C4=CCC6C7(C)CCC(OC8OC(CO)C(O)C(O)C8O)C(C)(CO)C7CCC6(C)C4(C)CC5O)C(O)C3O)C2O)C(O)C(O)C1O
INCHIKEY: WNGIVKPPGCCJNP-UHFFFAOYNA-N
Ontology: Triterpene saponins
COLLISIONENERGY: 10
FORMULA: C58H94O26
RETENTIONTIME: 5.782933
IONMODE: Negative
Comment: registered in RIKEN PlaSMA
Num Peaks: 23
363.12958	7
410.30295	6
441.16827	17
483.16272	12
483.18311	31
555.18799	12
627.80457	7
649.38721	20
651.40686	7
1115.55859	18
1115.59253	10
1116.55334	10
1116.59021	10
1205.59497	1000
1206.59656	582
1206.68799	6
1207.52734	14
1207.60474	244
1208.59363	20
1208.62524	13
1209.63623	7
1251.58789	63
1251.65576	14

NAME: Chrysanthellin B
PRECURSORMZ: 1205.59605654783
PRECURSORTYPE: [M-H]-
INSTRUMENTTYPE: LC-ESI-QTOF
SMILES: CC1OC(OC2C(O)COC(OC3C(C)OC(OC4C(O)C(O)COC4OC(=O)C45CCC(C)(C)CC4C4=CCC6C7(C)CCC(OC8OC(CO)C(O)C(O)C8O)C(C)(CO)C7CCC6(C)C4(C)CC5O)C(O)C3O)C2O)C(O)C(O)C1O
INCHIKEY: WNGIVKPPGCCJNP-UHFFFAOYNA-N
Ontology: Triterpene saponins
COLLISIONENERGY: 10
FORMULA: C58H94O26
RETENTIONTIME: 5.782933
IONMODE: Negative
Comment: registered in RIKEN PlaSMA
Num Peaks: 8
52.12146	10
86.84062	12
448.61288	11
582.20844	10
805.28625	12
1030.3468	9
1205.42932	9
1205.59595	1000

NAME: Chrysanthellin B
PRECURSORMZ: 1205.59605654783
PRECURSORTYPE: [M-H]-
INSTRUMENTTYPE: LC-ESI-QTOF
SMILES: CC1OC(OC2C(O)COC(OC3C(C)OC(OC4C(O)C(O)COC4OC(=O)C45CCC(C)(C)CC4C4=CCC6C7(C)CCC(OC8OC(CO)C(O)C(O)C8O)C(C)(CO)C7CCC6(C)C4(C)CC5O)C(O)C3O)C2O)C(O)C(O)C1O
INCHIKEY: WNGIVKPPGCCJNP-UHFFFAOYNA-N
Ontology: Triterpene saponins
COLLISIONENERGY: 30
FORMULA: C58H94O26
RETENTIONTIME: 5.782933
IONMODE: Negative
Comment: registered in RIKEN PlaSMA
Num Peaks: 32
78.01035	20
145.05119	24
337.09995	17
382.1525	17
409.1337	20
441.14835	16
442.17099	17
443.15244	18
483.14294	16
483.16473	98
555.09344	23
555.17664	34
555.19543	35
571.99518	23
575.18219	16
649.39105	23
649.43604	16
650.37866	18
650.42664	17
651.39868	19
692.40192	45
809.04163	17
1115.5813	34
1115.63281	18
1115.80811	18
1187.54138	21
1187.57788	16
1188.55457	19
1190.60962	22
1199.36926	22
1205.59436	1000
1205.68152	44

NAME: Chrysanthellin B
PRECURSORMZ: 1205.59605654783
PRECURSORTYPE: [M-H]-
INSTRUMENTTYPE: LC-ESI-QTOF
SMILES: CC1OC(OC2C(O)COC(OC3C(C)OC(OC4C(O)C(O)COC4OC(=O)C45CCC(C)(C)CC4C4=CCC6C7(C)CCC(OC8OC(CO)C(O)C(O)C8O)C(C)(CO)C7CCC6(C)C4(C)CC5O)C(O)C3O)C2O)C(O)C(O)C1O
INCHIKEY: WNGIVKPPGCCJNP-UHFFFAOYNA-N
Ontology: Triterpene saponins
COLLISIONENERGY: 50
FORMULA: C58H94O26
RETENTIONTIME: 5.782933
IONMODE: Negative
Comment: registered in RIKEN PlaSMA
Num Peaks: 60
85.02522	25
85.02927	17
95.27839	19
101.02057	149
104.1581	25
113.02402	108
114.02596	17
131.03304	291
132.03239	17
132.04195	42
143.03711	17
145.04558	94
146.05321	22
154.7872	18
159.03899	19
161.04723	20
163.06026	65
188.70834	23
206.07167	19
215.04898	22
277.07993	19
277.09952	35
295.10495	35
296.10629	26
337.1011	17
337.11523	59
361.1124	18
363.1257	22
379.12411	18
409.12939	21
421.13708	50
423.15244	70
423.17722	18
424.15527	18
441.1792	17
466.16806	19
473.46783	19
483.16348	423
483.17609	1000
484.15488	62
484.18774	85
485.18729	41
555.18585	96
555.2085	45
556.20575	56
557.18848	17
603.34497	18
607.6897	18
649.3952	615
649.4325	40
650.37347	46
650.40149	160
651.41272	79
655.3891	18
658.21478	17
692.39478	18
909.48431	27
982.03302	22
1115.55579	19
1116.54419	24

NAME: Chrysanthellin B
PRECURSORMZ: 1251.60153585183
PRECURSORTYPE: [M+FA-H]-
INSTRUMENTTYPE: LC-ESI-QTOF
SMILES: CC1OC(OC2C(O)COC(OC3C(C)OC(OC4C(O)C(O)COC4OC(=O)C45CCC(C)(C)CC4C4=CCC6C7(C)CCC(OC8OC(CO)C(O)C(O)C8O)C(C)(CO)C7CCC6(C)C4(C)CC5O)C(O)C3O)C2O)C(O)C(O)C1O
INCHIKEY: WNGIVKPPGCCJNP-UHFFFAOYNA-N
Ontology: Triterpene saponins
COLLISIONENERGY: 50
FORMULA: C58H94O26
RETENTIONTIME: 5.782933
IONMODE: Negative
Comment: registered in RIKEN PlaSMA
Num Peaks: 52
85.56207	8
101.02495	18
113.0234	60
131.03302	158
132.03841	9
145.04979	108
163.05956	35
164.06346	5
295.09164	17
295.10461	14
337.11197	53
337.13052	8
338.11942	14
345.28015	8
363.12424	5
376.4147	5
379.12878	9
381.1376	18
423.14206	31
423.15897	39
441.15451	8
441.17068	15
447.14844	5
476.95041	5
483.17068	1000
484.17804	99
485.17041	23
485.19278	29
525.17181	7
553.22943	7
555.19202	73
556.1911	17
557.18848	5
557.20453	7
631.39551	6
649.39545	506
650.40009	235
651.36542	10
651.40106	54
664.42383	5
691.42285	13
791.47235	5
1115.53638	20
1115.57581	43
1116.53296	9
1116.57141	17
1117.55554	10
1205.58826	19
1205.61914	31
1205.65991	13
1206.57568	26
1207.63306	9

NAME: Chrysanthellin B
PRECURSORMZ: 1205.59605654783
PRECURSORTYPE: [M-H]-
INSTRUMENTTYPE: LC-ESI-QTOF
SMILES: CC1OC(OC2C(O)COC(OC3C(C)OC(OC4C(O)C(O)COC4OC(=O)C45CCC(C)(C)CC4C4=CCC6C7(C)CCC(OC8OC(CO)C(O)C(O)C8O)C(C)(CO)C7CCC6(C)C4(C)CC5O)C(O)C3O)C2O)C(O)C(O)C1O
INCHIKEY: WNGIVKPPGCCJNP-UHFFFAOYNA-N
Ontology: Triterpene saponins
COLLISIONENERGY: 10
FORMULA: C58H94O26
RETENTIONTIME: 5.782933
IONMODE: Negative
Comment: registered in RIKEN PlaSMA
Num Peaks: 34
131.03566	28
145.04788	31
163.05771	15
277.08542	16
295.10013	13
363.13696	18
383.14816	14
409.13046	16
441.14899	47
483.159	94
483.17661	71
493.28122	13
555.19	16
555.21118	19
556.17316	13
629.08325	13
649.38507	31
649.40796	47
649.42456	15
650.38324	13
650.41754	57
651.41949	16
689.98041	15
706.57129	19
795.42041	13
877.79541	13
928.49371	18
937.20844	14
1115.52783	27
1116.55457	19
1187.56384	13
1198.22229	13
1205.59998	1000
1205.73682	15

NAME: Chrysanthellin B
PRECURSORMZ: 1205.59605654783
PRECURSORTYPE: [M-H]-
INSTRUMENTTYPE: LC-ESI-QTOF
SMILES: CC1OC(OC2C(O)COC(OC3C(C)OC(OC4C(O)C(O)COC4OC(=O)C45CCC(C)(C)CC4C4=CCC6C7(C)CCC(OC8OC(CO)C(O)C(O)C8O)C(C)(CO)C7CCC6(C)C4(C)CC5O)C(O)C3O)C2O)C(O)C(O)C1O
INCHIKEY: WNGIVKPPGCCJNP-UHFFFAOYNA-N
Ontology: Triterpene saponins
COLLISIONENERGY: 10
FORMULA: C58H94O26
RETENTIONTIME: 5.782933
IONMODE: Negative
Comment: registered in RIKEN PlaSMA
Num Peaks: 3
262.72238	18
795.46747	20
1205.59912	1000

NAME: Chrysanthellin B
PRECURSORMZ: 1205.59605654783
PRECURSORTYPE: [M-H]-
INSTRUMENTTYPE: LC-ESI-QTOF
SMILES: CC1OC(OC2C(O)COC(OC3C(C)OC(OC4C(O)C(O)COC4OC(=O)C45CCC(C)(C)CC4C4=CCC6C7(C)CCC(OC8OC(CO)C(O)C(O)C8O)C(C)(CO)C7CCC6(C)C4(C)CC5O)C(O)C3O)C2O)C(O)C(O)C1O
INCHIKEY: WNGIVKPPGCCJNP-UHFFFAOYNA-N
Ontology: Triterpene saponins
COLLISIONENERGY: 30
FORMULA: C58H94O26
RETENTIONTIME: 5.782933
IONMODE: Negative
Comment: registered in RIKEN PlaSMA
Num Peaks: 37
131.03401	13
145.04439	13
145.04994	14
295.09531	27
296.10672	15
381.11029	28
418.84531	15
441.16861	17
483.15143	16
483.18436	29
484.18582	29
520.17102	14
555.18909	47
556.20874	28
629.64307	18
649.3775	15
649.40479	66
651.40808	13
691.41791	17
691.44586	14
725.02478	18
735.42932	15
864.22742	13
1061.56262	14
1073.52246	14
1073.55835	15
1075.55188	13
1115.58093	36
1116.50537	20
1116.53564	21
1117.52795	13
1117.5769	13
1117.84607	15
1118.61047	18
1190.52722	20
1203.61731	13
1205.59436	1000

NAME: Chrysanthellin B
PRECURSORMZ: 1251.60153585183
PRECURSORTYPE: [M+FA-H]-
INSTRUMENTTYPE: LC-ESI-QTOF
SMILES: CC1OC(OC2C(O)COC(OC3C(C)OC(OC4C(O)C(O)COC4OC(=O)C45CCC(C)(C)CC4C4=CCC6C7(C)CCC(OC8OC(CO)C(O)C(O)C8O)C(C)(CO)C7CCC6(C)C4(C)CC5O)C(O)C3O)C2O)C(O)C(O)C1O
INCHIKEY: WNGIVKPPGCCJNP-UHFFFAOYNA-N
Ontology: Triterpene saponins
COLLISIONENERGY: 30
FORMULA: C58H94O26
RETENTIONTIME: 5.782933
IONMODE: Negative
Comment: registered in RIKEN PlaSMA
Num Peaks: 10
483.17239	8
555.20251	7
1115.57324	12
1116.53345	7
1116.58716	9
1205.59814	1000
1206.59692	637
1207.60242	214
1208.57068	16
1208.6062	31

NAME: Chrysanthellin B
PRECURSORMZ: 1205.59605654783
PRECURSORTYPE: [M-H]-
INSTRUMENTTYPE: LC-ESI-QTOF
SMILES: CC1OC(OC2C(O)COC(OC3C(C)OC(OC4C(O)C(O)COC4OC(=O)C45CCC(C)(C)CC4C4=CCC6C7(C)CCC(OC8OC(CO)C(O)C(O)C8O)C(C)(CO)C7CCC6(C)C4(C)CC5O)C(O)C3O)C2O)C(O)C(O)C1O
INCHIKEY: WNGIVKPPGCCJNP-UHFFFAOYNA-N
Ontology: Triterpene saponins
COLLISIONENERGY: 50
FORMULA: C58H94O26
RETENTIONTIME: 5.782933
IONMODE: Negative
Comment: registered in RIKEN PlaSMA
Num Peaks: 55
85.02906	19
89.01852	18
99.00859	17
99.03526	22
101.02557	63
103.0375	19
113.0248	56
131.03363	324
133.02995	20
145.03287	18
145.04944	100
157.33371	22
161.04507	22
163.05382	49
163.06213	108
186.86627	20
205.06172	19
259.10773	19
277.08987	71
278.08618	17
295.09082	18
317.62979	17
319.10199	23
337.09341	18
337.11591	73
361.11594	17
363.12241	46
364.11639	19
379.1355	20
381.14932	36
409.1304	19
421.1282	37
423.15924	41
433.94745	17
450.35352	25
466.17023	17
483.16962	881
483.21021	41
484.17587	142
484.1987	25
485.18533	22
555.18701	119
555.21906	19
649.3974	1000
649.44568	17
650.38995	74
650.40802	247
650.4389	20
651.38776	25
651.41144	36
651.4325	49
778.43866	17
793.64258	17
1117.58569	19
1205.61584	17

NAME: Chrysanthellin B
PRECURSORMZ: 1205.59605654783
PRECURSORTYPE: [M-H]-
INSTRUMENTTYPE: LC-ESI-QTOF
SMILES: CC1OC(OC2C(O)COC(OC3C(C)OC(OC4C(O)C(O)COC4OC(=O)C45CCC(C)(C)CC4C4=CCC6C7(C)CCC(OC8OC(CO)C(O)C(O)C8O)C(C)(CO)C7CCC6(C)C4(C)CC5O)C(O)C3O)C2O)C(O)C(O)C1O
INCHIKEY: WNGIVKPPGCCJNP-UHFFFAOYNA-N
Ontology: Triterpene saponins
COLLISIONENERGY: 10
FORMULA: C58H94O26
RETENTIONTIME: 5.782933
IONMODE: Negative
Comment: registered in RIKEN PlaSMA
Num Peaks: 27
61.22565	13
101.02711	19
131.03331	14
145.05043	13
205.18535	22
282.9357	18
295.09851	35
295.10602	15
379.13449	15
425.17142	15
483.17819	109
484.15225	13
484.17145	14
484.18494	41
555.18542	29
555.20428	14
556.20496	13
649.36371	15
649.40582	51
685.95618	17
714.50287	13
787.75977	17
820.45428	15
1116.55188	15
1118.56262	13
1205.16125	15
1205.59521	1000

NAME: Chrysanthellin B
PRECURSORMZ: 1251.60153585183
PRECURSORTYPE: [M+FA-H]-
INSTRUMENTTYPE: LC-ESI-QTOF
SMILES: CC1OC(OC2C(O)COC(OC3C(C)OC(OC4C(O)C(O)COC4OC(=O)C45CCC(C)(C)CC4C4=CCC6C7(C)CCC(OC8OC(CO)C(O)C(O)C8O)C(C)(CO)C7CCC6(C)C4(C)CC5O)C(O)C3O)C2O)C(O)C(O)C1O
INCHIKEY: WNGIVKPPGCCJNP-UHFFFAOYNA-N
Ontology: Triterpene saponins
COLLISIONENERGY: 10
FORMULA: C58H94O26
RETENTIONTIME: 5.782933
IONMODE: Negative
Comment: registered in RIKEN PlaSMA
Num Peaks: 21
423.15009	9
441.16232	12
483.16568	57
555.19763	22
555.21002	8
649.38135	10
649.41022	13
650.401	9
1115.57764	20
1116.56421	10
1116.60547	7
1123.85925	5
1205.59912	1000
1205.68665	8
1206.60352	644
1207.60034	237
1207.72522	6
1208.55164	6
1208.61243	28
1209.5918	6
1251.60962	60

NAME: Chrysanthellin B
PRECURSORMZ: 1205.59605654783
PRECURSORTYPE: [M-H]-
INSTRUMENTTYPE: LC-ESI-QTOF
SMILES: CC1OC(OC2C(O)COC(OC3C(C)OC(OC4C(O)C(O)COC4OC(=O)C45CCC(C)(C)CC4C4=CCC6C7(C)CCC(OC8OC(CO)C(O)C(O)C8O)C(C)(CO)C7CCC6(C)C4(C)CC5O)C(O)C3O)C2O)C(O)C(O)C1O
INCHIKEY: WNGIVKPPGCCJNP-UHFFFAOYNA-N
Ontology: Triterpene saponins
COLLISIONENERGY: 10
FORMULA: C58H94O26
RETENTIONTIME: 5.782933
IONMODE: Negative
Comment: registered in RIKEN PlaSMA
Num Peaks: 6
552.97046	9
726.68707	9
761.26172	10
1184.4917	9
1204.59998	9
1205.59668	1000

NAME: Chrysanthellin B
PRECURSORMZ: 1205.59605654783
PRECURSORTYPE: [M-H]-
INSTRUMENTTYPE: LC-ESI-QTOF
SMILES: CC1OC(OC2C(O)COC(OC3C(C)OC(OC4C(O)C(O)COC4OC(=O)C45CCC(C)(C)CC4C4=CCC6C7(C)CCC(OC8OC(CO)C(O)C(O)C8O)C(C)(CO)C7CCC6(C)C4(C)CC5O)C(O)C3O)C2O)C(O)C(O)C1O
INCHIKEY: WNGIVKPPGCCJNP-UHFFFAOYNA-N
Ontology: Triterpene saponins
COLLISIONENERGY: 30
FORMULA: C58H94O26
RETENTIONTIME: 5.782933
IONMODE: Negative
Comment: registered in RIKEN PlaSMA
Num Peaks: 26
68.00697	14
145.04951	13
161.64058	15
163.06036	29
173.0463	14
278.09943	14
337.11301	17
385.68008	15
441.16595	13
483.1615	25
555.1991	13
556.08191	15
649.39386	73
649.44122	20
840.29419	20
950.50171	14
969.53333	17
1055.521	13
1115.54871	57
1116.59106	14
1117.5614	22
1118.5509	13
1119.54333	14
1141.70142	13
1205.49426	14
1205.59229	1000

NAME: Chrysanthellin B
PRECURSORMZ: 1251.60153585183
PRECURSORTYPE: [M+FA-H]-
INSTRUMENTTYPE: LC-ESI-QTOF
SMILES: CC1OC(OC2C(O)COC(OC3C(C)OC(OC4C(O)C(O)COC4OC(=O)C45CCC(C)(C)CC4C4=CCC6C7(C)CCC(OC8OC(CO)C(O)C(O)C8O)C(C)(CO)C7CCC6(C)C4(C)CC5O)C(O)C3O)C2O)C(O)C(O)C1O
INCHIKEY: WNGIVKPPGCCJNP-UHFFFAOYNA-N
Ontology: Triterpene saponins
COLLISIONENERGY: 30
FORMULA: C58H94O26
RETENTIONTIME: 5.782933
IONMODE: Negative
Comment: registered in RIKEN PlaSMA
Num Peaks: 10
483.17297	9
555.18878	9
587.72247	5
1115.54089	5
1205.59607	1000
1206.60205	670
1207.57361	66
1207.60974	166
1208.60962	40
1209.62439	8

NAME: Chrysanthellin B
PRECURSORMZ: 1205.59605654783
PRECURSORTYPE: [M-H]-
INSTRUMENTTYPE: LC-ESI-QTOF
SMILES: CC1OC(OC2C(O)COC(OC3C(C)OC(OC4C(O)C(O)COC4OC(=O)C45CCC(C)(C)CC4C4=CCC6C7(C)CCC(OC8OC(CO)C(O)C(O)C8O)C(C)(CO)C7CCC6(C)C4(C)CC5O)C(O)C3O)C2O)C(O)C(O)C1O
INCHIKEY: WNGIVKPPGCCJNP-UHFFFAOYNA-N
Ontology: Triterpene saponins
COLLISIONENERGY: 50
FORMULA: C58H94O26
RETENTIONTIME: 5.782933
IONMODE: Negative
Comment: registered in RIKEN PlaSMA
Num Peaks: 52
71.01527	18
73.1592	17
86.67433	24
99.04446	35
101.01782	19
101.02544	43
102.02704	19
103.03899	19
113.02399	40
119.03329	17
131.03329	274
132.03259	17
143.02806	19
143.03909	22
145.04642	124
163.06023	99
191.05209	19
277.07864	19
295.10989	19
313.68594	19
337.10959	73
337.1235	19
338.117	19
361.10953	21
379.13156	17
423.14429	19
424.14935	19
442.18158	19
483.16882	1000
483.22437	17
484.17938	201
485.17261	22
485.19153	17
555.1936	102
556.20294	19
557.20984	18
590.38397	17
632.39575	19
632.41504	23
649.39307	671
649.4231	79
650.36163	34
650.3808	58
650.41315	110
651.40039	19
652.37006	23
652.40497	19
691.42053	17
694.6344	19
734.38727	19
936.60504	35
1116.54956	19

NAME: Chrysanthellin B
PRECURSORMZ: 1251.60153585183
PRECURSORTYPE: [M+FA-H]-
INSTRUMENTTYPE: LC-ESI-QTOF
SMILES: CC1OC(OC2C(O)COC(OC3C(C)OC(OC4C(O)C(O)COC4OC(=O)C45CCC(C)(C)CC4C4=CCC6C7(C)CCC(OC8OC(CO)C(O)C(O)C8O)C(C)(CO)C7CCC6(C)C4(C)CC5O)C(O)C3O)C2O)C(O)C(O)C1O
INCHIKEY: WNGIVKPPGCCJNP-UHFFFAOYNA-N
Ontology: Triterpene saponins
COLLISIONENERGY: 50
FORMULA: C58H94O26
RETENTIONTIME: 5.782933
IONMODE: Negative
Comment: registered in RIKEN PlaSMA
Num Peaks: 61
71.01115	5
89.02386	8
101.02372	11
113.02184	77
119.0339	5
131.03244	189
145.04857	104
161.03815	9
163.06046	31
235.07707	6
277.08902	23
295.10825	24
296.10922	12
337.11865	54
337.15735	5
339.11853	5
362.97989	5
363.13251	9
381.13141	16
381.1485	9
382.14194	5
409.12555	7
409.16614	5
423.14883	89
441.16058	21
442.17816	15
447.1431	9
483.1698	1000
484.17139	179
485.15854	18
485.18179	36
507.76669	5
555.19299	66
556.17035	10
588.38806	14
611.58502	5
631.3905	14
649.39417	725
649.45026	10
649.46771	5
650.35883	10
650.39783	181
650.45221	7
651.40137	45
651.43549	8
652.39722	12
661.44012	6
662.0509	5
691.40875	10
692.41919	9
721.42029	6
969.49408	13
1115.55225	7
1115.59229	29
1116.56226	24
1117.52783	8
1205.5874	46
1205.6217	13
1206.59753	23
1206.63745	12
1208.625	5

NAME: Echinocystic acid-3-O-glucoside
PRECURSORMZ: 633.40080694783
PRECURSORTYPE: [M-H]-
INSTRUMENTTYPE: LC-ESI-QTOF
SMILES: CC1(C)CCC2(C(O)CC3(C)C(=CCC4C5(C)CCC(OC6OC(CO)C(O)C(O)C6O)C(C)(C)C5CCC34C)C2C1)C(O)=O
INCHIKEY: WYDPEADEZMZKNM-UHFFFAOYNA-N
Ontology: Triterpene saponins
COLLISIONENERGY: 10
FORMULA: C36H58O9
RETENTIONTIME: 7.332083
IONMODE: Negative
Comment: registered in RIKEN PlaSMA
Num Peaks: 6
71.0117	11
101.02345	16
113.02521	7
161.04582	8
587.39423	10
633.40167	1000

NAME: Echinocystic acid-3-O-glucoside
PRECURSORMZ: 633.40080694783
PRECURSORTYPE: [M-H]-
INSTRUMENTTYPE: LC-ESI-QTOF
SMILES: CC1(C)CCC2(C(O)CC3(C)C(=CCC4C5(C)CCC(OC6OC(CO)C(O)C(O)C6O)C(C)(C)C5CCC34C)C2C1)C(O)=O
INCHIKEY: WYDPEADEZMZKNM-UHFFFAOYNA-N
Ontology: Triterpene saponins
COLLISIONENERGY: 30
FORMULA: C36H58O9
RETENTIONTIME: 7.332083
IONMODE: Negative
Comment: registered in RIKEN PlaSMA
Num Peaks: 12
71.0107	19
71.01541	11
73.02965	14
85.0253	9
101.02327	60
113.02338	39
159.02881	18
161.04378	21
162.04741	6
571.41199	7
587.39612	21
633.40076	1000

NAME: Echinocystic acid-3-O-glucoside
PRECURSORMZ: 633.40080694783
PRECURSORTYPE: [M-H]-
INSTRUMENTTYPE: LC-ESI-QTOF
SMILES: CC1(C)CCC2(C(O)CC3(C)C(=CCC4C5(C)CCC(OC6OC(CO)C(O)C(O)C6O)C(C)(C)C5CCC34C)C2C1)C(O)=O
INCHIKEY: WYDPEADEZMZKNM-UHFFFAOYNA-N
Ontology: Triterpene saponins
COLLISIONENERGY: 50
FORMULA: C36H58O9
RETENTIONTIME: 7.332083
IONMODE: Negative
Comment: registered in RIKEN PlaSMA
Num Peaks: 22
59.01194	216
71.0106	81
71.01875	163
73.02689	197
73.03069	73
75.00734	67
85.02798	160
85.03617	51
85.99829	51
95.0108	62
95.01592	222
97.02702	56
101.02226	1000
101.03202	62
102.02618	51
113.01939	191
113.02721	146
125.02135	65
161.04784	53
407.33453	53
409.33661	51
633.41772	53

NAME: Echinocystic acid-3-O-glucoside
PRECURSORMZ: 633.40080694783
PRECURSORTYPE: [M-H]-
INSTRUMENTTYPE: LC-ESI-QTOF
SMILES: CC1(C)CCC2(C(O)CC3(C)C(=CCC4C5(C)CCC(OC6OC(CO)C(O)C(O)C6O)C(C)(C)C5CCC34C)C2C1)C(O)=O
INCHIKEY: WYDPEADEZMZKNM-UHFFFAOYNA-N
Ontology: Triterpene saponins
COLLISIONENERGY: 10
FORMULA: C36H58O9
RETENTIONTIME: 7.332083
IONMODE: Negative
Comment: registered in RIKEN PlaSMA
Num Peaks: 6
101.02181	14
113.02514	13
159.02646	6
161.04332	12
588.38977	5
633.39935	1000

NAME: Echinocystic acid-3-O-glucoside
PRECURSORMZ: 633.40080694783
PRECURSORTYPE: [M-H]-
INSTRUMENTTYPE: LC-ESI-QTOF
SMILES: CC1(C)CCC2(C(O)CC3(C)C(=CCC4C5(C)CCC(OC6OC(CO)C(O)C(O)C6O)C(C)(C)C5CCC34C)C2C1)C(O)=O
INCHIKEY: WYDPEADEZMZKNM-UHFFFAOYNA-N
Ontology: Triterpene saponins
COLLISIONENERGY: 30
FORMULA: C36H58O9
RETENTIONTIME: 7.332083
IONMODE: Negative
Comment: registered in RIKEN PlaSMA
Num Peaks: 16
71.01083	13
71.01805	6
73.02795	20
85.02691	10
101.02326	87
103.02805	6
113.02342	41
143.03186	11
159.02539	13
159.03369	10
161.04601	31
161.05243	9
418.86163	5
574.86713	5
587.40637	17
633.39984	1000

NAME: Echinocystic acid-3-O-glucoside
PRECURSORMZ: 633.40080694783
PRECURSORTYPE: [M-H]-
INSTRUMENTTYPE: LC-ESI-QTOF
SMILES: CC1(C)CCC2(C(O)CC3(C)C(=CCC4C5(C)CCC(OC6OC(CO)C(O)C(O)C6O)C(C)(C)C5CCC34C)C2C1)C(O)=O
INCHIKEY: WYDPEADEZMZKNM-UHFFFAOYNA-N
Ontology: Triterpene saponins
COLLISIONENERGY: 50
FORMULA: C36H58O9
RETENTIONTIME: 7.332083
IONMODE: Negative
Comment: registered in RIKEN PlaSMA
Num Peaks: 24
50.74546	45
55.01723	101
59.01278	154
60.02054	48
71.00978	50
71.01451	237
73.02598	58
73.03147	128
83.0125	113
84.02295	55
85.02647	169
99.00781	96
101.02451	1000
102.02634	128
111.01059	53
113.02459	537
123.79425	48
125.01962	45
161.04703	48
162.05254	45
407.34052	55
585.37561	45
589.39771	48
633.3938	48

NAME: Echinocystic acid-3-O-glucoside
PRECURSORMZ: 633.40080694783
PRECURSORTYPE: [M-H]-
INSTRUMENTTYPE: LC-ESI-QTOF
SMILES: CC1(C)CCC2(C(O)CC3(C)C(=CCC4C5(C)CCC(OC6OC(CO)C(O)C(O)C6O)C(C)(C)C5CCC34C)C2C1)C(O)=O
INCHIKEY: WYDPEADEZMZKNM-UHFFFAOYNA-N
Ontology: Triterpene saponins
COLLISIONENERGY: 10
FORMULA: C36H58O9
RETENTIONTIME: 7.332083
IONMODE: Negative
Comment: registered in RIKEN PlaSMA
Num Peaks: 3
101.02586	5
161.0471	8
633.40027	1000

NAME: Echinocystic acid-3-O-glucoside
PRECURSORMZ: 633.40080694783
PRECURSORTYPE: [M-H]-
INSTRUMENTTYPE: LC-ESI-QTOF
SMILES: CC1(C)CCC2(C(O)CC3(C)C(=CCC4C5(C)CCC(OC6OC(CO)C(O)C(O)C6O)C(C)(C)C5CCC34C)C2C1)C(O)=O
INCHIKEY: WYDPEADEZMZKNM-UHFFFAOYNA-N
Ontology: Triterpene saponins
COLLISIONENERGY: 30
FORMULA: C36H58O9
RETENTIONTIME: 7.332083
IONMODE: Negative
Comment: registered in RIKEN PlaSMA
Num Peaks: 15
71.01367	14
85.02865	15
99.00989	7
101.02199	57
113.02457	46
114.03032	5
143.03386	7
159.02461	11
159.03053	16
161.04726	41
569.38715	7
571.41016	10
587.39154	19
588.40625	7
633.40118	1000

NAME: Echinocystic acid-3-O-glucoside
PRECURSORMZ: 633.40080694783
PRECURSORTYPE: [M-H]-
INSTRUMENTTYPE: LC-ESI-QTOF
SMILES: CC1(C)CCC2(C(O)CC3(C)C(=CCC4C5(C)CCC(OC6OC(CO)C(O)C(O)C6O)C(C)(C)C5CCC34C)C2C1)C(O)=O
INCHIKEY: WYDPEADEZMZKNM-UHFFFAOYNA-N
Ontology: Triterpene saponins
COLLISIONENERGY: 50
FORMULA: C36H58O9
RETENTIONTIME: 7.332083
IONMODE: Negative
Comment: registered in RIKEN PlaSMA
Num Peaks: 22
55.02012	107
71.01199	141
73.02792	54
85.02653	276
85.42574	44
89.02196	93
95.01373	49
99.00987	56
101.02229	1000
113.01762	120
113.0228	378
129.02242	59
141.01895	46
159.02739	73
233.8145	68
407.33932	44
517.3595	44
572.38568	49
585.3692	76
587.38202	61
599.37238	56
615.36945	59

NAME: Ginsenoside Re
PRECURSORMZ: 945.54283934783
PRECURSORTYPE: [M-H]-
INSTRUMENTTYPE: LC-ESI-QTOF
SMILES: CC1OC(OC2C(O)C(O)C(CO)OC2OC2CC3(C)C(CC(O)C4C(CCC34C)C(C)(CCC=C(C)C)OC3OC(CO)C(O)C(O)C3O)C3(C)CCC(O)C(C)(C)C23)C(O)C(O)C1O
INCHIKEY: PWAOOJDMFUQOKB-UHFFFAOYNA-N
Ontology: Triterpene saponins
COLLISIONENERGY: 10
FORMULA: C48H82O18
RETENTIONTIME: 4.79045
IONMODE: Negative
Comment: registered in RIKEN PlaSMA
Num Peaks: 7
621.42169	133
637.42645	140
637.44989	210
783.50061	147
878.50092	133
945.53473	1000
945.58398	308

NAME: Ginsenoside Re
PRECURSORMZ: 991.54831865183
PRECURSORTYPE: [M+FA-H]-
INSTRUMENTTYPE: LC-ESI-QTOF
SMILES: CC1OC(OC2C(O)C(O)C(CO)OC2OC2CC3(C)C(CC(O)C4C(CCC34C)C(C)(CCC=C(C)C)OC3OC(CO)C(O)C(O)C3O)C3(C)CCC(O)C(C)(C)C23)C(O)C(O)C1O
INCHIKEY: PWAOOJDMFUQOKB-UHFFFAOYNA-N
Ontology: Triterpene saponins
COLLISIONENERGY: 10
FORMULA: C48H82O18
RETENTIONTIME: 4.79045
IONMODE: Negative
Comment: registered in RIKEN PlaSMA
Num Peaks: 20
159.0257	8
161.04344	8
179.0578	14
475.39764	6
619.43213	7
637.40912	16
637.4411	7
638.44904	6
765.49365	6
783.48718	20
784.4646	6
784.50073	9
799.47144	8
799.50055	6
945.54309	1000
946.54706	498
946.617	5
947.54871	125
948.55255	19
991.54858	415

NAME: Ginsenoside Re
PRECURSORMZ: 991.54831865183
PRECURSORTYPE: [M+FA-H]-
INSTRUMENTTYPE: LC-ESI-QTOF
SMILES: CC1OC(OC2C(O)C(O)C(CO)OC2OC2CC3(C)C(CC(O)C4C(CCC34C)C(C)(CCC=C(C)C)OC3OC(CO)C(O)C(O)C3O)C3(C)CCC(O)C(C)(C)C23)C(O)C(O)C1O
INCHIKEY: PWAOOJDMFUQOKB-UHFFFAOYNA-N
Ontology: Triterpene saponins
COLLISIONENERGY: 10
FORMULA: C48H82O18
RETENTIONTIME: 4.79045
IONMODE: Negative
Comment: registered in RIKEN PlaSMA
Num Peaks: 5
945.53992	176
946.54456	78
947.56073	19
991.54425	1000
991.61591	8

NAME: Ginsenoside Re
PRECURSORMZ: 945.54283934783
PRECURSORTYPE: [M-H]-
INSTRUMENTTYPE: LC-ESI-QTOF
SMILES: CC1OC(OC2C(O)C(O)C(CO)OC2OC2CC3(C)C(CC(O)C4C(CCC34C)C(C)(CCC=C(C)C)OC3OC(CO)C(O)C(O)C3O)C3(C)CCC(O)C(C)(C)C23)C(O)C(O)C1O
INCHIKEY: PWAOOJDMFUQOKB-UHFFFAOYNA-N
Ontology: Triterpene saponins
COLLISIONENERGY: 30
FORMULA: C48H82O18
RETENTIONTIME: 4.79045
IONMODE: Negative
Comment: registered in RIKEN PlaSMA
Num Peaks: 9
131.03337	220
131.03896	83
161.04471	122
368.83652	98
538.79169	122
638.43146	88
783.50665	102
799.45178	88
945.53979	1000

NAME: Ginsenoside Re
PRECURSORMZ: 991.54831865183
PRECURSORTYPE: [M+FA-H]-
INSTRUMENTTYPE: LC-ESI-QTOF
SMILES: CC1OC(OC2C(O)C(O)C(CO)OC2OC2CC3(C)C(CC(O)C4C(CCC34C)C(C)(CCC=C(C)C)OC3OC(CO)C(O)C(O)C3O)C3(C)CCC(O)C(C)(C)C23)C(O)C(O)C1O
INCHIKEY: PWAOOJDMFUQOKB-UHFFFAOYNA-N
Ontology: Triterpene saponins
COLLISIONENERGY: 30
FORMULA: C48H82O18
RETENTIONTIME: 4.79045
IONMODE: Negative
Comment: registered in RIKEN PlaSMA
Num Peaks: 10
637.42883	11
783.50146	5
799.47076	12
799.49414	17
800.50195	6
945.53766	1000
945.62866	5
946.54218	589
947.54688	158
948.5459	32

NAME: Ginsenoside Re
PRECURSORMZ: 945.54283934783
PRECURSORTYPE: [M-H]-
INSTRUMENTTYPE: LC-ESI-QTOF
SMILES: CC1OC(OC2C(O)C(O)C(CO)OC2OC2CC3(C)C(CC(O)C4C(CCC34C)C(C)(CCC=C(C)C)OC3OC(CO)C(O)C(O)C3O)C3(C)CCC(O)C(C)(C)C23)C(O)C(O)C1O
INCHIKEY: PWAOOJDMFUQOKB-UHFFFAOYNA-N
Ontology: Triterpene saponins
COLLISIONENERGY: 50
FORMULA: C48H82O18
RETENTIONTIME: 4.79045
IONMODE: Negative
Comment: registered in RIKEN PlaSMA
Num Peaks: 14
59.01099	308
89.02134	474
101.02106	987
113.01768	231
113.0256	282
119.03111	1000
159.02145	321
161.06104	244
179.05904	333
475.37601	321
475.39175	564
476.38995	564
477.36426	231
620.44122	256

NAME: Ginsenoside Re
PRECURSORMZ: 991.54831865183
PRECURSORTYPE: [M+FA-H]-
INSTRUMENTTYPE: LC-ESI-QTOF
SMILES: CC1OC(OC2C(O)C(O)C(CO)OC2OC2CC3(C)C(CC(O)C4C(CCC34C)C(C)(CCC=C(C)C)OC3OC(CO)C(O)C(O)C3O)C3(C)CCC(O)C(C)(C)C23)C(O)C(O)C1O
INCHIKEY: PWAOOJDMFUQOKB-UHFFFAOYNA-N
Ontology: Triterpene saponins
COLLISIONENERGY: 50
FORMULA: C48H82O18
RETENTIONTIME: 4.79045
IONMODE: Negative
Comment: registered in RIKEN PlaSMA
Num Peaks: 125
59.01269	166
60.0148	12
67.98007	10
71.0117	247
72.01504	21
73.0207	11
73.02872	67
81.0293	25
83.00759	11
83.01511	11
85.02834	70
87.00919	40
88.01332	11
88.04601	12
88.57162	10
88.72584	11
89.02333	758
89.28814	10
91.15202	11
96.99869	15
97.03157	28
99.00826	43
101.02288	1000
102.02513	20
103.03837	205
109.02707	14
109.03294	17
113.0228	614
115.04024	25
119.0336	515
120.0383	27
125.02176	11
127.03784	10
128.0424	12
129.01517	14
129.02058	10
131.02837	22
131.03687	49
143.03403	228
144.03442	19
145.0408	19
145.05054	10
146.04977	9
147.41568	12
149.03973	11
149.05229	10
159.0262	102
161.00563	11
161.04411	736
161.15187	10
163.0585	60
179.05382	229
180.05203	11
180.06322	21
205.06239	29
205.07275	77
233.80156	9
257.05246	10
302.49622	14
308.36227	15
333.93457	11
337.72839	10
346.21725	12
391.26694	9
424.68427	12
427.48993	12
434.11316	13
457.36633	21
473.58609	9
475.37949	658
475.42783	12
476.38605	142
477.38348	30
477.40747	11
478.36749	9
527.38361	11
531.40417	18
571.40942	9
590.41559	9
601.41638	23
602.40778	12
605.46393	10
615.40778	9
619.41895	95
620.41638	43
621.39899	11
622.42456	14
622.44824	10
623.79205	12
637.36847	13
637.42645	405
638.26666	10
638.44629	87
639.42163	22
639.44592	9
640.39581	13
640.46344	11
665.45483	15
674.45782	9
765.46796	22
765.52911	9
766.47876	11
766.49884	12
766.52844	11
767.52686	12
781.47461	12
781.50635	9
783.48145	137
784.44495	10
784.48181	47
784.51184	32
785.50696	11
786.50879	10
799.49078	19
800.51685	9
800.86328	10
902.33459	11
945.49902	33
945.54663	78
946.51575	24
946.55139	48
947.508	12
947.53326	15
947.565	19
950.55078	11

NAME: Ginsenoside Re
PRECURSORMZ: 945.54283934783
PRECURSORTYPE: [M-H]-
INSTRUMENTTYPE: LC-ESI-QTOF
SMILES: CC1OC(OC2C(O)C(O)C(CO)OC2OC2CC3(C)C(CC(O)C4C(CCC34C)C(C)(CCC=C(C)C)OC3OC(CO)C(O)C(O)C3O)C3(C)CCC(O)C(C)(C)C23)C(O)C(O)C1O
INCHIKEY: PWAOOJDMFUQOKB-UHFFFAOYNA-N
Ontology: Triterpene saponins
COLLISIONENERGY: 10
FORMULA: C48H82O18
RETENTIONTIME: 4.79045
IONMODE: Negative
Comment: registered in RIKEN PlaSMA
Num Peaks: 5
103.53046	182
163.06543	232
580.97064	293
945.49426	182
945.54651	1000

NAME: Ginsenoside Re
PRECURSORMZ: 991.54831865183
PRECURSORTYPE: [M+FA-H]-
INSTRUMENTTYPE: LC-ESI-QTOF
SMILES: CC1OC(OC2C(O)C(O)C(CO)OC2OC2CC3(C)C(CC(O)C4C(CCC34C)C(C)(CCC=C(C)C)OC3OC(CO)C(O)C(O)C3O)C3(C)CCC(O)C(C)(C)C23)C(O)C(O)C1O
INCHIKEY: PWAOOJDMFUQOKB-UHFFFAOYNA-N
Ontology: Triterpene saponins
COLLISIONENERGY: 10
FORMULA: C48H82O18
RETENTIONTIME: 4.79045
IONMODE: Negative
Comment: registered in RIKEN PlaSMA
Num Peaks: 20
89.02499	9
101.02195	7
103.03999	5
119.03741	8
149.04596	6
161.04428	14
179.05611	11
475.39026	14
637.43085	23
637.45923	6
638.43311	15
783.49176	27
784.49512	7
799.50555	17
800.49158	10
945.54578	1000
946.54956	477
947.55188	128
948.55151	22
991.54974	318

NAME: Ginsenoside Re
PRECURSORMZ: 991.54831865183
PRECURSORTYPE: [M+FA-H]-
INSTRUMENTTYPE: LC-ESI-QTOF
SMILES: CC1OC(OC2C(O)C(O)C(CO)OC2OC2CC3(C)C(CC(O)C4C(CCC34C)C(C)(CCC=C(C)C)OC3OC(CO)C(O)C(O)C3O)C3(C)CCC(O)C(C)(C)C23)C(O)C(O)C1O
INCHIKEY: PWAOOJDMFUQOKB-UHFFFAOYNA-N
Ontology: Triterpene saponins
COLLISIONENERGY: 10
FORMULA: C48H82O18
RETENTIONTIME: 4.79045
IONMODE: Negative
Comment: registered in RIKEN PlaSMA
Num Peaks: 5
945.54126	193
946.54083	86
947.54919	17
947.59045	6
991.54645	1000

NAME: Ginsenoside Re
PRECURSORMZ: 945.54283934783
PRECURSORTYPE: [M-H]-
INSTRUMENTTYPE: LC-ESI-QTOF
SMILES: CC1OC(OC2C(O)C(O)C(CO)OC2OC2CC3(C)C(CC(O)C4C(CCC34C)C(C)(CCC=C(C)C)OC3OC(CO)C(O)C(O)C3O)C3(C)CCC(O)C(C)(C)C23)C(O)C(O)C1O
INCHIKEY: PWAOOJDMFUQOKB-UHFFFAOYNA-N
Ontology: Triterpene saponins
COLLISIONENERGY: 30
FORMULA: C48H82O18
RETENTIONTIME: 4.79045
IONMODE: Negative
Comment: registered in RIKEN PlaSMA
Num Peaks: 13
101.02591	125
103.03841	79
143.03702	94
161.03871	121
446.74481	83
637.43207	75
693.20135	75
784.50482	98
800.4762	72
800.67029	75
945.50677	75
945.55231	1000
945.61322	75

NAME: Ginsenoside Re
PRECURSORMZ: 991.54831865183
PRECURSORTYPE: [M+FA-H]-
INSTRUMENTTYPE: LC-ESI-QTOF
SMILES: CC1OC(OC2C(O)C(O)C(CO)OC2OC2CC3(C)C(CC(O)C4C(CCC34C)C(C)(CCC=C(C)C)OC3OC(CO)C(O)C(O)C3O)C3(C)CCC(O)C(C)(C)C23)C(O)C(O)C1O
INCHIKEY: PWAOOJDMFUQOKB-UHFFFAOYNA-N
Ontology: Triterpene saponins
COLLISIONENERGY: 30
FORMULA: C48H82O18
RETENTIONTIME: 4.79045
IONMODE: Negative
Comment: registered in RIKEN PlaSMA
Num Peaks: 11
101.02261	5
161.04333	6
637.4342	11
783.47931	11
799.48401	23
799.51086	7
945.54272	1000
946.54578	553
946.6189	7
947.54651	136
948.55145	24

NAME: Ginsenoside Re
PRECURSORMZ: 945.54283934783
PRECURSORTYPE: [M-H]-
INSTRUMENTTYPE: LC-ESI-QTOF
SMILES: CC1OC(OC2C(O)C(O)C(CO)OC2OC2CC3(C)C(CC(O)C4C(CCC34C)C(C)(CCC=C(C)C)OC3OC(CO)C(O)C(O)C3O)C3(C)CCC(O)C(C)(C)C23)C(O)C(O)C1O
INCHIKEY: PWAOOJDMFUQOKB-UHFFFAOYNA-N
Ontology: Triterpene saponins
COLLISIONENERGY: 50
FORMULA: C48H82O18
RETENTIONTIME: 4.79045
IONMODE: Negative
Comment: registered in RIKEN PlaSMA
Num Peaks: 14
71.01339	165
85.02445	202
86.0303	193
89.02017	505
89.02785	211
101.02647	202
113.02287	1000
119.03391	248
131.03302	339
143.03302	183
162.0477	450
163.05798	183
638.45465	165
785.49866	229

NAME: Ginsenoside Re
PRECURSORMZ: 991.54831865183
PRECURSORTYPE: [M+FA-H]-
INSTRUMENTTYPE: LC-ESI-QTOF
SMILES: CC1OC(OC2C(O)C(O)C(CO)OC2OC2CC3(C)C(CC(O)C4C(CCC34C)C(C)(CCC=C(C)C)OC3OC(CO)C(O)C(O)C3O)C3(C)CCC(O)C(C)(C)C23)C(O)C(O)C1O
INCHIKEY: PWAOOJDMFUQOKB-UHFFFAOYNA-N
Ontology: Triterpene saponins
COLLISIONENERGY: 50
FORMULA: C48H82O18
RETENTIONTIME: 4.79045
IONMODE: Negative
Comment: registered in RIKEN PlaSMA
Num Peaks: 113
59.0135	97
60.01571	10
71.01255	181
71.02008	9
72.87937	8
73.02826	95
83.01012	17
85.02698	122
86.02519	12
87.00517	20
87.04888	11
89.02367	559
95.0164	18
97.02096	9
97.02769	29
99.0076	28
99.04002	9
100.00912	8
101.02248	1000
101.88588	8
102.0252	26
103.03619	94
103.04207	42
103.05179	9
104.04093	17
113.02358	437
114.02579	18
115.03651	12
115.04504	11
117.01731	10
119.03376	430
120.03421	27
121.17995	9
121.78597	11
122.78774	8
124.09355	9
125.02437	26
126.02925	9
127.04197	16
129.02132	9
131.02792	21
131.03473	41
132.03088	9
134.64798	9
141.01903	9
143.03368	177
144.03662	9
145.04913	61
146.04478	9
149.04218	37
150.84134	9
159.02863	90
160.02785	21
161.02724	9
161.0446	636
162.04591	20
163.05939	95
179.05034	42
179.05727	121
205.06815	113
206.06958	8
297.90933	10
336.41055	10
353.95547	8
388.72803	11
391.28134	13
392.29068	8
393.06265	9
437.37558	12
438.04224	9
457.36243	9
458.77371	9
472.12375	10
475.21411	8
475.37967	514
476.38531	155
477.37302	23
477.39572	8
553.32562	8
554.33362	9
619.42151	163
620.44702	33
621.4007	28
622.41736	10
637.43201	385
638.40308	26
638.43707	88
639.46887	8
639.96295	10
646.51117	9
679.44537	9
765.4549	9
765.48169	39
765.51746	18
766.45203	18
766.47516	9
771.23474	9
781.44598	10
783.47784	167
783.52136	25
784.30768	13
784.49554	35
784.99792	10
785.20184	8
785.52728	10
786.50897	9
799.47479	8
799.49933	9
799.93805	8
800.49951	9
945.52704	61
945.56293	71
946.56018	17

NAME: Ginsenoside Re
PRECURSORMZ: 945.54283934783
PRECURSORTYPE: [M-H]-
INSTRUMENTTYPE: LC-ESI-QTOF
SMILES: CC1OC(OC2C(O)C(O)C(CO)OC2OC2CC3(C)C(CC(O)C4C(CCC34C)C(C)(CCC=C(C)C)OC3OC(CO)C(O)C(O)C3O)C3(C)CCC(O)C(C)(C)C23)C(O)C(O)C1O
INCHIKEY: PWAOOJDMFUQOKB-UHFFFAOYNA-N
Ontology: Triterpene saponins
COLLISIONENERGY: 10
FORMULA: C48H82O18
RETENTIONTIME: 4.79045
IONMODE: Negative
Comment: registered in RIKEN PlaSMA
Num Peaks: 3
205.08334	132
945.54663	1000
945.56891	609

NAME: Ginsenoside Re
PRECURSORMZ: 991.54831865183
PRECURSORTYPE: [M+FA-H]-
INSTRUMENTTYPE: LC-ESI-QTOF
SMILES: CC1OC(OC2C(O)C(O)C(CO)OC2OC2CC3(C)C(CC(O)C4C(CCC34C)C(C)(CCC=C(C)C)OC3OC(CO)C(O)C(O)C3O)C3(C)CCC(O)C(C)(C)C23)C(O)C(O)C1O
INCHIKEY: PWAOOJDMFUQOKB-UHFFFAOYNA-N
Ontology: Triterpene saponins
COLLISIONENERGY: 10
FORMULA: C48H82O18
RETENTIONTIME: 4.79045
IONMODE: Negative
Comment: registered in RIKEN PlaSMA
Num Peaks: 20
89.02298	10
101.02541	6
119.02982	10
161.0437	32
179.05238	9
205.07561	11
475.37558	13
476.3804	7
620.43311	6
637.43347	29
638.43536	16
765.48126	8
783.49567	15
799.46844	14
799.49213	6
945.54443	1000
946.5509	590
947.5545	138
948.55237	31
991.55023	437

NAME: Ginsenoside Re
PRECURSORMZ: 991.54831865183
PRECURSORTYPE: [M+FA-H]-
INSTRUMENTTYPE: LC-ESI-QTOF
SMILES: CC1OC(OC2C(O)C(O)C(CO)OC2OC2CC3(C)C(CC(O)C4C(CCC34C)C(C)(CCC=C(C)C)OC3OC(CO)C(O)C(O)C3O)C3(C)CCC(O)C(C)(C)C23)C(O)C(O)C1O
INCHIKEY: PWAOOJDMFUQOKB-UHFFFAOYNA-N
Ontology: Triterpene saponins
COLLISIONENERGY: 10
FORMULA: C48H82O18
RETENTIONTIME: 4.79045
IONMODE: Negative
Comment: registered in RIKEN PlaSMA
Num Peaks: 6
945.54413	211
946.54645	61
947.52319	6
947.54755	19
991.54865	1000
991.6181	6

NAME: Ginsenoside Re
PRECURSORMZ: 945.54283934783
PRECURSORTYPE: [M-H]-
INSTRUMENTTYPE: LC-ESI-QTOF
SMILES: CC1OC(OC2C(O)C(O)C(CO)OC2OC2CC3(C)C(CC(O)C4C(CCC34C)C(C)(CCC=C(C)C)OC3OC(CO)C(O)C(O)C3O)C3(C)CCC(O)C(C)(C)C23)C(O)C(O)C1O
INCHIKEY: PWAOOJDMFUQOKB-UHFFFAOYNA-N
Ontology: Triterpene saponins
COLLISIONENERGY: 30
FORMULA: C48H82O18
RETENTIONTIME: 4.79045
IONMODE: Negative
Comment: registered in RIKEN PlaSMA
Num Peaks: 7
101.01923	110
179.05969	116
475.3302	105
769.45569	116
784.49323	110
785.52502	99
945.52747	1000

NAME: Ginsenoside Re
PRECURSORMZ: 991.54831865183
PRECURSORTYPE: [M+FA-H]-
INSTRUMENTTYPE: LC-ESI-QTOF
SMILES: CC1OC(OC2C(O)C(O)C(CO)OC2OC2CC3(C)C(CC(O)C4C(CCC34C)C(C)(CCC=C(C)C)OC3OC(CO)C(O)C(O)C3O)C3(C)CCC(O)C(C)(C)C23)C(O)C(O)C1O
INCHIKEY: PWAOOJDMFUQOKB-UHFFFAOYNA-N
Ontology: Triterpene saponins
COLLISIONENERGY: 30
FORMULA: C48H82O18
RETENTIONTIME: 4.79045
IONMODE: Negative
Comment: registered in RIKEN PlaSMA
Num Peaks: 11
179.05484	5
637.43134	5
638.43597	7
783.48096	13
784.49347	7
799.48541	21
800.49988	5
945.54291	1000
946.54675	553
947.54626	162
948.55304	24

NAME: Ginsenoside Re
PRECURSORMZ: 945.54283934783
PRECURSORTYPE: [M-H]-
INSTRUMENTTYPE: LC-ESI-QTOF
SMILES: CC1OC(OC2C(O)C(O)C(CO)OC2OC2CC3(C)C(CC(O)C4C(CCC34C)C(C)(CCC=C(C)C)OC3OC(CO)C(O)C(O)C3O)C3(C)CCC(O)C(C)(C)C23)C(O)C(O)C1O
INCHIKEY: PWAOOJDMFUQOKB-UHFFFAOYNA-N
Ontology: Triterpene saponins
COLLISIONENERGY: 50
FORMULA: C48H82O18
RETENTIONTIME: 4.79045
IONMODE: Negative
Comment: registered in RIKEN PlaSMA
Num Peaks: 11
71.01451	397
85.02681	368
101.0191	1000
113.02468	691
119.03235	294
160.948	279
205.0817	368
475.35818	309
475.3898	397
476.39426	294
639.42505	324

NAME: Ginsenoside Re
PRECURSORMZ: 991.54831865183
PRECURSORTYPE: [M+FA-H]-
INSTRUMENTTYPE: LC-ESI-QTOF
SMILES: CC1OC(OC2C(O)C(O)C(CO)OC2OC2CC3(C)C(CC(O)C4C(CCC34C)C(C)(CCC=C(C)C)OC3OC(CO)C(O)C(O)C3O)C3(C)CCC(O)C(C)(C)C23)C(O)C(O)C1O
INCHIKEY: PWAOOJDMFUQOKB-UHFFFAOYNA-N
Ontology: Triterpene saponins
COLLISIONENERGY: 50
FORMULA: C48H82O18
RETENTIONTIME: 4.79045
IONMODE: Negative
Comment: registered in RIKEN PlaSMA
Num Peaks: 113
57.02961	10
59.01146	109
59.01695	27
60.01614	18
71.01234	210
73.02599	34
73.03025	32
74.03748	9
78.08881	10
85.02924	133
86.03356	10
87.00911	12
87.04278	23
89.02319	577
95.01648	21
95.03132	14
97.026	9
99.00721	18
99.0439	11
101.02294	1000
102.02543	34
102.21342	9
103.03986	216
103.78963	9
109.72311	9
112.00542	12
113.02306	476
114.03068	9
119.03445	527
120.03647	51
125.02296	54
127.03754	21
129.26338	9
131.03333	130
131.04527	9
132.0453	10
143.03456	270
144.03725	10
145.05443	10
149.04395	56
159.03	123
159.04056	16
160.02936	9
161.02075	10
161.0448	607
162.04599	56
163.05885	93
179.05293	120
179.06004	42
181.06667	9
205.07008	49
205.0815	13
262.05093	11
306.14145	10
344.45114	9
351.8194	9
391.28467	24
391.32047	17
404.83905	9
447.95163	10
448.36307	11
451.75772	9
457.37708	9
474.45865	12
475.3288	10
475.37482	371
475.38788	165
476.37784	115
476.39618	69
477.37094	20
477.39328	46
477.76367	11
479.3754	9
529.39258	12
553.32483	12
553.71246	10
554.33917	10
589.4187	9
619.39331	32
619.41962	93
620.3963	30
620.42712	107
620.45911	9
621.4256	34
637.42621	378
638.37329	21
638.41632	31
638.44495	152
639.4455	29
640.42914	16
641.78711	15
765.47375	56
766.46918	21
781.45581	9
783.42352	9
783.4848	106
783.55139	10
784.47607	61
784.51337	9
785.46588	9
785.5058	21
786.48346	13
799.46954	9
799.5025	42
800.49854	10
845.30365	9
945.50903	11
945.55804	61
945.59393	10
946.53705	34
946.58643	10
947.5285	12
947.59186	10

NAME: Ginsenoside Rf
PRECURSORMZ: 799.48493054783
PRECURSORTYPE: [M-H]-
INSTRUMENTTYPE: LC-ESI-QTOF
SMILES: CC(C)=CCCC(C)(O)C1CCC2(C)C1C(O)CC1C3(C)CCC(O)C(C)(C)C3C(CC21C)OC1OC(CO)C(O)C(O)C1OC1OC(CO)C(O)C(O)C1O
INCHIKEY: UZIOUZHBUYLDHW-UHFFFAOYNA-N
Ontology: Triterpenoids
COLLISIONENERGY: 10
FORMULA: C42H72O14
RETENTIONTIME: 5.936983
IONMODE: Negative
Comment: registered in RIKEN PlaSMA
Num Peaks: 25
89.02026	12
89.02893	12
90.02457	21
100.45206	13
101.02596	13
113.02243	24
119.03279	25
143.0275	16
159.02859	11
161.0432	43
179.05365	11
211.15683	17
221.06839	12
245.0594	12
462.87885	17
475.36456	12
475.38455	26
475.4028	12
476.39017	11
637.43024	28
638.44592	23
639.41974	19
639.45251	11
670.94202	11
799.48291	1000

NAME: Ginsenoside Rf
PRECURSORMZ: 845.49040985183
PRECURSORTYPE: [M+FA-H]-
INSTRUMENTTYPE: LC-ESI-QTOF
SMILES: CC(C)=CCCC(C)(O)C1CCC2(C)C1C(O)CC1C3(C)CCC(O)C(C)(C)C3C(CC21C)OC1OC(CO)C(O)C(O)C1OC1OC(CO)C(O)C(O)C1O
INCHIKEY: UZIOUZHBUYLDHW-UHFFFAOYNA-N
Ontology: Triterpenoids
COLLISIONENERGY: 10
FORMULA: C42H72O14
RETENTIONTIME: 5.936983
IONMODE: Negative
Comment: registered in RIKEN PlaSMA
Num Peaks: 18
89.02264	11
101.02155	14
113.02245	11
119.03344	6
161.03682	6
161.04343	22
179.05594	10
475.37683	45
476.38397	7
637.41382	15
637.43225	41
637.46881	5
638.43359	17
799.48065	1000
800.48523	464
801.48438	99
802.49469	13
845.48468	170

NAME: Ginsenoside Rf
PRECURSORMZ: 845.49040985183
PRECURSORTYPE: [M+FA-H]-
INSTRUMENTTYPE: LC-ESI-QTOF
SMILES: CC(C)=CCCC(C)(O)C1CCC2(C)C1C(O)CC1C3(C)CCC(O)C(C)(C)C3C(CC21C)OC1OC(CO)C(O)C(O)C1OC1OC(CO)C(O)C(O)C1O
INCHIKEY: UZIOUZHBUYLDHW-UHFFFAOYNA-N
Ontology: Triterpenoids
COLLISIONENERGY: 10
FORMULA: C42H72O14
RETENTIONTIME: 5.936983
IONMODE: Negative
Comment: registered in RIKEN PlaSMA
Num Peaks: 5
799.48462	919
800.48926	430
801.49274	103
802.49042	15
845.49097	1000

NAME: Ginsenoside Rf
PRECURSORMZ: 799.48493054783
PRECURSORTYPE: [M-H]-
INSTRUMENTTYPE: LC-ESI-QTOF
SMILES: CC(C)=CCCC(C)(O)C1CCC2(C)C1C(O)CC1C3(C)CCC(O)C(C)(C)C3C(CC21C)OC1OC(CO)C(O)C(O)C1OC1OC(CO)C(O)C(O)C1O
INCHIKEY: UZIOUZHBUYLDHW-UHFFFAOYNA-N
Ontology: Triterpenoids
COLLISIONENERGY: 30
FORMULA: C42H72O14
RETENTIONTIME: 5.936983
IONMODE: Negative
Comment: registered in RIKEN PlaSMA
Num Peaks: 35
59.01205	18
71.01305	53
73.02916	41
89.02135	17
100.04451	18
101.02259	77
101.02699	50
102.02686	41
113.01839	17
113.02599	45
114.02772	21
119.03408	26
131.03139	18
142.14603	17
143.03072	103
143.95575	18
159.03487	17
161.04747	144
179.04767	71
221.0632	17
391.26755	20
416.38858	31
429.85791	17
475.3743	115
475.42984	17
476.3544	37
476.38361	17
620.34772	18
637.43073	136
637.84509	17
638.42346	18
638.47076	20
639.42902	17
752.84772	18
799.48364	1000

NAME: Ginsenoside Rf
PRECURSORMZ: 845.49040985183
PRECURSORTYPE: [M+FA-H]-
INSTRUMENTTYPE: LC-ESI-QTOF
SMILES: CC(C)=CCCC(C)(O)C1CCC2(C)C1C(O)CC1C3(C)CCC(O)C(C)(C)C3C(CC21C)OC1OC(CO)C(O)C(O)C1OC1OC(CO)C(O)C(O)C1O
INCHIKEY: UZIOUZHBUYLDHW-UHFFFAOYNA-N
Ontology: Triterpenoids
COLLISIONENERGY: 30
FORMULA: C42H72O14
RETENTIONTIME: 5.936983
IONMODE: Negative
Comment: registered in RIKEN PlaSMA
Num Peaks: 18
71.01148	7
101.02036	11
101.02831	8
113.02249	9
143.035	8
161.04674	18
179.0546	13
475.37628	19
637.4093	12
637.43579	66
638.4209	9
638.44019	15
799.48413	1000
799.55261	8
800.48895	533
801.48694	88
802.48071	11
802.51038	5

NAME: Ginsenoside Rf
PRECURSORMZ: 799.48493054783
PRECURSORTYPE: [M-H]-
INSTRUMENTTYPE: LC-ESI-QTOF
SMILES: CC(C)=CCCC(C)(O)C1CCC2(C)C1C(O)CC1C3(C)CCC(O)C(C)(C)C3C(CC21C)OC1OC(CO)C(O)C(O)C1OC1OC(CO)C(O)C(O)C1O
INCHIKEY: UZIOUZHBUYLDHW-UHFFFAOYNA-N
Ontology: Triterpenoids
COLLISIONENERGY: 50
FORMULA: C42H72O14
RETENTIONTIME: 5.936983
IONMODE: Negative
Comment: registered in RIKEN PlaSMA
Num Peaks: 26
71.01215	207
83.00539	59
85.02693	164
86.03526	92
89.01904	59
89.02588	59
97.02486	66
101.02195	1000
111.0061	59
113.01421	69
113.02451	148
119.0387	131
121.03843	69
131.03816	66
132.80971	69
143.03656	66
159.02496	66
161.04744	220
315.22296	82
389.27292	59
457.36777	161
457.37863	85
475.37106	354
475.39572	62
476.38812	66
476.41443	62

NAME: Ginsenoside Rf
PRECURSORMZ: 845.49040985183
PRECURSORTYPE: [M+FA-H]-
INSTRUMENTTYPE: LC-ESI-QTOF
SMILES: CC(C)=CCCC(C)(O)C1CCC2(C)C1C(O)CC1C3(C)CCC(O)C(C)(C)C3C(CC21C)OC1OC(CO)C(O)C(O)C1OC1OC(CO)C(O)C(O)C1O
INCHIKEY: UZIOUZHBUYLDHW-UHFFFAOYNA-N
Ontology: Triterpenoids
COLLISIONENERGY: 50
FORMULA: C42H72O14
RETENTIONTIME: 5.936983
IONMODE: Negative
Comment: registered in RIKEN PlaSMA
Num Peaks: 97
57.03112	10
59.01117	34
59.01604	10
71.01263	237
73.02795	152
74.03042	12
75.00679	9
81.03501	10
83.01112	10
85.02986	65
86.03403	34
87.00531	18
88.01172	10
89.02303	240
95.01024	9
96.0157	9
97.02745	19
99.00808	35
101.0231	1000
102.02175	31
102.02801	28
103.02852	11
105.20571	9
111.00666	9
112.01278	15
113.02231	426
119.03302	164
120.03448	13
120.04159	10
121.03463	10
125.02406	19
125.03079	22
125.09353	23
129.01932	34
131.02988	29
131.03595	34
143.03546	57
144.03722	9
147.47527	10
149.0443	30
159.02609	58
159.03381	11
161.04552	307
162.04733	20
163.05029	10
179.05064	24
179.05952	14
181.05095	11
199.097	9
221.06551	58
222.06546	11
259.28659	9
390.3093	9
391.2764	86
391.29224	44
391.31641	20
391.3331	13
392.28574	22
392.29587	9
437.34302	20
438.3295	10
439.3707	11
445.29544	10
457.3573	19
457.38818	20
458.35434	10
458.37531	9
459.30688	10
459.34521	18
460.34888	9
475.37704	874
475.4978	11
476.37054	37
476.38696	131
477.3688	18
477.39877	10
511.33411	9
529.3858	9
545.38898	10
553.32935	11
553.35065	10
555.33551	10
559.38666	9
571.42908	9
619.42188	20
619.43762	29
619.71448	10
620.44574	17
637.41052	33
637.43579	107
637.46722	23
638.44073	42
644.99365	10
799.49304	9
800.47388	11
801.47882	11
801.50775	12

NAME: Ginsenoside Rf
PRECURSORMZ: 799.48493054783
PRECURSORTYPE: [M-H]-
INSTRUMENTTYPE: LC-ESI-QTOF
SMILES: CC(C)=CCCC(C)(O)C1CCC2(C)C1C(O)CC1C3(C)CCC(O)C(C)(C)C3C(CC21C)OC1OC(CO)C(O)C(O)C1OC1OC(CO)C(O)C(O)C1O
INCHIKEY: UZIOUZHBUYLDHW-UHFFFAOYNA-N
Ontology: Triterpenoids
COLLISIONENERGY: 10
FORMULA: C42H72O14
RETENTIONTIME: 5.936983
IONMODE: Negative
Comment: registered in RIKEN PlaSMA
Num Peaks: 25
89.02435	12
101.02055	46
107.02961	11
113.01942	13
113.02562	27
131.04016	22
149.03891	25
161.04683	34
179.05038	15
179.05675	13
299.42285	11
395.42899	12
400.44122	14
475.35962	23
475.3768	44
476.37833	23
477.39056	15
565.97583	16
601.39313	23
637.21838	11
637.41626	13
638.45178	40
639.43372	11
799.48328	1000
799.56635	11

NAME: Ginsenoside Rf
PRECURSORMZ: 845.49040985183
PRECURSORTYPE: [M+FA-H]-
INSTRUMENTTYPE: LC-ESI-QTOF
SMILES: CC(C)=CCCC(C)(O)C1CCC2(C)C1C(O)CC1C3(C)CCC(O)C(C)(C)C3C(CC21C)OC1OC(CO)C(O)C(O)C1OC1OC(CO)C(O)C(O)C1O
INCHIKEY: UZIOUZHBUYLDHW-UHFFFAOYNA-N
Ontology: Triterpenoids
COLLISIONENERGY: 10
FORMULA: C42H72O14
RETENTIONTIME: 5.936983
IONMODE: Negative
Comment: registered in RIKEN PlaSMA
Num Peaks: 16
101.02333	11
113.02331	11
161.04425	41
179.05617	8
221.06798	6
475.37891	35
476.38113	19
637.42993	43
638.43408	14
799.48651	1000
800.48889	462
801.47235	32
801.49365	84
802.47095	6
802.48981	13
845.48468	168

NAME: Ginsenoside Rf
PRECURSORMZ: 799.48493054783
PRECURSORTYPE: [M-H]-
INSTRUMENTTYPE: LC-ESI-QTOF
SMILES: CC(C)=CCCC(C)(O)C1CCC2(C)C1C(O)CC1C3(C)CCC(O)C(C)(C)C3C(CC21C)OC1OC(CO)C(O)C(O)C1OC1OC(CO)C(O)C(O)C1O
INCHIKEY: UZIOUZHBUYLDHW-UHFFFAOYNA-N
Ontology: Triterpenoids
COLLISIONENERGY: 10
FORMULA: C42H72O14
RETENTIONTIME: 5.936983
IONMODE: Negative
Comment: registered in RIKEN PlaSMA
Num Peaks: 8
235.27434	7
397.41104	9
469.98267	11
503.95706	9
544.51929	9
564.45087	9
677.80792	7
799.48822	1000

NAME: Ginsenoside Rf
PRECURSORMZ: 845.49040985183
PRECURSORTYPE: [M+FA-H]-
INSTRUMENTTYPE: LC-ESI-QTOF
SMILES: CC(C)=CCCC(C)(O)C1CCC2(C)C1C(O)CC1C3(C)CCC(O)C(C)(C)C3C(CC21C)OC1OC(CO)C(O)C(O)C1OC1OC(CO)C(O)C(O)C1O
INCHIKEY: UZIOUZHBUYLDHW-UHFFFAOYNA-N
Ontology: Triterpenoids
COLLISIONENERGY: 10
FORMULA: C42H72O14
RETENTIONTIME: 5.936983
IONMODE: Negative
Comment: registered in RIKEN PlaSMA
Num Peaks: 6
799.48407	1000
800.49042	359
801.48877	60
802.47034	5
802.51392	7
845.49054	897

NAME: Ginsenoside Rf
PRECURSORMZ: 799.48493054783
PRECURSORTYPE: [M-H]-
INSTRUMENTTYPE: LC-ESI-QTOF
SMILES: CC(C)=CCCC(C)(O)C1CCC2(C)C1C(O)CC1C3(C)CCC(O)C(C)(C)C3C(CC21C)OC1OC(CO)C(O)C(O)C1OC1OC(CO)C(O)C(O)C1O
INCHIKEY: UZIOUZHBUYLDHW-UHFFFAOYNA-N
Ontology: Triterpenoids
COLLISIONENERGY: 30
FORMULA: C42H72O14
RETENTIONTIME: 5.936983
IONMODE: Negative
Comment: registered in RIKEN PlaSMA
Num Peaks: 27
71.0098	16
75.00027	15
89.02177	50
97.02993	20
99.00392	15
101.02341	104
101.03053	17
113.02342	63
119.02767	17
143.03407	31
159.02525	17
161.04515	143
162.04379	20
179.0482	17
179.05669	44
180.06522	15
221.07339	17
326.42468	16
398.21613	20
475.37448	109
529.38184	18
619.41351	19
637.41394	33
637.45947	15
638.4353	30
638.45795	50
799.48743	1000

NAME: Ginsenoside Rf
PRECURSORMZ: 845.49040985183
PRECURSORTYPE: [M+FA-H]-
INSTRUMENTTYPE: LC-ESI-QTOF
SMILES: CC(C)=CCCC(C)(O)C1CCC2(C)C1C(O)CC1C3(C)CCC(O)C(C)(C)C3C(CC21C)OC1OC(CO)C(O)C(O)C1OC1OC(CO)C(O)C(O)C1O
INCHIKEY: UZIOUZHBUYLDHW-UHFFFAOYNA-N
Ontology: Triterpenoids
COLLISIONENERGY: 30
FORMULA: C42H72O14
RETENTIONTIME: 5.936983
IONMODE: Negative
Comment: registered in RIKEN PlaSMA
Num Peaks: 17
101.0235	14
113.02016	9
113.02598	5
119.0327	6
143.03265	9
159.03259	9
161.04512	32
179.05365	9
221.06676	8
475.37445	7
475.38959	8
637.43268	83
638.42645	17
799.48553	1000
800.48895	489
801.49243	118
802.49011	15

NAME: Ginsenoside Rf
PRECURSORMZ: 799.48493054783
PRECURSORTYPE: [M-H]-
INSTRUMENTTYPE: LC-ESI-QTOF
SMILES: CC(C)=CCCC(C)(O)C1CCC2(C)C1C(O)CC1C3(C)CCC(O)C(C)(C)C3C(CC21C)OC1OC(CO)C(O)C(O)C1OC1OC(CO)C(O)C(O)C1O
INCHIKEY: UZIOUZHBUYLDHW-UHFFFAOYNA-N
Ontology: Triterpenoids
COLLISIONENERGY: 50
FORMULA: C42H72O14
RETENTIONTIME: 5.936983
IONMODE: Negative
Comment: registered in RIKEN PlaSMA
Num Peaks: 35
59.01163	73
71.01367	363
73.02984	117
83.00957	52
85.03008	166
87.00418	47
89.0172	52
89.02486	192
90.03015	57
95.01398	65
101.02207	1000
102.02852	47
113.02216	440
114.0266	101
114.03335	70
119.03114	111
119.0452	47
125.02327	47
131.02861	47
141.0127	67
143.03099	47
149.04587	47
159.03061	93
161.04233	49
186.70033	49
338.68271	47
391.28311	98
392.28772	47
445.29871	47
455.34546	47
456.34619	62
475.37869	443
476.37851	75
477.39096	57
555.90466	54

NAME: Ginsenoside Rf
PRECURSORMZ: 799.48493054783
PRECURSORTYPE: [M-H]-
INSTRUMENTTYPE: LC-ESI-QTOF
SMILES: CC(C)=CCCC(C)(O)C1CCC2(C)C1C(O)CC1C3(C)CCC(O)C(C)(C)C3C(CC21C)OC1OC(CO)C(O)C(O)C1OC1OC(CO)C(O)C(O)C1O
INCHIKEY: UZIOUZHBUYLDHW-UHFFFAOYNA-N
Ontology: Triterpenoids
COLLISIONENERGY: 10
FORMULA: C42H72O14
RETENTIONTIME: 5.936983
IONMODE: Negative
Comment: registered in RIKEN PlaSMA
Num Peaks: 21
71.01447	10
73.027	12
89.0286	10
101.01965	11
113.01938	11
113.03123	13
114.02819	11
119.03415	37
129.01564	10
143.03012	10
161.0442	48
221.06213	10
373.26279	15
391.29208	10
475.37238	51
476.37091	15
476.39078	11
620.40863	11
637.45697	11
781.87805	15
799.48602	1000

NAME: Ginsenoside Rf
PRECURSORMZ: 845.49040985183
PRECURSORTYPE: [M+FA-H]-
INSTRUMENTTYPE: LC-ESI-QTOF
SMILES: CC(C)=CCCC(C)(O)C1CCC2(C)C1C(O)CC1C3(C)CCC(O)C(C)(C)C3C(CC21C)OC1OC(CO)C(O)C(O)C1OC1OC(CO)C(O)C(O)C1O
INCHIKEY: UZIOUZHBUYLDHW-UHFFFAOYNA-N
Ontology: Triterpenoids
COLLISIONENERGY: 10
FORMULA: C42H72O14
RETENTIONTIME: 5.936983
IONMODE: Negative
Comment: registered in RIKEN PlaSMA
Num Peaks: 15
101.02255	9
113.02346	7
119.03221	9
143.03473	9
161.04445	24
475.36481	6
475.38553	21
476.38931	13
637.42841	34
638.43811	12
799.48712	1000
800.49115	451
801.49286	118
802.47626	13
845.49353	194

NAME: Ginsenoside Rf
PRECURSORMZ: 845.49040985183
PRECURSORTYPE: [M+FA-H]-
INSTRUMENTTYPE: LC-ESI-QTOF
SMILES: CC(C)=CCCC(C)(O)C1CCC2(C)C1C(O)CC1C3(C)CCC(O)C(C)(C)C3C(CC21C)OC1OC(CO)C(O)C(O)C1OC1OC(CO)C(O)C(O)C1O
INCHIKEY: UZIOUZHBUYLDHW-UHFFFAOYNA-N
Ontology: Triterpenoids
COLLISIONENERGY: 10
FORMULA: C42H72O14
RETENTIONTIME: 5.936983
IONMODE: Negative
Comment: registered in RIKEN PlaSMA
Num Peaks: 6
799.48572	1000
800.48834	393
801.48901	52
801.52441	9
802.50354	12
845.49072	850

NAME: Ginsenoside Rf
PRECURSORMZ: 799.48493054783
PRECURSORTYPE: [M-H]-
INSTRUMENTTYPE: LC-ESI-QTOF
SMILES: CC(C)=CCCC(C)(O)C1CCC2(C)C1C(O)CC1C3(C)CCC(O)C(C)(C)C3C(CC21C)OC1OC(CO)C(O)C(O)C1OC1OC(CO)C(O)C(O)C1O
INCHIKEY: UZIOUZHBUYLDHW-UHFFFAOYNA-N
Ontology: Triterpenoids
COLLISIONENERGY: 30
FORMULA: C42H72O14
RETENTIONTIME: 5.936983
IONMODE: Negative
Comment: registered in RIKEN PlaSMA
Num Peaks: 39
59.00921	15
71.01635	34
81.03263	20
89.02266	51
101.02116	46
101.0249	110
113.0222	110
119.02759	34
119.03423	54
125.02265	17
131.03867	15
131.04457	15
137.47551	16
141.01825	21
143.03354	84
149.04094	15
159.02545	15
160.037	18
161.04739	146
222.06964	18
321.72986	18
391.2836	34
475.35303	23
475.38351	126
475.40109	31
476.38318	16
477.38638	15
597.47296	18
619.41907	20
637.40338	51
637.44788	108
638.39539	16
638.42053	65
638.48236	27
639.41534	16
639.43414	66
687.79944	30
712.78284	15
799.48187	1000

NAME: Ginsenoside Rf
PRECURSORMZ: 845.49040985183
PRECURSORTYPE: [M+FA-H]-
INSTRUMENTTYPE: LC-ESI-QTOF
SMILES: CC(C)=CCCC(C)(O)C1CCC2(C)C1C(O)CC1C3(C)CCC(O)C(C)(C)C3C(CC21C)OC1OC(CO)C(O)C(O)C1OC1OC(CO)C(O)C(O)C1O
INCHIKEY: UZIOUZHBUYLDHW-UHFFFAOYNA-N
Ontology: Triterpenoids
COLLISIONENERGY: 30
FORMULA: C42H72O14
RETENTIONTIME: 5.936983
IONMODE: Negative
Comment: registered in RIKEN PlaSMA
Num Peaks: 17
89.02404	9
101.02495	9
119.03532	6
143.03601	10
161.04549	58
179.0549	13
475.37408	22
476.37524	8
637.42505	47
637.44574	52
638.43542	22
639.44586	13
799.48419	1000
800.48883	499
801.49121	115
802.49316	20
802.53082	5

NAME: Ginsenoside Rf
PRECURSORMZ: 799.48493054783
PRECURSORTYPE: [M-H]-
INSTRUMENTTYPE: LC-ESI-QTOF
SMILES: CC(C)=CCCC(C)(O)C1CCC2(C)C1C(O)CC1C3(C)CCC(O)C(C)(C)C3C(CC21C)OC1OC(CO)C(O)C(O)C1OC1OC(CO)C(O)C(O)C1O
INCHIKEY: UZIOUZHBUYLDHW-UHFFFAOYNA-N
Ontology: Triterpenoids
COLLISIONENERGY: 50
FORMULA: C42H72O14
RETENTIONTIME: 5.936983
IONMODE: Negative
Comment: registered in RIKEN PlaSMA
Num Peaks: 35
59.01102	165
73.02786	165
85.03077	82
89.02007	226
101.01676	169
101.02232	700
102.02732	189
103.02352	91
111.00669	82
113.02272	613
119.03253	160
119.03621	259
125.02	74
125.02728	82
127.00759	107
131.03452	82
143.03902	91
159.0287	78
161.04721	82
329.25562	74
350.27008	74
373.28036	107
391.27548	436
391.29303	337
391.314	82
457.37457	78
475.34317	74
475.38455	1000
476.36954	78
476.40402	74
477.38187	74
554.33014	74
561.14209	82
637.42786	173
637.44971	91

NAME: Ginsenoside Rf
PRECURSORMZ: 845.49040985183
PRECURSORTYPE: [M+FA-H]-
INSTRUMENTTYPE: LC-ESI-QTOF
SMILES: CC(C)=CCCC(C)(O)C1CCC2(C)C1C(O)CC1C3(C)CCC(O)C(C)(C)C3C(CC21C)OC1OC(CO)C(O)C(O)C1OC1OC(CO)C(O)C(O)C1O
INCHIKEY: UZIOUZHBUYLDHW-UHFFFAOYNA-N
Ontology: Triterpenoids
COLLISIONENERGY: 50
FORMULA: C42H72O14
RETENTIONTIME: 5.936983
IONMODE: Negative
Comment: registered in RIKEN PlaSMA
Num Peaks: 102
53.22026	11
53.29873	31
59.01216	72
67.23529	12
71.01273	231
72.02107	20
73.02629	52
75.00719	15
82.03497	12
83.01174	29
85.02396	50
85.03003	113
86.02921	12
87.04263	12
89.02287	360
89.0332	31
90.02724	14
95.0126	42
96.01616	11
97.02274	12
97.03341	11
99.00106	11
99.00861	49
101.02326	989
101.04598	11
102.02293	12
102.02872	33
107.01733	15
113.02342	482
114.02349	32
115.03748	32
116.92554	14
117.01513	15
119.02346	12
119.0332	252
119.04407	13
121.09688	11
125.02242	36
125.0932	11
126.02	13
129.01611	30
130.01932	11
131.03409	70
143.03297	106
143.04349	38
144.03281	14
149.04483	53
159.02878	97
161.03708	60
161.04663	254
162.04463	12
163.93764	18
177.62468	12
179.05847	13
180.05913	21
181.06653	11
221.06638	132
222.06776	14
222.07678	12
258.85117	11
268.8349	12
330.25314	12
359.26617	16
391.28516	145
391.3215	13
401.30774	14
417.08115	11
437.33603	12
441.35745	13
455.34256	11
457.35849	25
457.37488	12
458.78284	12
459.34354	29
459.36563	11
475.37897	1000
476.38086	321
477.37003	11
477.39145	45
517.37836	12
517.40167	12
517.41705	12
518.38342	16
530.40729	12
547.3678	12
547.40472	12
553.34003	44
554.31458	12
554.35577	12
575.36658	15
578.40173	11
620.42145	11
637.42059	85
637.44702	83
638.4306	48
638.44958	23
799.47815	174
800.47028	37
800.49707	50
801.49963	25
835.47418	12
845.47339	113

NAME: Ginsenoside Rg2
PRECURSORMZ: 783.49001594783
PRECURSORTYPE: [M-H]-
INSTRUMENTTYPE: LC-ESI-QTOF
SMILES: CC1OC(OC2C(O)C(O)C(CO)OC2OC2CC3(C)C(CC(O)C4C(CCC34C)C(C)(O)CCC=C(C)C)C3(C)CCC(O)C(C)(C)C23)C(O)C(O)C1O
INCHIKEY: AGBCLJAHARWNLA-UHFFFAOYNA-N
Ontology: Triterpene saponins
COLLISIONENERGY: 10
FORMULA: C42H72O13
RETENTIONTIME: 6.2516
IONMODE: Negative
Comment: registered in RIKEN PlaSMA
Num Peaks: 6
103.04034	54
161.05528	49
517.39325	54
637.43793	73
783.45551	127
783.48718	1000

NAME: Ginsenoside Rg2
PRECURSORMZ: 829.49549525183
PRECURSORTYPE: [M+FA-H]-
INSTRUMENTTYPE: LC-ESI-QTOF
SMILES: CC1OC(OC2C(O)C(O)C(CO)OC2OC2CC3(C)C(CC(O)C4C(CCC34C)C(C)(O)CCC=C(C)C)C3(C)CCC(O)C(C)(C)C23)C(O)C(O)C1O
INCHIKEY: AGBCLJAHARWNLA-UHFFFAOYNA-N
Ontology: Triterpene saponins
COLLISIONENERGY: 10
FORMULA: C42H72O13
RETENTIONTIME: 6.2516
IONMODE: Negative
Comment: registered in RIKEN PlaSMA
Num Peaks: 19
71.01236	6
89.02274	9
101.02161	21
103.03906	9
113.02329	11
161.04391	27
163.0587	21
205.06798	12
475.37601	76
476.38373	9
619.41852	14
637.43097	50
638.43054	15
639.422	6
783.48975	1000
784.49213	464
785.49597	114
786.48956	9
829.4967	434

NAME: Ginsenoside Rg2
PRECURSORMZ: 783.49001594783
PRECURSORTYPE: [M-H]-
INSTRUMENTTYPE: LC-ESI-QTOF
SMILES: CC1OC(OC2C(O)C(O)C(CO)OC2OC2CC3(C)C(CC(O)C4C(CCC34C)C(C)(O)CCC=C(C)C)C3(C)CCC(O)C(C)(C)C23)C(O)C(O)C1O
INCHIKEY: AGBCLJAHARWNLA-UHFFFAOYNA-N
Ontology: Triterpene saponins
COLLISIONENERGY: 10
FORMULA: C42H72O13
RETENTIONTIME: 6.2516
IONMODE: Negative
Comment: registered in RIKEN PlaSMA
Num Peaks: 4
783.45129	88
783.48779	1000
783.51569	287
783.55743	50

NAME: Ginsenoside Rg2
PRECURSORMZ: 829.49549525183
PRECURSORTYPE: [M+FA-H]-
INSTRUMENTTYPE: LC-ESI-QTOF
SMILES: CC1OC(OC2C(O)C(O)C(CO)OC2OC2CC3(C)C(CC(O)C4C(CCC34C)C(C)(O)CCC=C(C)C)C3(C)CCC(O)C(C)(C)C23)C(O)C(O)C1O
INCHIKEY: AGBCLJAHARWNLA-UHFFFAOYNA-N
Ontology: Triterpene saponins
COLLISIONENERGY: 10
FORMULA: C42H72O13
RETENTIONTIME: 6.2516
IONMODE: Negative
Comment: registered in RIKEN PlaSMA
Num Peaks: 5
783.49017	310
784.49335	108
785.46722	7
785.49799	17
829.49371	1000

NAME: Ginsenoside Rg2
PRECURSORMZ: 783.49001594783
PRECURSORTYPE: [M-H]-
INSTRUMENTTYPE: LC-ESI-QTOF
SMILES: CC1OC(OC2C(O)C(O)C(CO)OC2OC2CC3(C)C(CC(O)C4C(CCC34C)C(C)(O)CCC=C(C)C)C3(C)CCC(O)C(C)(C)C23)C(O)C(O)C1O
INCHIKEY: AGBCLJAHARWNLA-UHFFFAOYNA-N
Ontology: Triterpene saponins
COLLISIONENERGY: 30
FORMULA: C42H72O13
RETENTIONTIME: 6.2516
IONMODE: Negative
Comment: registered in RIKEN PlaSMA
Num Peaks: 23
73.02774	112
89.02203	218
89.0255	102
101.01979	198
113.02025	193
113.02956	91
143.03506	96
146.05429	112
161.05089	208
163.0601	102
475.36569	183
475.39914	132
476.37122	244
477.39008	203
619.4245	117
637.40454	218
637.42847	203
637.4527	147
638.39935	107
638.42529	117
739.42822	102
783.4903	1000
783.50909	315

NAME: Ginsenoside Rg2
PRECURSORMZ: 829.49549525183
PRECURSORTYPE: [M+FA-H]-
INSTRUMENTTYPE: LC-ESI-QTOF
SMILES: CC1OC(OC2C(O)C(O)C(CO)OC2OC2CC3(C)C(CC(O)C4C(CCC34C)C(C)(O)CCC=C(C)C)C3(C)CCC(O)C(C)(C)C23)C(O)C(O)C1O
INCHIKEY: AGBCLJAHARWNLA-UHFFFAOYNA-N
Ontology: Triterpene saponins
COLLISIONENERGY: 30
FORMULA: C42H72O13
RETENTIONTIME: 6.2516
IONMODE: Negative
Comment: registered in RIKEN PlaSMA
Num Peaks: 22
89.02223	7
101.02303	10
103.03681	6
113.02418	13
119.03286	8
143.03459	7
161.04425	28
163.05867	13
205.06963	7
475.38004	17
476.38452	6
619.41193	9
637.43115	117
638.42426	17
638.44421	22
639.4444	8
783.48901	1000
783.56073	7
784.49255	449
785.49524	121
786.47632	8
786.49921	12

NAME: Ginsenoside Rg2
PRECURSORMZ: 783.49001594783
PRECURSORTYPE: [M-H]-
INSTRUMENTTYPE: LC-ESI-QTOF
SMILES: CC1OC(OC2C(O)C(O)C(CO)OC2OC2CC3(C)C(CC(O)C4C(CCC34C)C(C)(O)CCC=C(C)C)C3(C)CCC(O)C(C)(C)C23)C(O)C(O)C1O
INCHIKEY: AGBCLJAHARWNLA-UHFFFAOYNA-N
Ontology: Triterpene saponins
COLLISIONENERGY: 50
FORMULA: C42H72O13
RETENTIONTIME: 6.2516
IONMODE: Negative
Comment: registered in RIKEN PlaSMA
Num Peaks: 20
57.32555	188
84.01444	354
85.02487	219
101.02458	1000
102.02781	281
103.04044	438
113.02412	656
131.03607	188
145.04544	219
161.04738	208
349.27664	198
371.24518	188
391.2894	188
403.28375	208
475.36322	208
475.3847	188
476.36414	188
476.3959	740
619.45044	198
621.43872	219

NAME: Ginsenoside Rg2
PRECURSORMZ: 829.49549525183
PRECURSORTYPE: [M+FA-H]-
INSTRUMENTTYPE: LC-ESI-QTOF
SMILES: CC1OC(OC2C(O)C(O)C(CO)OC2OC2CC3(C)C(CC(O)C4C(CCC34C)C(C)(O)CCC=C(C)C)C3(C)CCC(O)C(C)(C)C23)C(O)C(O)C1O
INCHIKEY: AGBCLJAHARWNLA-UHFFFAOYNA-N
Ontology: Triterpene saponins
COLLISIONENERGY: 50
FORMULA: C42H72O13
RETENTIONTIME: 6.2516
IONMODE: Negative
Comment: registered in RIKEN PlaSMA
Num Peaks: 70
59.0131	85
71.01239	80
72.01816	6
73.02831	56
83.01379	14
83.26836	5
85.02694	100
87.04185	9
89.02325	133
95.01154	15
97.02562	15
99.00683	26
101.02238	593
102.02579	25
103.03918	91
107.90757	5
111.00957	9
113.02345	331
114.02802	13
115.03185	10
115.03947	52
119.03638	49
125.02393	25
127.03804	9
129.01709	14
131.03009	36
131.0385	19
132.03987	9
137.01758	5
143.034	174
144.03612	18
145.04976	19
158.50694	6
159.02115	15
159.03105	27
161.04405	122
162.05437	18
163.04979	7
163.05695	18
163.06694	14
205.07039	48
234.95586	6
331.26614	5
391.28574	96
391.31668	9
392.29388	14
398.36115	7
457.35092	13
457.36746	29
458.36853	5
459.34314	10
465.71097	6
475.37781	1000
475.41675	8
476.37411	73
476.38556	129
477.3707	21
477.3873	37
481.50729	6
519.38556	5
530.39435	5
545.37964	10
553.34216	13
559.38525	6
619.41913	22
619.45013	5
620.43097	25
637.41144	17
637.43561	15
783.50989	9

NAME: Ginsenoside Rg2
PRECURSORMZ: 783.49001594783
PRECURSORTYPE: [M-H]-
INSTRUMENTTYPE: LC-ESI-QTOF
SMILES: CC1OC(OC2C(O)C(O)C(CO)OC2OC2CC3(C)C(CC(O)C4C(CCC34C)C(C)(O)CCC=C(C)C)C3(C)CCC(O)C(C)(C)C23)C(O)C(O)C1O
INCHIKEY: AGBCLJAHARWNLA-UHFFFAOYNA-N
Ontology: Triterpene saponins
COLLISIONENERGY: 10
FORMULA: C42H72O13
RETENTIONTIME: 6.2516
IONMODE: Negative
Comment: registered in RIKEN PlaSMA
Num Peaks: 6
101.02104	87
472.73291	40
637.42407	81
762.08038	47
783.49097	1000
783.5351	38

NAME: Ginsenoside Rg2
PRECURSORMZ: 829.49549525183
PRECURSORTYPE: [M+FA-H]-
INSTRUMENTTYPE: LC-ESI-QTOF
SMILES: CC1OC(OC2C(O)C(O)C(CO)OC2OC2CC3(C)C(CC(O)C4C(CCC34C)C(C)(O)CCC=C(C)C)C3(C)CCC(O)C(C)(C)C23)C(O)C(O)C1O
INCHIKEY: AGBCLJAHARWNLA-UHFFFAOYNA-N
Ontology: Triterpene saponins
COLLISIONENERGY: 10
FORMULA: C42H72O13
RETENTIONTIME: 6.2516
IONMODE: Negative
Comment: registered in RIKEN PlaSMA
Num Peaks: 22
89.02122	9
101.0185	7
101.02386	20
103.0395	13
161.04333	32
163.05899	15
205.0695	10
475.38013	75
476.36713	7
476.38849	7
477.37485	7
619.41779	7
620.43604	5
637.4306	63
638.4173	11
638.44318	13
639.42493	6
783.49231	1000
784.49524	464
785.50055	121
786.49152	8
829.49579	326

NAME: Ginsenoside Rg2
PRECURSORMZ: 783.49001594783
PRECURSORTYPE: [M-H]-
INSTRUMENTTYPE: LC-ESI-QTOF
SMILES: CC1OC(OC2C(O)C(O)C(CO)OC2OC2CC3(C)C(CC(O)C4C(CCC34C)C(C)(O)CCC=C(C)C)C3(C)CCC(O)C(C)(C)C23)C(O)C(O)C1O
INCHIKEY: AGBCLJAHARWNLA-UHFFFAOYNA-N
Ontology: Triterpene saponins
COLLISIONENERGY: 10
FORMULA: C42H72O13
RETENTIONTIME: 6.2516
IONMODE: Negative
Comment: registered in RIKEN PlaSMA
Num Peaks: 2
405.27072	39
783.48322	1000

NAME: Ginsenoside Rg2
PRECURSORMZ: 829.49549525183
PRECURSORTYPE: [M+FA-H]-
INSTRUMENTTYPE: LC-ESI-QTOF
SMILES: CC1OC(OC2C(O)C(O)C(CO)OC2OC2CC3(C)C(CC(O)C4C(CCC34C)C(C)(O)CCC=C(C)C)C3(C)CCC(O)C(C)(C)C23)C(O)C(O)C1O
INCHIKEY: AGBCLJAHARWNLA-UHFFFAOYNA-N
Ontology: Triterpene saponins
COLLISIONENERGY: 10
FORMULA: C42H72O13
RETENTIONTIME: 6.2516
IONMODE: Negative
Comment: registered in RIKEN PlaSMA
Num Peaks: 5
783.49115	353
784.49365	139
785.4895	16
785.52338	7
829.49658	1000

NAME: Ginsenoside Rg2
PRECURSORMZ: 783.49001594783
PRECURSORTYPE: [M-H]-
INSTRUMENTTYPE: LC-ESI-QTOF
SMILES: CC1OC(OC2C(O)C(O)C(CO)OC2OC2CC3(C)C(CC(O)C4C(CCC34C)C(C)(O)CCC=C(C)C)C3(C)CCC(O)C(C)(C)C23)C(O)C(O)C1O
INCHIKEY: AGBCLJAHARWNLA-UHFFFAOYNA-N
Ontology: Triterpene saponins
COLLISIONENERGY: 30
FORMULA: C42H72O13
RETENTIONTIME: 6.2516
IONMODE: Negative
Comment: registered in RIKEN PlaSMA
Num Peaks: 20
73.0258	92
85.03173	87
89.0269	110
101.02518	124
119.03786	92
159.02968	92
161.04051	87
161.05089	101
162.04834	101
164.06435	87
470.74796	96
475.36438	83
475.38455	592
476.39651	101
619.4165	183
620.43323	92
637.40253	202
637.42767	83
637.46759	96
783.5	1000

NAME: Ginsenoside Rg2
PRECURSORMZ: 829.49549525183
PRECURSORTYPE: [M+FA-H]-
INSTRUMENTTYPE: LC-ESI-QTOF
SMILES: CC1OC(OC2C(O)C(O)C(CO)OC2OC2CC3(C)C(CC(O)C4C(CCC34C)C(C)(O)CCC=C(C)C)C3(C)CCC(O)C(C)(C)C23)C(O)C(O)C1O
INCHIKEY: AGBCLJAHARWNLA-UHFFFAOYNA-N
Ontology: Triterpene saponins
COLLISIONENERGY: 30
FORMULA: C42H72O13
RETENTIONTIME: 6.2516
IONMODE: Negative
Comment: registered in RIKEN PlaSMA
Num Peaks: 19
89.02558	9
101.0232	22
103.03771	7
113.02303	6
119.03551	12
143.03561	7
161.04257	27
163.05959	18
475.38361	33
476.38831	10
619.41437	11
637.43164	106
638.42645	22
638.44397	20
639.43701	9
783.48999	1000
784.49292	465
785.49854	106
786.50323	9

NAME: Ginsenoside Rg2
PRECURSORMZ: 783.49001594783
PRECURSORTYPE: [M-H]-
INSTRUMENTTYPE: LC-ESI-QTOF
SMILES: CC1OC(OC2C(O)C(O)C(CO)OC2OC2CC3(C)C(CC(O)C4C(CCC34C)C(C)(O)CCC=C(C)C)C3(C)CCC(O)C(C)(C)C23)C(O)C(O)C1O
INCHIKEY: AGBCLJAHARWNLA-UHFFFAOYNA-N
Ontology: Triterpene saponins
COLLISIONENERGY: 50
FORMULA: C42H72O13
RETENTIONTIME: 6.2516
IONMODE: Negative
Comment: registered in RIKEN PlaSMA
Num Peaks: 13
85.02901	155
90.03022	147
99.0052	155
101.02304	1000
113.01908	140
113.0304	171
130.0202	155
391.29514	194
457.36163	194
458.39359	186
475.37607	504
476.38138	163
477.38068	163

NAME: Ginsenoside Rg2
PRECURSORMZ: 829.49549525183
PRECURSORTYPE: [M+FA-H]-
INSTRUMENTTYPE: LC-ESI-QTOF
SMILES: CC1OC(OC2C(O)C(O)C(CO)OC2OC2CC3(C)C(CC(O)C4C(CCC34C)C(C)(O)CCC=C(C)C)C3(C)CCC(O)C(C)(C)C23)C(O)C(O)C1O
INCHIKEY: AGBCLJAHARWNLA-UHFFFAOYNA-N
Ontology: Triterpene saponins
COLLISIONENERGY: 50
FORMULA: C42H72O13
RETENTIONTIME: 6.2516
IONMODE: Negative
Comment: registered in RIKEN PlaSMA
Num Peaks: 123
55.0206	6
57.03639	6
59.01267	87
71.0118	151
73.02129	6
73.02773	75
74.03082	5
83.01106	6
83.01602	7
84.01945	6
85.02708	122
86.03288	6
87.00591	17
89.02435	106
91.73756	5
95.01071	12
95.01667	6
96.01564	7
97.03343	5
98.03213	7
98.34328	7
99.00903	31
99.03991	14
99.04984	6
101.02303	606
102.02625	24
103.03896	86
104.03658	6
104.05103	10
113.02312	308
113.55038	6
113.60276	6
115.0395	49
116.0484	5
119.03208	24
119.03925	22
120.04179	12
125.02495	13
126.02724	11
127.03385	6
129.01717	11
131.02098	5
131.03459	62
132.04134	12
142.93929	5
143.03369	132
144.03793	15
144.04268	6
145.05049	12
146.05765	8
159.02919	41
161.03348	7
161.04459	127
163.05507	6
163.06567	7
188.36644	7
200.27184	6
205.06792	25
205.0755	32
207.07062	5
259.20505	6
281.19754	6
307.11154	5
316.18048	5
319.26105	6
329.22324	5
337.60895	8
345.8428	5
347.24817	5
348.25446	5
348.27191	5
349.27328	8
355.31021	9
371.24844	9
374.30215	12
375.28259	5
389.31857	5
389.62979	12
391.25723	6
391.27924	68
391.29111	91
391.31238	5
392.29065	17
392.31229	5
394.36987	7
394.52087	6
401.31107	5
456.35101	5
456.37296	6
457.35178	8
457.37036	18
458.37671	8
458.3916	6
459.35245	6
459.37323	5
475.37897	1000
475.48053	6
476.38156	273
476.41248	12
477.36987	31
477.38803	40
478.38885	6
480.14835	6
503.37006	5
518.40228	7
518.43561	5
530.40491	7
535.33099	6
546.37439	6
546.39447	5
548.34302	7
575.40057	6
575.41553	6
577.41687	6
619.39294	6
619.42236	50
620.40076	6
620.42572	24
621.45099	6
637.42853	10
640.4068	5
783.49518	5
784.48608	8

NAME: Ginsenoside Rg2
PRECURSORMZ: 783.49001594783
PRECURSORTYPE: [M-H]-
INSTRUMENTTYPE: LC-ESI-QTOF
SMILES: CC1OC(OC2C(O)C(O)C(CO)OC2OC2CC3(C)C(CC(O)C4C(CCC34C)C(C)(O)CCC=C(C)C)C3(C)CCC(O)C(C)(C)C23)C(O)C(O)C1O
INCHIKEY: AGBCLJAHARWNLA-UHFFFAOYNA-N
Ontology: Triterpene saponins
COLLISIONENERGY: 10
FORMULA: C42H72O13
RETENTIONTIME: 6.2516
IONMODE: Negative
Comment: registered in RIKEN PlaSMA
Num Peaks: 7
89.02832	47
143.03017	40
161.03276	40
318.60638	47
396.67377	42
638.42981	118
783.49097	1000

NAME: Ginsenoside Rg2
PRECURSORMZ: 829.49549525183
PRECURSORTYPE: [M+FA-H]-
INSTRUMENTTYPE: LC-ESI-QTOF
SMILES: CC1OC(OC2C(O)C(O)C(CO)OC2OC2CC3(C)C(CC(O)C4C(CCC34C)C(C)(O)CCC=C(C)C)C3(C)CCC(O)C(C)(C)C23)C(O)C(O)C1O
INCHIKEY: AGBCLJAHARWNLA-UHFFFAOYNA-N
Ontology: Triterpene saponins
COLLISIONENERGY: 10
FORMULA: C42H72O13
RETENTIONTIME: 6.2516
IONMODE: Negative
Comment: registered in RIKEN PlaSMA
Num Peaks: 18
89.02164	7
101.02283	11
113.02103	9
143.03212	10
161.0446	29
163.05881	9
475.37576	69
476.36993	8
476.3931	9
619.4184	10
637.43384	53
638.43665	23
783.48938	1000
784.49414	449
785.49878	116
786.48047	7
786.51056	9
829.49615	400

NAME: Ginsenoside Rg2
PRECURSORMZ: 829.49549525183
PRECURSORTYPE: [M+FA-H]-
INSTRUMENTTYPE: LC-ESI-QTOF
SMILES: CC1OC(OC2C(O)C(O)C(CO)OC2OC2CC3(C)C(CC(O)C4C(CCC34C)C(C)(O)CCC=C(C)C)C3(C)CCC(O)C(C)(C)C23)C(O)C(O)C1O
INCHIKEY: AGBCLJAHARWNLA-UHFFFAOYNA-N
Ontology: Triterpene saponins
COLLISIONENERGY: 10
FORMULA: C42H72O13
RETENTIONTIME: 6.2516
IONMODE: Negative
Comment: registered in RIKEN PlaSMA
Num Peaks: 5
783.49286	332
784.49707	124
785.48877	13
785.51331	7
829.4967	1000

NAME: Ginsenoside Rg2
PRECURSORMZ: 783.49001594783
PRECURSORTYPE: [M-H]-
INSTRUMENTTYPE: LC-ESI-QTOF
SMILES: CC1OC(OC2C(O)C(O)C(CO)OC2OC2CC3(C)C(CC(O)C4C(CCC34C)C(C)(O)CCC=C(C)C)C3(C)CCC(O)C(C)(C)C23)C(O)C(O)C1O
INCHIKEY: AGBCLJAHARWNLA-UHFFFAOYNA-N
Ontology: Triterpene saponins
COLLISIONENERGY: 30
FORMULA: C42H72O13
RETENTIONTIME: 6.2516
IONMODE: Negative
Comment: registered in RIKEN PlaSMA
Num Peaks: 18
73.0295	90
89.02303	126
101.02158	191
103.03906	101
132.03194	116
145.04863	201
146.04912	101
161.04987	90
163.05766	90
205.07709	106
475.37344	327
475.40079	211
476.37131	90
476.40366	90
478.38031	186
637.44604	116
638.41901	101
783.49103	1000

NAME: Ginsenoside Rg2
PRECURSORMZ: 829.49549525183
PRECURSORTYPE: [M+FA-H]-
INSTRUMENTTYPE: LC-ESI-QTOF
SMILES: CC1OC(OC2C(O)C(O)C(CO)OC2OC2CC3(C)C(CC(O)C4C(CCC34C)C(C)(O)CCC=C(C)C)C3(C)CCC(O)C(C)(C)C23)C(O)C(O)C1O
INCHIKEY: AGBCLJAHARWNLA-UHFFFAOYNA-N
Ontology: Triterpene saponins
COLLISIONENERGY: 30
FORMULA: C42H72O13
RETENTIONTIME: 6.2516
IONMODE: Negative
Comment: registered in RIKEN PlaSMA
Num Peaks: 17
89.02145	8
103.03753	13
119.03217	5
161.04301	53
163.06036	15
205.06824	6
475.3768	45
476.37561	9
619.42517	14
637.42719	144
638.42932	26
639.42493	6
783.48907	1000
784.49335	464
785.495	123
786.49963	14
829.49268	28

NAME: Ginsenoside Rg2
PRECURSORMZ: 783.49001594783
PRECURSORTYPE: [M-H]-
INSTRUMENTTYPE: LC-ESI-QTOF
SMILES: CC1OC(OC2C(O)C(O)C(CO)OC2OC2CC3(C)C(CC(O)C4C(CCC34C)C(C)(O)CCC=C(C)C)C3(C)CCC(O)C(C)(C)C23)C(O)C(O)C1O
INCHIKEY: AGBCLJAHARWNLA-UHFFFAOYNA-N
Ontology: Triterpene saponins
COLLISIONENERGY: 50
FORMULA: C42H72O13
RETENTIONTIME: 6.2516
IONMODE: Negative
Comment: registered in RIKEN PlaSMA
Num Peaks: 9
59.01091	190
61.0139	257
87.0454	333
101.02366	1000
102.02798	238
455.34396	181
475.3779	190
475.40311	171
476.37955	171

NAME: Ginsenoside Rg2
PRECURSORMZ: 829.49549525183
PRECURSORTYPE: [M+FA-H]-
INSTRUMENTTYPE: LC-ESI-QTOF
SMILES: CC1OC(OC2C(O)C(O)C(CO)OC2OC2CC3(C)C(CC(O)C4C(CCC34C)C(C)(O)CCC=C(C)C)C3(C)CCC(O)C(C)(C)C23)C(O)C(O)C1O
INCHIKEY: AGBCLJAHARWNLA-UHFFFAOYNA-N
Ontology: Triterpene saponins
COLLISIONENERGY: 50
FORMULA: C42H72O13
RETENTIONTIME: 6.2516
IONMODE: Negative
Comment: registered in RIKEN PlaSMA
Num Peaks: 95
55.01463	6
59.01161	85
60.01428	5
71.01162	94
73.02789	99
76.26407	9
83.01453	44
84.01206	5
85.02901	72
86.00308	9
86.02716	5
87.00701	13
87.01221	5
87.0424	19
87.04929	10
89.02337	164
90.02625	6
95.00994	7
95.72674	5
97.0316	11
99.00499	6
99.01147	12
101.02264	511
102.02797	16
103.03882	125
104.04723	6
107.13518	7
112.0118	6
113.02325	280
114.02665	6
115.03822	12
119.03413	35
119.0437	8
119.14422	5
125.01762	13
125.02423	6
126.09645	6
127.03658	13
129.01929	18
131.03058	20
131.0383	30
143.03395	71
143.04468	12
145.04781	11
159.03453	25
161.03314	10
161.04382	138
161.06041	5
162.04788	10
163.06032	25
163.07611	5
164.06158	8
205.06706	38
205.07973	13
331.28915	5
349.27896	5
349.29037	5
373.2688	5
391.28055	134
391.32153	6
392.2908	25
393.30151	6
395.40872	5
429.3309	7
439.31998	8
446.30466	5
457.36313	12
458.3739	6
459.35648	6
463.76758	7
475.24341	5
475.33807	6
475.37732	1000
476.38	191
476.4447	6
477.36179	15
477.4068	21
478.38333	5
493.31723	6
529.38959	11
529.40741	7
535.32245	5
545.38959	16
589.41174	5
619.39612	18
619.42072	15
620.43042	6
637.4024	6
637.44189	17
637.50562	5
638.44537	13
639.38702	5
741.58136	7
783.45648	9
783.48145	11

NAME: Hederacoside C
PRECURSORMZ: 1219.61170654783
PRECURSORTYPE: [M-H]-
INSTRUMENTTYPE: LC-ESI-QTOF
SMILES: CC1OC(OC2C(O)C(O)C(OCC3OC(OC(=O)C45CCC(C)(C)CC4C4=CCC6C7(C)CCC(OC8OCC(O)C(O)C8OC8OC(C)C(O)C(O)C8O)C(C)(CO)C7CCC6(C)C4(C)CC5)C(O)C(O)C3O)OC2CO)C(O)C(O)C1O
INCHIKEY: RYHDIBJJJRNDSX-UHFFFAOYNA-N
Ontology: Triterpene saponins
COLLISIONENERGY: 10
FORMULA: C59H96O26
RETENTIONTIME: 5.3895
IONMODE: Negative
Comment: registered in RIKEN PlaSMA
Num Peaks: 19
73.02517	34
161.04205	89
197.84836	26
349.10898	26
367.11047	30
367.12442	26
367.1546	25
368.11899	53
409.14572	71
410.14987	27
469.15057	252
469.19373	61
471.16199	29
640.58978	29
749.45868	211
750.4223	27
750.46973	30
1075.55627	25
1219.60938	1000

NAME: Hederacoside C
PRECURSORMZ: 1265.61718585183
PRECURSORTYPE: [M+FA-H]-
INSTRUMENTTYPE: LC-ESI-QTOF
SMILES: CC1OC(OC2C(O)C(O)C(OCC3OC(OC(=O)C45CCC(C)(C)CC4C4=CCC6C7(C)CCC(OC8OCC(O)C(O)C8OC8OC(C)C(O)C(O)C8O)C(C)(CO)C7CCC6(C)C4(C)CC5)C(O)C(O)C3O)OC2CO)C(O)C(O)C1O
INCHIKEY: RYHDIBJJJRNDSX-UHFFFAOYNA-N
Ontology: Triterpene saponins
COLLISIONENERGY: 10
FORMULA: C59H96O26
RETENTIONTIME: 5.3895
IONMODE: Negative
Comment: registered in RIKEN PlaSMA
Num Peaks: 25
125.02432	9
161.03848	5
161.04565	13
247.08263	21
265.0954	7
323.10071	6
324.95486	8
325.11563	9
367.12741	9
409.13477	6
469.15707	253
470.15479	33
749.45087	56
750.45197	25
751.45074	9
911.83459	6
1219.61292	1000
1220.61951	693
1221.6167	198
1221.6864	7
1222.5929	15
1222.62524	30
1222.6969	7
1223.62842	9
1265.62085	72

NAME: Hederacoside C
PRECURSORMZ: 1219.61170654783
PRECURSORTYPE: [M-H]-
INSTRUMENTTYPE: LC-ESI-QTOF
SMILES: CC1OC(OC2C(O)C(O)C(OCC3OC(OC(=O)C45CCC(C)(C)CC4C4=CCC6C7(C)CCC(OC8OCC(O)C(O)C8OC8OC(C)C(O)C(O)C8O)C(C)(CO)C7CCC6(C)C4(C)CC5)C(O)C(O)C3O)OC2CO)C(O)C(O)C1O
INCHIKEY: RYHDIBJJJRNDSX-UHFFFAOYNA-N
Ontology: Triterpene saponins
COLLISIONENERGY: 10
FORMULA: C59H96O26
RETENTIONTIME: 5.3895
IONMODE: Negative
Comment: registered in RIKEN PlaSMA
Num Peaks: 3
702.67267	54
749.42548	61
1219.61462	1000

NAME: Hederacoside C
PRECURSORMZ: 1265.61718585183
PRECURSORTYPE: [M+FA-H]-
INSTRUMENTTYPE: LC-ESI-QTOF
SMILES: CC1OC(OC2C(O)C(O)C(OCC3OC(OC(=O)C45CCC(C)(C)CC4C4=CCC6C7(C)CCC(OC8OCC(O)C(O)C8OC8OC(C)C(O)C(O)C8O)C(C)(CO)C7CCC6(C)C4(C)CC5)C(O)C(O)C3O)OC2CO)C(O)C(O)C1O
INCHIKEY: RYHDIBJJJRNDSX-UHFFFAOYNA-N
Ontology: Triterpene saponins
COLLISIONENERGY: 10
FORMULA: C59H96O26
RETENTIONTIME: 5.3895
IONMODE: Negative
Comment: registered in RIKEN PlaSMA
Num Peaks: 23
103.34373	10
494.04233	7
627.92822	15
635.71515	15
756.52979	10
891.2915	12
1059.43958	7
1096.94897	9
1219.61182	781
1220.60559	241
1220.63635	202
1221.61743	157
1222.43152	7
1222.61682	19
1222.66077	17
1224.64185	9
1232.05237	12
1246.06494	12
1246.56384	12
1248.0509	12
1249.08386	7
1262.71753	8
1265.6156	1000

NAME: Hederacoside C
PRECURSORMZ: 1219.61170654783
PRECURSORTYPE: [M-H]-
INSTRUMENTTYPE: LC-ESI-QTOF
SMILES: CC1OC(OC2C(O)C(O)C(OCC3OC(OC(=O)C45CCC(C)(C)CC4C4=CCC6C7(C)CCC(OC8OCC(O)C(O)C8OC8OC(C)C(O)C(O)C8O)C(C)(CO)C7CCC6(C)C4(C)CC5)C(O)C(O)C3O)OC2CO)C(O)C(O)C1O
INCHIKEY: RYHDIBJJJRNDSX-UHFFFAOYNA-N
Ontology: Triterpene saponins
COLLISIONENERGY: 30
FORMULA: C59H96O26
RETENTIONTIME: 5.3895
IONMODE: Negative
Comment: registered in RIKEN PlaSMA
Num Peaks: 19
101.02644	32
115.03835	29
161.04114	65
247.07523	31
263.07208	32
265.07776	44
367.13412	68
409.14011	60
469.15668	541
470.1644	112
471.16855	36
611.51422	32
749.43207	60
749.45715	102
750.45435	62
751.4577	75
804.14691	29
941.09277	29
1219.60938	1000

NAME: Hederacoside C
PRECURSORMZ: 1265.61718585183
PRECURSORTYPE: [M+FA-H]-
INSTRUMENTTYPE: LC-ESI-QTOF
SMILES: CC1OC(OC2C(O)C(O)C(OCC3OC(OC(=O)C45CCC(C)(C)CC4C4=CCC6C7(C)CCC(OC8OCC(O)C(O)C8OC8OC(C)C(O)C(O)C8O)C(C)(CO)C7CCC6(C)C4(C)CC5)C(O)C(O)C3O)OC2CO)C(O)C(O)C1O
INCHIKEY: RYHDIBJJJRNDSX-UHFFFAOYNA-N
Ontology: Triterpene saponins
COLLISIONENERGY: 30
FORMULA: C59H96O26
RETENTIONTIME: 5.3895
IONMODE: Negative
Comment: registered in RIKEN PlaSMA
Num Peaks: 13
247.07916	6
469.13745	16
469.16199	59
470.16028	15
471.1424	6
749.46185	11
1219.61462	1000
1219.71887	9
1220.61572	685
1221.61719	233
1222.57678	8
1222.62048	37
1223.64172	5

NAME: Hederacoside C
PRECURSORMZ: 1219.61170654783
PRECURSORTYPE: [M-H]-
INSTRUMENTTYPE: LC-ESI-QTOF
SMILES: CC1OC(OC2C(O)C(O)C(OCC3OC(OC(=O)C45CCC(C)(C)CC4C4=CCC6C7(C)CCC(OC8OCC(O)C(O)C8OC8OC(C)C(O)C(O)C8O)C(C)(CO)C7CCC6(C)C4(C)CC5)C(O)C(O)C3O)OC2CO)C(O)C(O)C1O
INCHIKEY: RYHDIBJJJRNDSX-UHFFFAOYNA-N
Ontology: Triterpene saponins
COLLISIONENERGY: 50
FORMULA: C59H96O26
RETENTIONTIME: 5.3895
IONMODE: Negative
Comment: registered in RIKEN PlaSMA
Num Peaks: 49
83.01211	28
99.00877	28
101.02321	171
103.04021	58
125.02297	90
125.03314	32
131.0378	28
141.01971	28
143.03996	34
144.04172	25
157.03952	37
160.90424	27
161.03607	55
161.04504	180
162.04695	52
163.05762	114
163.06929	34
164.06467	55
205.07149	147
210.11288	25
221.05128	28
221.06171	28
222.07188	25
246.07306	35
247.07274	156
248.07863	81
265.09747	27
266.09921	27
323.09341	58
324.10223	28
324.13834	25
349.12061	25
367.12488	153
409.1362	25
469.13953	114
469.16168	79
470.17358	25
471.33881	29
585.39075	38
586.38879	29
603.40033	101
645.40967	25
749.45111	1000
750.42383	76
750.45618	431
751.44928	101
791.46204	27
904.45728	25
1219.64844	27

NAME: Hederacoside C
PRECURSORMZ: 1265.61718585183
PRECURSORTYPE: [M+FA-H]-
INSTRUMENTTYPE: LC-ESI-QTOF
SMILES: CC1OC(OC2C(O)C(O)C(OCC3OC(OC(=O)C45CCC(C)(C)CC4C4=CCC6C7(C)CCC(OC8OCC(O)C(O)C8OC8OC(C)C(O)C(O)C8O)C(C)(CO)C7CCC6(C)C4(C)CC5)C(O)C(O)C3O)OC2CO)C(O)C(O)C1O
INCHIKEY: RYHDIBJJJRNDSX-UHFFFAOYNA-N
Ontology: Triterpene saponins
COLLISIONENERGY: 50
FORMULA: C59H96O26
RETENTIONTIME: 5.3895
IONMODE: Negative
Comment: registered in RIKEN PlaSMA
Num Peaks: 53
71.01216	8
73.0285	5
81.03239	7
89.02551	8
97.02558	7
97.02934	19
99.00755	7
101.02261	155
113.02371	9
119.03127	19
125.02295	43
143.03456	40
157.0463	5
158.91478	5
161.04402	250
161.05746	7
162.04527	8
163.05757	100
203.04958	7
203.06403	6
205.06313	20
205.07037	68
221.05862	9
221.07202	9
247.07916	288
248.07861	8
265.09277	23
267.08997	5
323.09454	141
324.10385	9
325.10645	34
325.12378	8
349.10764	12
367.10361	8
367.12366	105
368.14182	9
391.12247	8
401.88425	7
409.11737	18
409.13861	46
469.1561	428
469.36417	5
470.16397	44
471.16742	11
603.37164	8
749.38391	8
749.4444	1000
750.45258	403
751.45001	87
752.44177	14
791.46521	28
1219.54932	6
1219.62048	9

NAME: Hederacoside C
PRECURSORMZ: 1219.61170654783
PRECURSORTYPE: [M-H]-
INSTRUMENTTYPE: LC-ESI-QTOF
SMILES: CC1OC(OC2C(O)C(O)C(OCC3OC(OC(=O)C45CCC(C)(C)CC4C4=CCC6C7(C)CCC(OC8OCC(O)C(O)C8OC8OC(C)C(O)C(O)C8O)C(C)(CO)C7CCC6(C)C4(C)CC5)C(O)C(O)C3O)OC2CO)C(O)C(O)C1O
INCHIKEY: RYHDIBJJJRNDSX-UHFFFAOYNA-N
Ontology: Triterpene saponins
COLLISIONENERGY: 10
FORMULA: C59H96O26
RETENTIONTIME: 5.3895
IONMODE: Negative
Comment: registered in RIKEN PlaSMA
Num Peaks: 20
125.0251	29
125.03077	32
143.03523	32
161.04878	43
163.06178	40
247.09296	70
265.08838	29
323.0965	59
367.15506	33
409.1416	29
451.14365	29
469.13611	43
469.16718	175
470.15582	32
586.95557	38
749.45721	225
752.46454	40
791.48163	29
1219.60498	1000
1219.68127	56

NAME: Hederacoside C
PRECURSORMZ: 1265.61718585183
PRECURSORTYPE: [M+FA-H]-
INSTRUMENTTYPE: LC-ESI-QTOF
SMILES: CC1OC(OC2C(O)C(O)C(OCC3OC(OC(=O)C45CCC(C)(C)CC4C4=CCC6C7(C)CCC(OC8OCC(O)C(O)C8OC8OC(C)C(O)C(O)C8O)C(C)(CO)C7CCC6(C)C4(C)CC5)C(O)C(O)C3O)OC2CO)C(O)C(O)C1O
INCHIKEY: RYHDIBJJJRNDSX-UHFFFAOYNA-N
Ontology: Triterpene saponins
COLLISIONENERGY: 10
FORMULA: C59H96O26
RETENTIONTIME: 5.3895
IONMODE: Negative
Comment: registered in RIKEN PlaSMA
Num Peaks: 24
125.02436	7
161.04097	22
161.0518	9
247.08217	10
265.08978	16
266.10132	7
323.09778	12
367.1113	6
367.13251	14
409.12808	9
469.15723	233
470.15234	28
749.44745	86
750.43347	22
750.46619	10
751.44702	9
1219.61304	1000
1219.68896	21
1220.61633	623
1221.61255	195
1222.62134	23
1223.63818	19
1265.6123	88
1265.64099	41

NAME: Hederacoside C
PRECURSORMZ: 1219.61170654783
PRECURSORTYPE: [M-H]-
INSTRUMENTTYPE: LC-ESI-QTOF
SMILES: CC1OC(OC2C(O)C(O)C(OCC3OC(OC(=O)C45CCC(C)(C)CC4C4=CCC6C7(C)CCC(OC8OCC(O)C(O)C8OC8OC(C)C(O)C(O)C8O)C(C)(CO)C7CCC6(C)C4(C)CC5)C(O)C(O)C3O)OC2CO)C(O)C(O)C1O
INCHIKEY: RYHDIBJJJRNDSX-UHFFFAOYNA-N
Ontology: Triterpene saponins
COLLISIONENERGY: 10
FORMULA: C59H96O26
RETENTIONTIME: 5.3895
IONMODE: Negative
Comment: registered in RIKEN PlaSMA
Num Peaks: 3
856.63483	47
1219.36121	41
1219.60999	1000

NAME: Hederacoside C
PRECURSORMZ: 1265.61718585183
PRECURSORTYPE: [M+FA-H]-
INSTRUMENTTYPE: LC-ESI-QTOF
SMILES: CC1OC(OC2C(O)C(O)C(OCC3OC(OC(=O)C45CCC(C)(C)CC4C4=CCC6C7(C)CCC(OC8OCC(O)C(O)C8OC8OC(C)C(O)C(O)C8O)C(C)(CO)C7CCC6(C)C4(C)CC5)C(O)C(O)C3O)OC2CO)C(O)C(O)C1O
INCHIKEY: RYHDIBJJJRNDSX-UHFFFAOYNA-N
Ontology: Triterpene saponins
COLLISIONENERGY: 10
FORMULA: C59H96O26
RETENTIONTIME: 5.3895
IONMODE: Negative
Comment: registered in RIKEN PlaSMA
Num Peaks: 14
605.3042	7
633.99878	7
752.02423	7
1219.15417	7
1219.60925	718
1220.61731	355
1221.6095	176
1222.59253	14
1222.62366	27
1246.09326	7
1246.54834	10
1247.54004	8
1265.61853	1000
1265.70898	6

NAME: Hederacoside C
PRECURSORMZ: 1219.61170654783
PRECURSORTYPE: [M-H]-
INSTRUMENTTYPE: LC-ESI-QTOF
SMILES: CC1OC(OC2C(O)C(O)C(OCC3OC(OC(=O)C45CCC(C)(C)CC4C4=CCC6C7(C)CCC(OC8OCC(O)C(O)C8OC8OC(C)C(O)C(O)C8O)C(C)(CO)C7CCC6(C)C4(C)CC5)C(O)C(O)C3O)OC2CO)C(O)C(O)C1O
INCHIKEY: RYHDIBJJJRNDSX-UHFFFAOYNA-N
Ontology: Triterpene saponins
COLLISIONENERGY: 30
FORMULA: C59H96O26
RETENTIONTIME: 5.3895
IONMODE: Negative
Comment: registered in RIKEN PlaSMA
Num Peaks: 22
125.01705	23
143.03596	39
161.04198	41
162.04694	29
247.0851	41
367.13092	21
469.15707	469
469.19354	19
470.14716	48
471.15826	32
559.43817	25
565.47998	19
749.44275	89
749.47406	23
750.45612	39
750.47864	41
750.50989	28
751.46008	22
791.47766	19
830.19232	23
1194.85815	23
1219.61377	1000

NAME: Hederacoside C
PRECURSORMZ: 1265.61718585183
PRECURSORTYPE: [M+FA-H]-
INSTRUMENTTYPE: LC-ESI-QTOF
SMILES: CC1OC(OC2C(O)C(O)C(OCC3OC(OC(=O)C45CCC(C)(C)CC4C4=CCC6C7(C)CCC(OC8OCC(O)C(O)C8OC8OC(C)C(O)C(O)C8O)C(C)(CO)C7CCC6(C)C4(C)CC5)C(O)C(O)C3O)OC2CO)C(O)C(O)C1O
INCHIKEY: RYHDIBJJJRNDSX-UHFFFAOYNA-N
Ontology: Triterpene saponins
COLLISIONENERGY: 30
FORMULA: C59H96O26
RETENTIONTIME: 5.3895
IONMODE: Negative
Comment: registered in RIKEN PlaSMA
Num Peaks: 13
247.08386	9
325.11221	7
367.12213	6
469.15482	122
470.16479	8
470.17886	5
749.44971	8
1219.61255	1000
1219.69092	10
1220.61755	649
1221.61523	240
1222.63159	51
1223.63098	10

NAME: Hederacoside C
PRECURSORMZ: 1219.61170654783
PRECURSORTYPE: [M-H]-
INSTRUMENTTYPE: LC-ESI-QTOF
SMILES: CC1OC(OC2C(O)C(O)C(OCC3OC(OC(=O)C45CCC(C)(C)CC4C4=CCC6C7(C)CCC(OC8OCC(O)C(O)C8OC8OC(C)C(O)C(O)C8O)C(C)(CO)C7CCC6(C)C4(C)CC5)C(O)C(O)C3O)OC2CO)C(O)C(O)C1O
INCHIKEY: RYHDIBJJJRNDSX-UHFFFAOYNA-N
Ontology: Triterpene saponins
COLLISIONENERGY: 50
FORMULA: C59H96O26
RETENTIONTIME: 5.3895
IONMODE: Negative
Comment: registered in RIKEN PlaSMA
Num Peaks: 47
71.01244	25
95.04982	22
97.02909	33
101.02186	220
103.04085	51
123.00822	25
125.01608	30
125.02206	47
125.03032	25
143.03424	98
143.04326	25
145.04588	25
161.04268	393
162.04602	22
163.05725	155
163.09908	25
179.05521	32
205.069	89
221.06387	22
247.07956	80
247.09077	80
247.09831	22
248.09109	33
265.09525	62
323.08578	20
323.09619	41
324.10303	22
349.10477	22
367.12473	197
367.14261	22
409.13699	25
469.14645	158
469.17184	48
470.15082	46
470.16632	22
512.91296	26
585.36584	22
603.39355	25
604.41138	25
737.08337	22
749.44476	1000
750.44873	591
750.53668	26
751.41833	48
751.45654	59
751.48535	22
949.54846	22

NAME: Hederacoside C
PRECURSORMZ: 1265.61718585183
PRECURSORTYPE: [M+FA-H]-
INSTRUMENTTYPE: LC-ESI-QTOF
SMILES: CC1OC(OC2C(O)C(O)C(OCC3OC(OC(=O)C45CCC(C)(C)CC4C4=CCC6C7(C)CCC(OC8OCC(O)C(O)C8OC8OC(C)C(O)C(O)C8O)C(C)(CO)C7CCC6(C)C4(C)CC5)C(O)C(O)C3O)OC2CO)C(O)C(O)C1O
INCHIKEY: RYHDIBJJJRNDSX-UHFFFAOYNA-N
Ontology: Triterpene saponins
COLLISIONENERGY: 50
FORMULA: C59H96O26
RETENTIONTIME: 5.3895
IONMODE: Negative
Comment: registered in RIKEN PlaSMA
Num Peaks: 58
89.01874	7
89.02468	11
97.02823	8
101.02299	155
102.0293	11
103.03901	7
104.03793	7
115.03545	8
125.02206	62
127.03427	7
131.03233	6
133.04767	9
143.03062	22
143.037	32
144.03554	10
145.04584	7
161.04338	252
163.06133	119
164.07037	7
179.05382	5
191.03487	7
205.06924	61
221.06665	14
229.06987	8
247.08124	233
248.0786	13
248.09673	11
263.0679	7
265.09055	48
323.09439	112
324.10385	11
367.12357	77
368.12518	21
391.12183	7
409.1131	9
409.13004	31
409.14648	20
410.14041	12
468.98022	5
469.15549	412
470.15231	48
470.17224	32
471.15497	15
471.17542	13
603.3689	7
603.40582	10
604.39264	7
663.79126	6
749.44812	1000
750.45044	434
751.40381	8
751.45789	95
752.42047	5
752.45441	11
791.46899	7
1219.58545	7
1219.6228	7
1221.62939	7

NAME: Hederacoside C
PRECURSORMZ: 1219.61170654783
PRECURSORTYPE: [M-H]-
INSTRUMENTTYPE: LC-ESI-QTOF
SMILES: CC1OC(OC2C(O)C(O)C(OCC3OC(OC(=O)C45CCC(C)(C)CC4C4=CCC6C7(C)CCC(OC8OCC(O)C(O)C8OC8OC(C)C(O)C(O)C8O)C(C)(CO)C7CCC6(C)C4(C)CC5)C(O)C(O)C3O)OC2CO)C(O)C(O)C1O
INCHIKEY: RYHDIBJJJRNDSX-UHFFFAOYNA-N
Ontology: Triterpene saponins
COLLISIONENERGY: 10
FORMULA: C59H96O26
RETENTIONTIME: 5.3895
IONMODE: Negative
Comment: registered in RIKEN PlaSMA
Num Peaks: 21
69.80249	20
81.03497	26
161.039	64
212.68904	23
247.07849	45
248.08148	20
323.09802	21
324.10342	29
367.1217	72
409.13434	21
453.13577	20
469.15463	264
581.09686	22
749.4306	44
750.42957	20
750.46484	21
751.46008	30
783.21295	20
868.55457	25
949.90247	24
1219.61633	1000

NAME: Hederacoside C
PRECURSORMZ: 1265.61718585183
PRECURSORTYPE: [M+FA-H]-
INSTRUMENTTYPE: LC-ESI-QTOF
SMILES: CC1OC(OC2C(O)C(O)C(OCC3OC(OC(=O)C45CCC(C)(C)CC4C4=CCC6C7(C)CCC(OC8OCC(O)C(O)C8OC8OC(C)C(O)C(O)C8O)C(C)(CO)C7CCC6(C)C4(C)CC5)C(O)C(O)C3O)OC2CO)C(O)C(O)C1O
INCHIKEY: RYHDIBJJJRNDSX-UHFFFAOYNA-N
Ontology: Triterpene saponins
COLLISIONENERGY: 10
FORMULA: C59H96O26
RETENTIONTIME: 5.3895
IONMODE: Negative
Comment: registered in RIKEN PlaSMA
Num Peaks: 21
143.03384	7
161.04437	36
163.05745	7
247.0818	20
265.09171	10
367.10574	6
367.12427	7
451.1449	5
469.15286	226
470.16312	26
749.44794	64
749.48987	9
750.42114	9
750.44336	7
750.47186	13
1219.6123	1000
1220.61804	733
1221.6145	215
1222.62805	39
1223.64587	9
1265.61816	170

NAME: Hederacoside C
PRECURSORMZ: 1219.61170654783
PRECURSORTYPE: [M-H]-
INSTRUMENTTYPE: LC-ESI-QTOF
SMILES: CC1OC(OC2C(O)C(O)C(OCC3OC(OC(=O)C45CCC(C)(C)CC4C4=CCC6C7(C)CCC(OC8OCC(O)C(O)C8OC8OC(C)C(O)C(O)C8O)C(C)(CO)C7CCC6(C)C4(C)CC5)C(O)C(O)C3O)OC2CO)C(O)C(O)C1O
INCHIKEY: RYHDIBJJJRNDSX-UHFFFAOYNA-N
Ontology: Triterpene saponins
COLLISIONENERGY: 10
FORMULA: C59H96O26
RETENTIONTIME: 5.3895
IONMODE: Negative
Comment: registered in RIKEN PlaSMA
Num Peaks: 3
1219.56885	104
1219.61816	1000
1219.72131	37

NAME: Hederacoside C
PRECURSORMZ: 1265.61718585183
PRECURSORTYPE: [M+FA-H]-
INSTRUMENTTYPE: LC-ESI-QTOF
SMILES: CC1OC(OC2C(O)C(O)C(OCC3OC(OC(=O)C45CCC(C)(C)CC4C4=CCC6C7(C)CCC(OC8OCC(O)C(O)C8OC8OC(C)C(O)C(O)C8O)C(C)(CO)C7CCC6(C)C4(C)CC5)C(O)C(O)C3O)OC2CO)C(O)C(O)C1O
INCHIKEY: RYHDIBJJJRNDSX-UHFFFAOYNA-N
Ontology: Triterpene saponins
COLLISIONENERGY: 10
FORMULA: C59H96O26
RETENTIONTIME: 5.3895
IONMODE: Negative
Comment: registered in RIKEN PlaSMA
Num Peaks: 24
502.93967	10
608.96417	8
635.28296	8
676.37909	8
689.1275	9
865.4967	12
1219.35645	8
1219.51331	8
1219.61255	701
1219.92102	7
1220.52014	8
1220.61438	386
1220.64758	129
1220.71289	7
1221.56531	30
1221.61267	51
1221.65466	39
1222.62012	38
1223.0636	8
1223.61963	18
1224.6427	7
1265.6228	1000
1265.69629	21
1265.73987	7

NAME: Hederacoside C
PRECURSORMZ: 1219.61170654783
PRECURSORTYPE: [M-H]-
INSTRUMENTTYPE: LC-ESI-QTOF
SMILES: CC1OC(OC2C(O)C(O)C(OCC3OC(OC(=O)C45CCC(C)(C)CC4C4=CCC6C7(C)CCC(OC8OCC(O)C(O)C8OC8OC(C)C(O)C(O)C8O)C(C)(CO)C7CCC6(C)C4(C)CC5)C(O)C(O)C3O)OC2CO)C(O)C(O)C1O
INCHIKEY: RYHDIBJJJRNDSX-UHFFFAOYNA-N
Ontology: Triterpene saponins
COLLISIONENERGY: 30
FORMULA: C59H96O26
RETENTIONTIME: 5.3895
IONMODE: Negative
Comment: registered in RIKEN PlaSMA
Num Peaks: 26
143.04431	33
145.03743	33
161.03835	62
163.0477	30
231.11984	29
247.08089	29
265.09192	92
269.05768	32
323.08527	29
367.12753	59
469.1557	566
470.14746	62
471.15558	32
471.17752	48
536.42566	35
724.98041	32
749.43274	63
749.46973	65
750.43567	32
750.47351	29
751.46234	38
785.42505	32
928.81207	40
936.70129	32
1148.56458	30
1219.60413	1000

NAME: Hederacoside C
PRECURSORMZ: 1265.61718585183
PRECURSORTYPE: [M+FA-H]-
INSTRUMENTTYPE: LC-ESI-QTOF
SMILES: CC1OC(OC2C(O)C(O)C(OCC3OC(OC(=O)C45CCC(C)(C)CC4C4=CCC6C7(C)CCC(OC8OCC(O)C(O)C8OC8OC(C)C(O)C(O)C8O)C(C)(CO)C7CCC6(C)C4(C)CC5)C(O)C(O)C3O)OC2CO)C(O)C(O)C1O
INCHIKEY: RYHDIBJJJRNDSX-UHFFFAOYNA-N
Ontology: Triterpene saponins
COLLISIONENERGY: 30
FORMULA: C59H96O26
RETENTIONTIME: 5.3895
IONMODE: Negative
Comment: registered in RIKEN PlaSMA
Num Peaks: 12
161.04707	5
265.0965	6
367.13071	7
469.15781	82
749.45392	37
750.44775	6
1219.61548	1000
1220.62231	731
1221.61682	240
1222.59888	17
1222.6377	38
1223.6731	7

NAME: Hederacoside C
PRECURSORMZ: 1219.61170654783
PRECURSORTYPE: [M-H]-
INSTRUMENTTYPE: LC-ESI-QTOF
SMILES: CC1OC(OC2C(O)C(O)C(OCC3OC(OC(=O)C45CCC(C)(C)CC4C4=CCC6C7(C)CCC(OC8OCC(O)C(O)C8OC8OC(C)C(O)C(O)C8O)C(C)(CO)C7CCC6(C)C4(C)CC5)C(O)C(O)C3O)OC2CO)C(O)C(O)C1O
INCHIKEY: RYHDIBJJJRNDSX-UHFFFAOYNA-N
Ontology: Triterpene saponins
COLLISIONENERGY: 50
FORMULA: C59H96O26
RETENTIONTIME: 5.3895
IONMODE: Negative
Comment: registered in RIKEN PlaSMA
Num Peaks: 47
71.01473	29
97.03011	66
99.04551	29
101.0236	109
115.03494	34
119.04086	25
125.02237	104
141.01413	22
143.03242	77
161.04027	190
161.04662	146
163.05756	160
203.05138	22
205.07182	21
205.07974	42
206.07565	23
207.07726	22
231.69041	23
247.07361	194
247.08578	75
248.08963	47
252.1468	22
266.09842	25
270.14032	25
305.08487	23
323.09674	45
325.11118	34
349.1037	23
350.10675	26
367.11447	59
368.12421	25
410.1387	22
469.15051	99
470.1474	26
471.32925	23
603.35596	25
604.41058	32
612.99152	23
749.4483	1000
749.58405	22
750.43011	104
750.45044	187
751.17651	25
751.44916	87
751.46936	86
764.57471	25
791.48962	26

NAME: Hederacoside C
PRECURSORMZ: 1265.61718585183
PRECURSORTYPE: [M+FA-H]-
INSTRUMENTTYPE: LC-ESI-QTOF
SMILES: CC1OC(OC2C(O)C(O)C(OCC3OC(OC(=O)C45CCC(C)(C)CC4C4=CCC6C7(C)CCC(OC8OCC(O)C(O)C8OC8OC(C)C(O)C(O)C8O)C(C)(CO)C7CCC6(C)C4(C)CC5)C(O)C(O)C3O)OC2CO)C(O)C(O)C1O
INCHIKEY: RYHDIBJJJRNDSX-UHFFFAOYNA-N
Ontology: Triterpene saponins
COLLISIONENERGY: 50
FORMULA: C59H96O26
RETENTIONTIME: 5.3895
IONMODE: Negative
Comment: registered in RIKEN PlaSMA
Num Peaks: 53
73.02608	14
89.02205	15
97.03108	12
101.02377	108
103.04055	27
107.03036	7
119.03652	18
123.04102	7
125.02277	38
126.02411	7
131.03561	8
143.0325	38
144.0388	7
145.04361	8
161.04369	240
162.05049	10
163.06149	71
179.04877	7
179.05449	18
205.06915	37
221.05254	7
221.06348	17
229.05528	5
234.01006	5
245.06731	12
247.08067	207
247.09978	7
248.08067	32
265.09695	19
297.84225	5
306.12369	7
306.75345	5
323.09805	135
324.09088	7
324.10281	12
349.11893	12
367.12436	104
368.12445	7
409.13364	35
469.08356	6
469.15485	374
470.16302	71
471.14151	8
471.16232	17
585.37555	8
592.79553	6
603.39734	9
604.37891	7
749.44861	1000
750.44769	314
751.43164	30
751.45264	46
1219.63757	8

NAME: alpha-Hederin
PRECURSORMZ: 749.44815114783
PRECURSORTYPE: [M-H]-
INSTRUMENTTYPE: LC-ESI-QTOF
SMILES: CC1OC(OC2C(O)C(O)COC2OC2CCC3(C)C(CCC4(C)C3CC=C3C5CC(C)(C)CCC5(CCC43C)C(O)=O)C2(C)CO)C(O)C(O)C1O
INCHIKEY: KEOITPILCOILGM-UHFFFAOYNA-N
Ontology: Triterpenoids
COLLISIONENERGY: 10
FORMULA: C41H66O12
RETENTIONTIME: 7.937383
IONMODE: Negative
Comment: registered in RIKEN PlaSMA
Num Peaks: 4
473.36465	344
603.38916	311
749.41992	311
749.45715	1000

NAME: alpha-Hederin
PRECURSORMZ: 749.44815114783
PRECURSORTYPE: [M-H]-
INSTRUMENTTYPE: LC-ESI-QTOF
SMILES: CC1OC(OC2C(O)C(O)COC2OC2CCC3(C)C(CCC4(C)C3CC=C3C5CC(C)(C)CCC5(CCC43C)C(O)=O)C2(C)CO)C(O)C(O)C1O
INCHIKEY: KEOITPILCOILGM-UHFFFAOYNA-N
Ontology: Triterpenoids
COLLISIONENERGY: 10
FORMULA: C41H66O12
RETENTIONTIME: 7.937383
IONMODE: Negative
Comment: registered in RIKEN PlaSMA
Num Peaks: 2
706.09302	98
749.44928	1000

NAME: alpha-Hederin
PRECURSORMZ: 795.45363045183
PRECURSORTYPE: [M+FA-H]-
INSTRUMENTTYPE: LC-ESI-QTOF
SMILES: CC1OC(OC2C(O)C(O)COC2OC2CCC3(C)C(CCC4(C)C3CC=C3C5CC(C)(C)CCC5(CCC43C)C(O)=O)C2(C)CO)C(O)C(O)C1O
INCHIKEY: KEOITPILCOILGM-UHFFFAOYNA-N
Ontology: Triterpenoids
COLLISIONENERGY: 10
FORMULA: C41H66O12
RETENTIONTIME: 7.937383
IONMODE: Negative
Comment: registered in RIKEN PlaSMA
Num Peaks: 8
93.87746	6
395.64154	8
749.43964	131
749.47162	41
750.45331	60
751.43835	6
751.47339	8
795.45312	1000

NAME: alpha-Hederin
PRECURSORMZ: 749.44815114783
PRECURSORTYPE: [M-H]-
INSTRUMENTTYPE: LC-ESI-QTOF
SMILES: CC1OC(OC2C(O)C(O)COC2OC2CCC3(C)C(CCC4(C)C3CC=C3C5CC(C)(C)CCC5(CCC43C)C(O)=O)C2(C)CO)C(O)C(O)C1O
INCHIKEY: KEOITPILCOILGM-UHFFFAOYNA-N
Ontology: Triterpenoids
COLLISIONENERGY: 30
FORMULA: C41H66O12
RETENTIONTIME: 7.937383
IONMODE: Negative
Comment: registered in RIKEN PlaSMA
Num Peaks: 6
323.25797	321
471.3613	222
603.35583	222
604.37872	222
749.43066	1000
749.45642	284

NAME: alpha-Hederin
PRECURSORMZ: 795.45363045183
PRECURSORTYPE: [M+FA-H]-
INSTRUMENTTYPE: LC-ESI-QTOF
SMILES: CC1OC(OC2C(O)C(O)COC2OC2CCC3(C)C(CCC4(C)C3CC=C3C5CC(C)(C)CCC5(CCC43C)C(O)=O)C2(C)CO)C(O)C(O)C1O
INCHIKEY: KEOITPILCOILGM-UHFFFAOYNA-N
Ontology: Triterpenoids
COLLISIONENERGY: 30
FORMULA: C41H66O12
RETENTIONTIME: 7.937383
IONMODE: Negative
Comment: registered in RIKEN PlaSMA
Num Peaks: 9
471.33954	6
585.36774	6
603.39148	69
604.40106	7
749.4491	1000
750.45172	497
751.44781	84
751.46893	52
752.45239	25

NAME: alpha-Hederin
PRECURSORMZ: 749.44815114783
PRECURSORTYPE: [M-H]-
INSTRUMENTTYPE: LC-ESI-QTOF
SMILES: CC1OC(OC2C(O)C(O)COC2OC2CCC3(C)C(CCC4(C)C3CC=C3C5CC(C)(C)CCC5(CCC43C)C(O)=O)C2(C)CO)C(O)C(O)C1O
INCHIKEY: KEOITPILCOILGM-UHFFFAOYNA-N
Ontology: Triterpenoids
COLLISIONENERGY: 50
FORMULA: C41H66O12
RETENTIONTIME: 7.937383
IONMODE: Negative
Comment: registered in RIKEN PlaSMA
Num Peaks: 6
447.33725	450
471.31216	475
471.33362	1000
471.35614	500
472.35349	500
586.36761	450

NAME: alpha-Hederin
PRECURSORMZ: 795.45363045183
PRECURSORTYPE: [M+FA-H]-
INSTRUMENTTYPE: LC-ESI-QTOF
SMILES: CC1OC(OC2C(O)C(O)COC2OC2CCC3(C)C(CCC4(C)C3CC=C3C5CC(C)(C)CCC5(CCC43C)C(O)=O)C2(C)CO)C(O)C(O)C1O
INCHIKEY: KEOITPILCOILGM-UHFFFAOYNA-N
Ontology: Triterpenoids
COLLISIONENERGY: 50
FORMULA: C41H66O12
RETENTIONTIME: 7.937383
IONMODE: Negative
Comment: registered in RIKEN PlaSMA
Num Peaks: 49
59.00969	32
59.01316	59
85.03255	16
89.02208	198
91.03133	18
101.02464	70
103.03829	45
119.03178	16
131.02692	54
131.03682	50
149.04115	17
149.05006	17
163.05424	18
241.98122	17
247.07848	16
268.05414	16
303.04495	16
423.30862	19
423.32312	73
424.32269	16
425.32742	16
440.34152	17
471.34744	1000
472.32684	16
472.35342	177
473.3371	28
473.35321	22
474.37741	17
526.35474	19
585.31793	16
585.37622	156
585.40662	17
586.37317	103
586.39514	134
586.45587	28
587.39319	22
588.37469	16
588.39417	21
600.92334	16
603.39423	162
604.39148	16
606.41864	16
749.44562	768
749.46375	317
750.45343	401
750.49023	72
751.44952	34
751.4743	63
752.45874	17

NAME: alpha-Hederin
PRECURSORMZ: 795.45363045183
PRECURSORTYPE: [M+FA-H]-
INSTRUMENTTYPE: LC-ESI-QTOF
SMILES: CC1OC(OC2C(O)C(O)COC2OC2CCC3(C)C(CCC4(C)C3CC=C3C5CC(C)(C)CCC5(CCC43C)C(O)=O)C2(C)CO)C(O)C(O)C1O
INCHIKEY: KEOITPILCOILGM-UHFFFAOYNA-N
Ontology: Triterpenoids
COLLISIONENERGY: 10
FORMULA: C41H66O12
RETENTIONTIME: 7.937383
IONMODE: Negative
Comment: registered in RIKEN PlaSMA
Num Peaks: 17
59.01355	7
101.02052	12
278.10312	7
312.87637	5
471.34857	21
472.35425	8
585.37994	13
603.37213	12
603.39392	35
604.39355	8
686.75482	5
749.44458	1000
750.44843	391
751.45386	72
752.46777	5
752.49005	6
795.45117	319

NAME: alpha-Hederin
PRECURSORMZ: 795.45363045183
PRECURSORTYPE: [M+FA-H]-
INSTRUMENTTYPE: LC-ESI-QTOF
SMILES: CC1OC(OC2C(O)C(O)COC2OC2CCC3(C)C(CCC4(C)C3CC=C3C5CC(C)(C)CCC5(CCC43C)C(O)=O)C2(C)CO)C(O)C(O)C1O
INCHIKEY: KEOITPILCOILGM-UHFFFAOYNA-N
Ontology: Triterpenoids
COLLISIONENERGY: 10
FORMULA: C41H66O12
RETENTIONTIME: 7.937383
IONMODE: Negative
Comment: registered in RIKEN PlaSMA
Num Peaks: 8
553.57904	6
586.02295	7
749.44971	143
750.43878	61
750.47296	18
752.44574	8
795.45508	1000
795.52124	9

NAME: alpha-Hederin
PRECURSORMZ: 749.44815114783
PRECURSORTYPE: [M-H]-
INSTRUMENTTYPE: LC-ESI-QTOF
SMILES: CC1OC(OC2C(O)C(O)COC2OC2CCC3(C)C(CCC4(C)C3CC=C3C5CC(C)(C)CCC5(CCC43C)C(O)=O)C2(C)CO)C(O)C(O)C1O
INCHIKEY: KEOITPILCOILGM-UHFFFAOYNA-N
Ontology: Triterpenoids
COLLISIONENERGY: 30
FORMULA: C41H66O12
RETENTIONTIME: 7.937383
IONMODE: Negative
Comment: registered in RIKEN PlaSMA
Num Peaks: 5
89.02127	202
471.33054	234
605.38086	191
605.4126	277
749.46454	1000

NAME: alpha-Hederin
PRECURSORMZ: 795.45363045183
PRECURSORTYPE: [M+FA-H]-
INSTRUMENTTYPE: LC-ESI-QTOF
SMILES: CC1OC(OC2C(O)C(O)COC2OC2CCC3(C)C(CCC4(C)C3CC=C3C5CC(C)(C)CCC5(CCC43C)C(O)=O)C2(C)CO)C(O)C(O)C1O
INCHIKEY: KEOITPILCOILGM-UHFFFAOYNA-N
Ontology: Triterpenoids
COLLISIONENERGY: 30
FORMULA: C41H66O12
RETENTIONTIME: 7.937383
IONMODE: Negative
Comment: registered in RIKEN PlaSMA
Num Peaks: 12
471.33813	6
603.38354	25
603.40887	23
604.3913	6
604.40845	5
749.44757	1000
750.39758	6
750.45209	414
751.45593	94
752.4519	7
752.47205	14
753.45605	6

NAME: alpha-Hederin
PRECURSORMZ: 749.44815114783
PRECURSORTYPE: [M-H]-
INSTRUMENTTYPE: LC-ESI-QTOF
SMILES: CC1OC(OC2C(O)C(O)COC2OC2CCC3(C)C(CCC4(C)C3CC=C3C5CC(C)(C)CCC5(CCC43C)C(O)=O)C2(C)CO)C(O)C(O)C1O
INCHIKEY: KEOITPILCOILGM-UHFFFAOYNA-N
Ontology: Triterpenoids
COLLISIONENERGY: 50
FORMULA: C41H66O12
RETENTIONTIME: 7.937383
IONMODE: Negative
Comment: registered in RIKEN PlaSMA
Num Peaks: 9
89.02484	325
101.02033	494
119.03219	545
149.04475	260
471.33591	260
471.35172	1000
585.36981	481
586.37268	247
749.435	234

NAME: alpha-Hederin
PRECURSORMZ: 795.45363045183
PRECURSORTYPE: [M+FA-H]-
INSTRUMENTTYPE: LC-ESI-QTOF
SMILES: CC1OC(OC2C(O)C(O)COC2OC2CCC3(C)C(CCC4(C)C3CC=C3C5CC(C)(C)CCC5(CCC43C)C(O)=O)C2(C)CO)C(O)C(O)C1O
INCHIKEY: KEOITPILCOILGM-UHFFFAOYNA-N
Ontology: Triterpenoids
COLLISIONENERGY: 50
FORMULA: C41H66O12
RETENTIONTIME: 7.937383
IONMODE: Negative
Comment: registered in RIKEN PlaSMA
Num Peaks: 66
59.01513	34
87.01286	17
89.02145	116
89.02781	20
101.02041	26
101.02647	31
103.03515	13
103.04192	15
111.00941	15
113.02393	17
115.03905	18
119.0255	18
119.03474	51
126.67261	13
127.03548	14
131.03416	191
137.01003	13
143.03047	13
149.04126	42
163.06029	39
176.0224	15
205.06747	17
205.07684	20
371.12714	17
373.4162	13
375.7691	15
378.20609	15
423.32599	77
423.36832	20
424.33218	31
425.34427	15
439.3219	46
451.32629	16
471.29254	13
471.34894	1000
471.38937	38
471.45181	19
472.34824	169
472.36679	57
473.3439	15
473.36264	26
518.53381	13
525.37311	16
538.05371	14
542.35266	15
585.37921	273
585.39813	86
586.38483	97
587.36798	15
603.36493	17
603.39966	66
603.41699	39
604.3938	30
604.42212	13
605.38617	13
605.4082	15
646.4093	14
749.44861	879
750.3902	18
750.4472	199
750.47095	140
751.45044	75
752.42279	14
752.45117	31
752.47888	16
754.68127	18

NAME: alpha-Hederin
PRECURSORMZ: 749.44815114783
PRECURSORTYPE: [M-H]-
INSTRUMENTTYPE: LC-ESI-QTOF
SMILES: CC1OC(OC2C(O)C(O)COC2OC2CCC3(C)C(CCC4(C)C3CC=C3C5CC(C)(C)CCC5(CCC43C)C(O)=O)C2(C)CO)C(O)C(O)C1O
INCHIKEY: KEOITPILCOILGM-UHFFFAOYNA-N
Ontology: Triterpenoids
COLLISIONENERGY: 10
FORMULA: C41H66O12
RETENTIONTIME: 7.937383
IONMODE: Negative
Comment: registered in RIKEN PlaSMA
Num Peaks: 4
749.40784	256
749.44043	1000
749.46893	244
749.50079	269

NAME: alpha-Hederin
PRECURSORMZ: 795.45363045183
PRECURSORTYPE: [M+FA-H]-
INSTRUMENTTYPE: LC-ESI-QTOF
SMILES: CC1OC(OC2C(O)C(O)COC2OC2CCC3(C)C(CCC4(C)C3CC=C3C5CC(C)(C)CCC5(CCC43C)C(O)=O)C2(C)CO)C(O)C(O)C1O
INCHIKEY: KEOITPILCOILGM-UHFFFAOYNA-N
Ontology: Triterpenoids
COLLISIONENERGY: 50
FORMULA: C41H66O12
RETENTIONTIME: 7.937383
IONMODE: Negative
Comment: registered in RIKEN PlaSMA
Num Peaks: 48
57.03034	18
59.01086	104
89.02162	158
96.6243	24
101.01282	18
101.02208	102
102.03108	18
103.03606	26
113.02385	40
119.03442	21
131.0321	79
131.03851	18
149.04607	37
251.59976	28
307.99863	20
375.29596	26
423.31863	79
424.31491	20
424.33569	20
425.33188	21
439.3053	19
446.80957	20
454.3403	20
463.14288	43
470.35046	23
471.3465	1000
471.43674	20
472.35678	133
473.34079	79
474.34903	21
541.36548	24
585.37244	203
586.37488	91
603.35358	19
603.38293	123
603.41156	108
604.38776	41
604.40521	90
651.73889	21
749.44849	922
749.49023	62
750.21222	18
750.40314	18
750.45386	398
750.95563	28
751.45496	80
752.4787	20
794.38098	27

NAME: Madecassoside
PRECURSORMZ: 1019.50684775183
PRECURSORTYPE: [M+FA-H]-
INSTRUMENTTYPE: LC-ESI-QTOF
SMILES: CC1CCC2(CCC3(C)C(=CCC4C5(C)CC(O)C(O)C(C)(CO)C5C(O)CC34C)C2C1C)C(=O)OC1OC(COC2OC(CO)C(OC3OC(C)C(O)C(O)C3O)C(O)C2O)C(O)C(O)C1O
INCHIKEY: BNMGUJRJUUDLHW-UHFFFAOYNA-N
Ontology: Triterpene saponins
COLLISIONENERGY: 10
FORMULA: C48H78O20
RETENTIONTIME: 4.893667
IONMODE: Negative
Comment: registered in RIKEN PlaSMA
Num Peaks: 35
89.0216	5
101.02062	13
125.02225	19
143.03114	6
143.03844	6
161.04118	75
161.05469	5
162.04967	5
163.05658	15
163.06294	8
247.07997	87
265.09448	38
323.095	41
324.09964	6
325.10278	5
325.11713	10
349.11121	5
367.12045	29
367.1312	13
409.13504	21
414.2738	5
451.14359	9
469.15433	505
470.15933	61
471.16351	8
477.34756	6
503.33575	358
504.33469	60
505.33377	13
973.50018	1000
974.50195	470
975.50604	123
976.49866	18
976.52643	9
1019.50824	881

NAME: Madecassoside
PRECURSORMZ: 973.50136844783
PRECURSORTYPE: [M-H]-
INSTRUMENTTYPE: LC-ESI-QTOF
SMILES: CC1CCC2(CCC3(C)C(=CCC4C5(C)CC(O)C(O)C(C)(CO)C5C(O)CC34C)C2C1C)C(=O)OC1OC(COC2OC(CO)C(OC3OC(C)C(O)C(O)C3O)C(O)C2O)C(O)C(O)C1O
INCHIKEY: BNMGUJRJUUDLHW-UHFFFAOYNA-N
Ontology: Triterpene saponins
COLLISIONENERGY: 10
FORMULA: C48H78O20
RETENTIONTIME: 4.893667
IONMODE: Negative
Comment: registered in RIKEN PlaSMA
Num Peaks: 6
409.11505	184
469.15604	735
503.3306	204
504.38196	184
973.48236	367
973.51526	1000

NAME: Madecassoside
PRECURSORMZ: 1019.50684775183
PRECURSORTYPE: [M+FA-H]-
INSTRUMENTTYPE: LC-ESI-QTOF
SMILES: CC1CCC2(CCC3(C)C(=CCC4C5(C)CC(O)C(O)C(C)(CO)C5C(O)CC34C)C2C1C)C(=O)OC1OC(COC2OC(CO)C(OC3OC(C)C(O)C(O)C3O)C(O)C2O)C(O)C(O)C1O
INCHIKEY: BNMGUJRJUUDLHW-UHFFFAOYNA-N
Ontology: Triterpene saponins
COLLISIONENERGY: 10
FORMULA: C48H78O20
RETENTIONTIME: 4.893667
IONMODE: Negative
Comment: registered in RIKEN PlaSMA
Num Peaks: 4
973.50409	112
974.51105	68
975.50262	15
1019.5058	1000

NAME: Madecassoside
PRECURSORMZ: 973.50136844783
PRECURSORTYPE: [M-H]-
INSTRUMENTTYPE: LC-ESI-QTOF
SMILES: CC1CCC2(CCC3(C)C(=CCC4C5(C)CC(O)C(O)C(C)(CO)C5C(O)CC34C)C2C1C)C(=O)OC1OC(COC2OC(CO)C(OC3OC(C)C(O)C(O)C3O)C(O)C2O)C(O)C(O)C1O
INCHIKEY: BNMGUJRJUUDLHW-UHFFFAOYNA-N
Ontology: Triterpene saponins
COLLISIONENERGY: 10
FORMULA: C48H78O20
RETENTIONTIME: 4.893667
IONMODE: Negative
Comment: registered in RIKEN PlaSMA
Num Peaks: 2
51.79262	130
973.48889	1000

NAME: Madecassoside
PRECURSORMZ: 1019.50684775183
PRECURSORTYPE: [M+FA-H]-
INSTRUMENTTYPE: LC-ESI-QTOF
SMILES: CC1CCC2(CCC3(C)C(=CCC4C5(C)CC(O)C(O)C(C)(CO)C5C(O)CC34C)C2C1C)C(=O)OC1OC(COC2OC(CO)C(OC3OC(C)C(O)C(O)C3O)C(O)C2O)C(O)C(O)C1O
INCHIKEY: BNMGUJRJUUDLHW-UHFFFAOYNA-N
Ontology: Triterpene saponins
COLLISIONENERGY: 30
FORMULA: C48H78O20
RETENTIONTIME: 4.893667
IONMODE: Negative
Comment: registered in RIKEN PlaSMA
Num Peaks: 35
101.02234	15
125.01815	11
125.02388	7
143.02719	7
143.03407	10
161.04353	74
163.06073	15
247.0791	33
247.09236	7
265.08328	14
265.0918	30
266.10202	5
323.09473	27
324.10107	7
325.1134	16
325.12482	6
367.12079	42
367.13754	5
368.13116	5
409.13559	20
451.14322	9
469.15494	1000
470.09726	6
470.15863	153
471.14853	12
471.17023	22
472.15982	7
503.33725	209
504.33499	41
504.34937	24
973.50293	877
974.50507	441
975.50696	132
976.50116	22
977.50281	6

NAME: Madecassoside
PRECURSORMZ: 973.50136844783
PRECURSORTYPE: [M-H]-
INSTRUMENTTYPE: LC-ESI-QTOF
SMILES: CC1CCC2(CCC3(C)C(=CCC4C5(C)CC(O)C(O)C(C)(CO)C5C(O)CC34C)C2C1C)C(=O)OC1OC(COC2OC(CO)C(OC3OC(C)C(O)C(O)C3O)C(O)C2O)C(O)C(O)C1O
INCHIKEY: BNMGUJRJUUDLHW-UHFFFAOYNA-N
Ontology: Triterpene saponins
COLLISIONENERGY: 30
FORMULA: C48H78O20
RETENTIONTIME: 4.893667
IONMODE: Negative
Comment: registered in RIKEN PlaSMA
Num Peaks: 11
161.03667	130
161.04813	235
323.08218	142
323.09641	111
469.15756	1000
470.16174	117
471.16809	148
503.32739	123
503.34982	185
848.69257	136
973.51837	123

NAME: Madecassoside
PRECURSORMZ: 1019.50684775183
PRECURSORTYPE: [M+FA-H]-
INSTRUMENTTYPE: LC-ESI-QTOF
SMILES: CC1CCC2(CCC3(C)C(=CCC4C5(C)CC(O)C(O)C(C)(CO)C5C(O)CC34C)C2C1C)C(=O)OC1OC(COC2OC(CO)C(OC3OC(C)C(O)C(O)C3O)C(O)C2O)C(O)C(O)C1O
INCHIKEY: BNMGUJRJUUDLHW-UHFFFAOYNA-N
Ontology: Triterpene saponins
COLLISIONENERGY: 50
FORMULA: C48H78O20
RETENTIONTIME: 4.893667
IONMODE: Negative
Comment: registered in RIKEN PlaSMA
Num Peaks: 33
73.02748	15
89.02235	5
97.02661	10
101.02301	152
103.0366	14
113.02352	11
115.03815	8
119.03688	14
125.02287	47
131.03841	5
143.03346	45
161.04379	121
163.05887	50
179.04585	7
179.05736	6
205.06978	42
221.06474	47
222.06723	6
247.08124	77
248.07841	12
263.07196	5
323.09869	58
324.10159	9
349.11536	11
367.11884	29
367.13089	19
409.1358	11
469.16153	45
470.17224	7
503.33682	1000
504.33957	302
505.34943	27
506.35092	6

NAME: Madecassoside
PRECURSORMZ: 973.50136844783
PRECURSORTYPE: [M-H]-
INSTRUMENTTYPE: LC-ESI-QTOF
SMILES: CC1CCC2(CCC3(C)C(=CCC4C5(C)CC(O)C(O)C(C)(CO)C5C(O)CC34C)C2C1C)C(=O)OC1OC(COC2OC(CO)C(OC3OC(C)C(O)C(O)C3O)C(O)C2O)C(O)C(O)C1O
INCHIKEY: BNMGUJRJUUDLHW-UHFFFAOYNA-N
Ontology: Triterpene saponins
COLLISIONENERGY: 50
FORMULA: C48H78O20
RETENTIONTIME: 4.893667
IONMODE: Negative
Comment: registered in RIKEN PlaSMA
Num Peaks: 10
101.01791	128
101.02412	115
125.02087	135
163.06485	115
245.05989	115
367.11191	122
503.33438	1000
504.33493	115
505.34546	276
800.10889	160

NAME: Madecassoside
PRECURSORMZ: 1019.50684775183
PRECURSORTYPE: [M+FA-H]-
INSTRUMENTTYPE: LC-ESI-QTOF
SMILES: CC1CCC2(CCC3(C)C(=CCC4C5(C)CC(O)C(O)C(C)(CO)C5C(O)CC34C)C2C1C)C(=O)OC1OC(COC2OC(CO)C(OC3OC(C)C(O)C(O)C3O)C(O)C2O)C(O)C(O)C1O
INCHIKEY: BNMGUJRJUUDLHW-UHFFFAOYNA-N
Ontology: Triterpene saponins
COLLISIONENERGY: 10
FORMULA: C48H78O20
RETENTIONTIME: 4.893667
IONMODE: Negative
Comment: registered in RIKEN PlaSMA
Num Peaks: 36
101.02156	9
119.03303	7
125.02193	10
143.03522	18
161.04489	97
163.06281	14
221.06139	11
247.0809	78
265.08353	9
265.09396	19
323.08688	9
323.10074	27
325.10818	15
367.10352	8
367.12076	26
367.13596	10
368.13403	8
409.12521	10
409.13977	9
469.1557	462
470.15668	61
471.17078	12
503.33667	340
504.33978	108
505.328	11
505.35159	6
973.50378	1000
974.50787	498
974.5882	6
975.5072	115
975.53668	28
976.48914	18
976.52783	12
977.5155	8
1019.5058	809
1019.58234	7

NAME: Madecassoside
PRECURSORMZ: 973.50136844783
PRECURSORTYPE: [M-H]-
INSTRUMENTTYPE: LC-ESI-QTOF
SMILES: CC1CCC2(CCC3(C)C(=CCC4C5(C)CC(O)C(O)C(C)(CO)C5C(O)CC34C)C2C1C)C(=O)OC1OC(COC2OC(CO)C(OC3OC(C)C(O)C(O)C3O)C(O)C2O)C(O)C(O)C1O
INCHIKEY: BNMGUJRJUUDLHW-UHFFFAOYNA-N
Ontology: Triterpene saponins
COLLISIONENERGY: 10
FORMULA: C48H78O20
RETENTIONTIME: 4.893667
IONMODE: Negative
Comment: registered in RIKEN PlaSMA
Num Peaks: 7
143.03108	148
469.15524	361
470.15475	148
471.15881	295
503.33228	164
973.49091	1000
973.54095	164

NAME: Madecassoside
PRECURSORMZ: 1019.50684775183
PRECURSORTYPE: [M+FA-H]-
INSTRUMENTTYPE: LC-ESI-QTOF
SMILES: CC1CCC2(CCC3(C)C(=CCC4C5(C)CC(O)C(O)C(C)(CO)C5C(O)CC34C)C2C1C)C(=O)OC1OC(COC2OC(CO)C(OC3OC(C)C(O)C(O)C3O)C(O)C2O)C(O)C(O)C1O
INCHIKEY: BNMGUJRJUUDLHW-UHFFFAOYNA-N
Ontology: Triterpene saponins
COLLISIONENERGY: 10
FORMULA: C48H78O20
RETENTIONTIME: 4.893667
IONMODE: Negative
Comment: registered in RIKEN PlaSMA
Num Peaks: 5
973.50507	120
974.50769	43
975.50861	12
1019.4361	8
1019.50909	1000

NAME: Madecassoside
PRECURSORMZ: 973.50136844783
PRECURSORTYPE: [M-H]-
INSTRUMENTTYPE: LC-ESI-QTOF
SMILES: CC1CCC2(CCC3(C)C(=CCC4C5(C)CC(O)C(O)C(C)(CO)C5C(O)CC34C)C2C1C)C(=O)OC1OC(COC2OC(CO)C(OC3OC(C)C(O)C(O)C3O)C(O)C2O)C(O)C(O)C1O
INCHIKEY: BNMGUJRJUUDLHW-UHFFFAOYNA-N
Ontology: Triterpene saponins
COLLISIONENERGY: 10
FORMULA: C48H78O20
RETENTIONTIME: 4.893667
IONMODE: Negative
Comment: registered in RIKEN PlaSMA
Num Peaks: 2
871.46094	110
973.47418	1000

NAME: Madecassoside
PRECURSORMZ: 1019.50684775183
PRECURSORTYPE: [M+FA-H]-
INSTRUMENTTYPE: LC-ESI-QTOF
SMILES: CC1CCC2(CCC3(C)C(=CCC4C5(C)CC(O)C(O)C(C)(CO)C5C(O)CC34C)C2C1C)C(=O)OC1OC(COC2OC(CO)C(OC3OC(C)C(O)C(O)C3O)C(O)C2O)C(O)C(O)C1O
INCHIKEY: BNMGUJRJUUDLHW-UHFFFAOYNA-N
Ontology: Triterpene saponins
COLLISIONENERGY: 30
FORMULA: C48H78O20
RETENTIONTIME: 4.893667
IONMODE: Negative
Comment: registered in RIKEN PlaSMA
Num Peaks: 29
101.02047	17
125.01894	9
143.03339	28
161.04407	96
162.04782	9
163.06172	20
205.0732	7
247.08002	46
265.07959	7
265.0896	18
323.08813	7
323.09995	18
325.11304	18
367.1192	22
367.13287	13
368.13577	8
409.13837	6
469.15515	722
470.15637	125
471.1626	13
503.33807	188
504.33795	56
504.36179	10
505.32617	9
973.50073	1000
974.505	567
975.50787	145
976.50714	35
977.52527	6

NAME: Madecassoside
PRECURSORMZ: 973.50136844783
PRECURSORTYPE: [M-H]-
INSTRUMENTTYPE: LC-ESI-QTOF
SMILES: CC1CCC2(CCC3(C)C(=CCC4C5(C)CC(O)C(O)C(C)(CO)C5C(O)CC34C)C2C1C)C(=O)OC1OC(COC2OC(CO)C(OC3OC(C)C(O)C(O)C3O)C(O)C2O)C(O)C(O)C1O
INCHIKEY: BNMGUJRJUUDLHW-UHFFFAOYNA-N
Ontology: Triterpene saponins
COLLISIONENERGY: 30
FORMULA: C48H78O20
RETENTIONTIME: 4.893667
IONMODE: Negative
Comment: registered in RIKEN PlaSMA
Num Peaks: 16
125.01344	110
125.02091	122
144.0347	152
161.04579	110
179.02049	110
247.08942	128
266.09146	116
266.10471	128
307.10883	122
323.099	128
323.11041	134
469.15472	1000
471.17282	116
503.3287	232
503.34628	530
504.34995	116

NAME: Madecassoside
PRECURSORMZ: 1019.50684775183
PRECURSORTYPE: [M+FA-H]-
INSTRUMENTTYPE: LC-ESI-QTOF
SMILES: CC1CCC2(CCC3(C)C(=CCC4C5(C)CC(O)C(O)C(C)(CO)C5C(O)CC34C)C2C1C)C(=O)OC1OC(COC2OC(CO)C(OC3OC(C)C(O)C(O)C3O)C(O)C2O)C(O)C(O)C1O
INCHIKEY: BNMGUJRJUUDLHW-UHFFFAOYNA-N
Ontology: Triterpene saponins
COLLISIONENERGY: 50
FORMULA: C48H78O20
RETENTIONTIME: 4.893667
IONMODE: Negative
Comment: registered in RIKEN PlaSMA
Num Peaks: 35
89.02209	12
97.02669	15
101.02287	152
103.03954	17
113.02364	19
115.03722	10
119.03266	18
119.03897	9
125.02283	38
131.03304	10
143.03368	52
145.04626	7
161.04407	98
162.04915	10
163.05936	59
179.0495	9
179.05894	10
205.07056	48
221.06644	40
245.06059	6
247.08185	114
248.08356	8
265.0975	7
323.09384	53
324.10062	9
349.10651	7
367.12256	69
368.13062	11
409.13	7
469.15677	46
470.16428	6
503.3364	1000
504.33923	307
505.34351	36
505.35965	9

NAME: Madecassoside
PRECURSORMZ: 973.50136844783
PRECURSORTYPE: [M-H]-
INSTRUMENTTYPE: LC-ESI-QTOF
SMILES: CC1CCC2(CCC3(C)C(=CCC4C5(C)CC(O)C(O)C(C)(CO)C5C(O)CC34C)C2C1C)C(=O)OC1OC(COC2OC(CO)C(OC3OC(C)C(O)C(O)C3O)C(O)C2O)C(O)C(O)C1O
INCHIKEY: BNMGUJRJUUDLHW-UHFFFAOYNA-N
Ontology: Triterpene saponins
COLLISIONENERGY: 50
FORMULA: C48H78O20
RETENTIONTIME: 4.893667
IONMODE: Negative
Comment: registered in RIKEN PlaSMA
Num Peaks: 13
54.7522	114
119.03257	351
125.01962	97
125.02552	119
126.0219	108
143.03494	254
163.06007	103
205.07199	97
238.52158	97
503.32156	314
503.34109	1000
503.36743	119
504.36032	195

NAME: Madecassoside
PRECURSORMZ: 1019.50684775183
PRECURSORTYPE: [M+FA-H]-
INSTRUMENTTYPE: LC-ESI-QTOF
SMILES: CC1CCC2(CCC3(C)C(=CCC4C5(C)CC(O)C(O)C(C)(CO)C5C(O)CC34C)C2C1C)C(=O)OC1OC(COC2OC(CO)C(OC3OC(C)C(O)C(O)C3O)C(O)C2O)C(O)C(O)C1O
INCHIKEY: BNMGUJRJUUDLHW-UHFFFAOYNA-N
Ontology: Triterpene saponins
COLLISIONENERGY: 10
FORMULA: C48H78O20
RETENTIONTIME: 4.893667
IONMODE: Negative
Comment: registered in RIKEN PlaSMA
Num Peaks: 29
101.02404	17
125.02264	21
143.03186	9
161.0439	96
162.04829	7
163.06305	20
221.07335	11
247.08232	68
265.09088	37
289.52313	6
323.09784	34
367.11276	12
367.12292	30
368.12463	13
409.12802	10
469.15613	527
470.15561	45
470.18033	6
471.16949	6
503.33728	257
504.34293	79
505.31937	9
505.35336	10
973.50055	1000
974.50586	479
975.51135	126
976.51837	25
1019.50549	818
1019.59277	6

NAME: Madecassoside
PRECURSORMZ: 973.50136844783
PRECURSORTYPE: [M-H]-
INSTRUMENTTYPE: LC-ESI-QTOF
SMILES: CC1CCC2(CCC3(C)C(=CCC4C5(C)CC(O)C(O)C(C)(CO)C5C(O)CC34C)C2C1C)C(=O)OC1OC(COC2OC(CO)C(OC3OC(C)C(O)C(O)C3O)C(O)C2O)C(O)C(O)C1O
INCHIKEY: BNMGUJRJUUDLHW-UHFFFAOYNA-N
Ontology: Triterpene saponins
COLLISIONENERGY: 10
FORMULA: C48H78O20
RETENTIONTIME: 4.893667
IONMODE: Negative
Comment: registered in RIKEN PlaSMA
Num Peaks: 6
161.05061	220
215.01361	220
323.10501	244
504.33948	232
973.46692	220
973.50507	1000

NAME: Madecassoside
PRECURSORMZ: 1019.50684775183
PRECURSORTYPE: [M+FA-H]-
INSTRUMENTTYPE: LC-ESI-QTOF
SMILES: CC1CCC2(CCC3(C)C(=CCC4C5(C)CC(O)C(O)C(C)(CO)C5C(O)CC34C)C2C1C)C(=O)OC1OC(COC2OC(CO)C(OC3OC(C)C(O)C(O)C3O)C(O)C2O)C(O)C(O)C1O
INCHIKEY: BNMGUJRJUUDLHW-UHFFFAOYNA-N
Ontology: Triterpene saponins
COLLISIONENERGY: 10
FORMULA: C48H78O20
RETENTIONTIME: 4.893667
IONMODE: Negative
Comment: registered in RIKEN PlaSMA
Num Peaks: 4
973.50116	150
974.50909	55
975.52795	5
1019.50623	1000

NAME: Madecassoside
PRECURSORMZ: 973.50136844783
PRECURSORTYPE: [M-H]-
INSTRUMENTTYPE: LC-ESI-QTOF
SMILES: CC1CCC2(CCC3(C)C(=CCC4C5(C)CC(O)C(O)C(C)(CO)C5C(O)CC34C)C2C1C)C(=O)OC1OC(COC2OC(CO)C(OC3OC(C)C(O)C(O)C3O)C(O)C2O)C(O)C(O)C1O
INCHIKEY: BNMGUJRJUUDLHW-UHFFFAOYNA-N
Ontology: Triterpene saponins
COLLISIONENERGY: 10
FORMULA: C48H78O20
RETENTIONTIME: 4.893667
IONMODE: Negative
Comment: registered in RIKEN PlaSMA
Num Peaks: 2
503.34067	792
973.5191	1000

NAME: Madecassoside
PRECURSORMZ: 1019.50684775183
PRECURSORTYPE: [M+FA-H]-
INSTRUMENTTYPE: LC-ESI-QTOF
SMILES: CC1CCC2(CCC3(C)C(=CCC4C5(C)CC(O)C(O)C(C)(CO)C5C(O)CC34C)C2C1C)C(=O)OC1OC(COC2OC(CO)C(OC3OC(C)C(O)C(O)C3O)C(O)C2O)C(O)C(O)C1O
INCHIKEY: BNMGUJRJUUDLHW-UHFFFAOYNA-N
Ontology: Triterpene saponins
COLLISIONENERGY: 30
FORMULA: C48H78O20
RETENTIONTIME: 4.893667
IONMODE: Negative
Comment: registered in RIKEN PlaSMA
Num Peaks: 30
101.02341	18
125.02149	19
143.03296	17
143.03917	6
161.04332	91
163.06038	17
205.07343	9
247.07928	49
265.08264	15
265.09372	19
323.08743	17
323.10065	18
325.11487	30
367.12537	38
409.13315	17
451.14026	7
451.15616	7
469.15353	818
470.1615	141
471.15494	22
471.17242	6
503.33911	264
504.33051	41
504.34668	25
505.34906	6
973.5	1000
973.59595	7
974.50458	513
975.50641	155
976.52405	9

NAME: Madecassoside
PRECURSORMZ: 973.50136844783
PRECURSORTYPE: [M-H]-
INSTRUMENTTYPE: LC-ESI-QTOF
SMILES: CC1CCC2(CCC3(C)C(=CCC4C5(C)CC(O)C(O)C(C)(CO)C5C(O)CC34C)C2C1C)C(=O)OC1OC(COC2OC(CO)C(OC3OC(C)C(O)C(O)C3O)C(O)C2O)C(O)C(O)C1O
INCHIKEY: BNMGUJRJUUDLHW-UHFFFAOYNA-N
Ontology: Triterpene saponins
COLLISIONENERGY: 30
FORMULA: C48H78O20
RETENTIONTIME: 4.893667
IONMODE: Negative
Comment: registered in RIKEN PlaSMA
Num Peaks: 11
115.03481	159
143.03238	204
161.0486	265
163.05986	159
323.1131	230
367.12878	319
469.16309	1000
503.31409	177
503.33554	690
973.49622	159
973.54236	345

NAME: Madecassoside
PRECURSORMZ: 1019.50684775183
PRECURSORTYPE: [M+FA-H]-
INSTRUMENTTYPE: LC-ESI-QTOF
SMILES: CC1CCC2(CCC3(C)C(=CCC4C5(C)CC(O)C(O)C(C)(CO)C5C(O)CC34C)C2C1C)C(=O)OC1OC(COC2OC(CO)C(OC3OC(C)C(O)C(O)C3O)C(O)C2O)C(O)C(O)C1O
INCHIKEY: BNMGUJRJUUDLHW-UHFFFAOYNA-N
Ontology: Triterpene saponins
COLLISIONENERGY: 50
FORMULA: C48H78O20
RETENTIONTIME: 4.893667
IONMODE: Negative
Comment: registered in RIKEN PlaSMA
Num Peaks: 39
59.01191	7
71.01168	8
73.02737	8
85.02745	6
89.02318	8
97.02674	7
101.02274	159
113.02264	23
119.03413	38
125.02318	51
131.03583	6
143.03192	51
145.04129	5
145.05258	6
161.04312	115
162.04607	5
163.06056	71
164.05974	5
179.05559	12
203.05527	8
205.06786	41
205.08047	10
221.06638	31
245.06177	8
247.08044	101
265.09842	7
323.09814	59
324.10184	5
349.11673	9
367.11493	14
367.12546	41
391.12308	6
409.13147	20
469.15268	50
503.33667	1000
504.34067	328
505.32611	13
505.34555	35
506.34341	9

NAME: Madecassoside
PRECURSORMZ: 973.50136844783
PRECURSORTYPE: [M-H]-
INSTRUMENTTYPE: LC-ESI-QTOF
SMILES: CC1CCC2(CCC3(C)C(=CCC4C5(C)CC(O)C(O)C(C)(CO)C5C(O)CC34C)C2C1C)C(=O)OC1OC(COC2OC(CO)C(OC3OC(C)C(O)C(O)C3O)C(O)C2O)C(O)C(O)C1O
INCHIKEY: BNMGUJRJUUDLHW-UHFFFAOYNA-N
Ontology: Triterpene saponins
COLLISIONENERGY: 50
FORMULA: C48H78O20
RETENTIONTIME: 4.893667
IONMODE: Negative
Comment: registered in RIKEN PlaSMA
Num Peaks: 14
59.01279	297
81.03148	189
101.02045	225
131.03986	180
145.04233	297
161.04099	523
175.05745	180
265.08499	162
265.10068	189
323.0961	180
392.12408	162
503.34058	1000
504.34839	243
505.34659	324

NAME: Catechol
PRECURSORMZ: 109.02950294783
PRECURSORTYPE: [M-H]-
INSTRUMENTTYPE: LC-ESI-QTOF
SMILES: OC1=CC=CC=C1O
INCHIKEY: YCIMNLLNPGFGHC-UHFFFAOYSA-N
Ontology: Catechols
COLLISIONENERGY: 10
FORMULA: C6H6O2
RETENTIONTIME: 2.672717
IONMODE: Negative
Comment: registered in RIKEN PlaSMA
Num Peaks: 3
91.01645	102
108.63319	102
109.0273	1000

NAME: isorhamnetin-3-O-rutinoside
PRECURSORMZ: 623.16175854783
PRECURSORTYPE: [M-H]-
INSTRUMENTTYPE: LC-ESI-QTOF
SMILES: COC1=C(O)C=CC(=C1)C1=C(OC2OC(COC3OC(C)C(O)C(O)C3O)C(O)C(O)C2O)C(=O)C2=C(O)C=C(O)C=C2O1
INCHIKEY: UIDGLYUNOUKLBM-UHFFFAOYNA-N
Ontology: Flavonoid-3-O-glycosides
COLLISIONENERGY: 10
FORMULA: C28H32O16
RETENTIONTIME: 4.19645
IONMODE: Negative
Comment: registered in RIKEN PlaSMA
Num Peaks: 20
151.00681	10
243.02687	7
244.03145	6
255.02214	6
255.03252	24
271.01004	5
271.02567	17
272.03275	22
285.04056	6
286.04047	6
287.04556	6
299.0159	100
300.02609	117
301.02032	6
301.03256	19
314.04044	150
315.04977	663
316.05368	116
317.05731	32
623.16113	1000

NAME: Kaempferol-3-O-glucoside
PRECURSORMZ: 447.09328504783
PRECURSORTYPE: [M-H]-
INSTRUMENTTYPE: LC-ESI-QTOF
SMILES: OCC1OC(OC2=C(OC3=CC(O)=CC(O)=C3C2=O)C2=CC=C(O)C=C2)C(O)C(O)C1O
INCHIKEY: JPUKWEQWGBDDQB-UHFFFAOYNA-N
Ontology: Flavonoid-3-O-glycosides
COLLISIONENERGY: 10
FORMULA: C21H20O11
RETENTIONTIME: 4.307533
IONMODE: Negative
Comment: registered in RIKEN PlaSMA
Num Peaks: 20
151.00706	12
213.05383	10
227.03288	247
228.0383	26
228.04968	9
229.04056	7
229.05289	9
239.0434	5
240.03851	7
255.02908	390
256.03464	135
257.03397	11
257.04788	11
259.05399	6
284.03162	424
285.03745	345
286.03973	55
327.0437	15
447.09265	1000
447.1376	8

NAME: Kaempferol-7-O-neohesperidoside
PRECURSORMZ: 593.15119384783
PRECURSORTYPE: [M-H]-
INSTRUMENTTYPE: LC-ESI-QTOF
SMILES: CC1OC(OC2C(O)C(O)C(CO)OC2OC2=CC(O)=C3C(=O)C(O)=C(OC3=C2)C2=CC=C(O)C=C2)C(O)C(O)C1O
INCHIKEY: ZEJXENDZTYVXDP-UHFFFAOYNA-N
Ontology: Flavonoid-7-O-glycosides
COLLISIONENERGY: 10
FORMULA: C27H30O15
RETENTIONTIME: 4.33045
IONMODE: Negative
Comment: registered in RIKEN PlaSMA
Num Peaks: 30
136.01323	5
151.00131	12
152.00357	7
183.04288	6
229.04378	6
251.79727	5
255.03276	5
257.03778	14
284.03351	69
284.04739	10
285.03879	1000
285.28558	6
286.04028	153
286.05618	17
287.03778	21
287.04861	14
297.06952	7
299.05927	5
327.04907	17
327.05972	12
330.0831	5
339.0488	9
413.06995	6
429.08484	21
429.09558	10
437.6586	5
447.08005	8
448.09482	7
459.12674	10
593.15259	754

NAME: Gossypetin-8-C-glucoside
PRECURSORMZ: 479.08311424783
PRECURSORTYPE: [M-H]-
INSTRUMENTTYPE: LC-ESI-QTOF
SMILES: OCC1OC(OC2=C(O)C=C(O)C3=C2OC(=C(O)C3=O)C2=CC(O)=C(O)C=C2)C(O)C(O)C1O
INCHIKEY: SJRXVLUZMMDCNG-UHFFFAOYNA-N
Ontology: Flavonoid-8-O-glycosides
COLLISIONENERGY: 10
FORMULA: C21H20O13
RETENTIONTIME: 4.647167
IONMODE: Negative
Comment: registered in RIKEN PlaSMA
Num Peaks: 19
82.00337	83
127.00287	49
164.98215	47
165.98642	38
166.99927	70
181.90967	53
194.98245	49
194.99385	91
227.04008	49
237.0101	51
272.01807	38
273.0433	66
299.03137	83
301.03174	45
314.00739	68
316.02716	51
317.02765	1000
318.03702	138
479.07349	113

NAME: Genistein
PRECURSORMZ: 269.04554694783
PRECURSORTYPE: [M-H]-
INSTRUMENTTYPE: LC-ESI-QTOF
SMILES: OC1=CC=C(C=C1)C1=COC2=CC(O)=CC(O)=C2C1=O
INCHIKEY: TZBJGXHYKVUXJN-UHFFFAOYSA-N
Ontology: Isoflavones
COLLISIONENERGY: 10
FORMULA: C15H10O5
RETENTIONTIME: 5.922117
IONMODE: Negative
Comment: registered in RIKEN PlaSMA
Num Peaks: 25
91.01747	8
105.03483	5
107.01076	10
132.02135	10
133.0274	56
134.03285	14
135.00595	6
135.04402	14
151.00246	6
155.05034	6
157.06181	6
159.04286	23
173.05876	7
180.05627	17
181.06317	27
183.04326	26
196.05142	14
197.05933	11
201.0554	15
213.05554	6
224.04427	17
225.05307	15
268.04065	7
269.04355	1000
269.0907	9

NAME: isorhamnetin
PRECURSORMZ: 315.05102624783
PRECURSORTYPE: [M-H]-
INSTRUMENTTYPE: LC-ESI-QTOF
SMILES: COC1=C(O)C=CC(=C1)C1=C(O)C(=O)C2=C(O)C=C(O)C=C2O1
INCHIKEY: IZQSVPBOUDKVDZ-UHFFFAOYSA-N
Ontology: Flavonols
COLLISIONENERGY: 10
FORMULA: C16H12O7
RETENTIONTIME: 6.140617
IONMODE: Negative
Comment: registered in RIKEN PlaSMA
Num Peaks: 51
63.02309	14
65.00211	5
107.01228	57
108.01546	11
108.02365	18
121.99934	6
124.01919	13
148.01427	46
151.00331	153
151.9996	6
152.00897	12
158.03731	7
163.00096	40
163.00995	7
164.01007	63
165.01755	6
171.04613	6
186.02448	6
187.03218	6
188.04854	6
192.00217	18
198.03545	6
199.04324	10
200.04849	9
201.02292	9
202.02673	9
211.0403	10
215.03168	10
216.04002	7
227.03001	40
227.04103	14
228.03163	10
242.01868	6
243.02888	15
244.03619	7
244.0451	5
255.02699	23
256.02786	10
270.00943	5
271.02237	32
272.02325	27
283.01929	13
299.02524	10
300.02545	738
301.02509	82
301.03925	63
302.02478	7
303.03168	10
313.03076	10
314.04758	8
315.04883	1000

NAME: Catechol
PRECURSORMZ: 109.02950294783
PRECURSORTYPE: [M-H]-
INSTRUMENTTYPE: LC-ESI-QTOF
SMILES: OC1=CC=CC=C1O
INCHIKEY: YCIMNLLNPGFGHC-UHFFFAOYSA-N
Ontology: Catechols
COLLISIONENERGY: 10
FORMULA: C6H6O2
RETENTIONTIME: 2.672717
IONMODE: Negative
Comment: registered in RIKEN PlaSMA
Num Peaks: 3
81.03191	52
108.02049	65
109.02822	1000

NAME: isorhamnetin-3-O-rutinoside
PRECURSORMZ: 623.16175854783
PRECURSORTYPE: [M-H]-
INSTRUMENTTYPE: LC-ESI-QTOF
SMILES: COC1=C(O)C=CC(=C1)C1=C(OC2OC(COC3OC(C)C(O)C(O)C3O)C(O)C(O)C2O)C(=O)C2=C(O)C=C(O)C=C2O1
INCHIKEY: UIDGLYUNOUKLBM-UHFFFAOYNA-N
Ontology: Flavonoid-3-O-glycosides
COLLISIONENERGY: 10
FORMULA: C28H32O16
RETENTIONTIME: 4.19645
IONMODE: Negative
Comment: registered in RIKEN PlaSMA
Num Peaks: 2
315.04922	29
623.16321	1000

NAME: Kaempferol-3-O-glucoside
PRECURSORMZ: 447.09328504783
PRECURSORTYPE: [M-H]-
INSTRUMENTTYPE: LC-ESI-QTOF
SMILES: OCC1OC(OC2=C(OC3=CC(O)=CC(O)=C3C2=O)C2=CC=C(O)C=C2)C(O)C(O)C1O
INCHIKEY: JPUKWEQWGBDDQB-UHFFFAOYNA-N
Ontology: Flavonoid-3-O-glycosides
COLLISIONENERGY: 10
FORMULA: C21H20O11
RETENTIONTIME: 4.307533
IONMODE: Negative
Comment: registered in RIKEN PlaSMA
Num Peaks: 4
284.03012	25
285.03931	57
286.04782	9
447.09122	1000

NAME: Kaempferol-7-O-neohesperidoside
PRECURSORMZ: 593.15119384783
PRECURSORTYPE: [M-H]-
INSTRUMENTTYPE: LC-ESI-QTOF
SMILES: CC1OC(OC2C(O)C(O)C(CO)OC2OC2=CC(O)=C3C(=O)C(O)=C(OC3=C2)C2=CC=C(O)C=C2)C(O)C(O)C1O
INCHIKEY: ZEJXENDZTYVXDP-UHFFFAOYNA-N
Ontology: Flavonoid-7-O-glycosides
COLLISIONENERGY: 10
FORMULA: C27H30O15
RETENTIONTIME: 4.33045
IONMODE: Negative
Comment: registered in RIKEN PlaSMA
Num Peaks: 6
285.02603	11
285.04004	67
327.04449	8
483.38	7
593.15021	1000
593.20551	6

NAME: Gossypetin-8-C-glucoside
PRECURSORMZ: 479.08311424783
PRECURSORTYPE: [M-H]-
INSTRUMENTTYPE: LC-ESI-QTOF
SMILES: OCC1OC(OC2=C(O)C=C(O)C3=C2OC(=C(O)C3=O)C2=CC(O)=C(O)C=C2)C(O)C(O)C1O
INCHIKEY: SJRXVLUZMMDCNG-UHFFFAOYNA-N
Ontology: Flavonoid-8-O-glycosides
COLLISIONENERGY: 10
FORMULA: C21H20O13
RETENTIONTIME: 4.647167
IONMODE: Negative
Comment: registered in RIKEN PlaSMA
Num Peaks: 9
107.85461	58
194.98488	65
305.04004	33
317.03	1000
318.02438	95
319.02759	32
320.0271	45
479.05139	60
479.0899	435

NAME: Genistein
PRECURSORMZ: 269.04554694783
PRECURSORTYPE: [M-H]-
INSTRUMENTTYPE: LC-ESI-QTOF
SMILES: OC1=CC=C(C=C1)C1=COC2=CC(O)=CC(O)=C2C1=O
INCHIKEY: TZBJGXHYKVUXJN-UHFFFAOYSA-N
Ontology: Isoflavones
COLLISIONENERGY: 10
FORMULA: C15H10O5
RETENTIONTIME: 5.922117
IONMODE: Negative
Comment: registered in RIKEN PlaSMA
Num Peaks: 2
269.04379	1000
269.08923	11

NAME: isorhamnetin
PRECURSORMZ: 315.05102624783
PRECURSORTYPE: [M-H]-
INSTRUMENTTYPE: LC-ESI-QTOF
SMILES: COC1=C(O)C=CC(=C1)C1=C(O)C(=O)C2=C(O)C=C(O)C=C2O1
INCHIKEY: IZQSVPBOUDKVDZ-UHFFFAOYSA-N
Ontology: Flavonols
COLLISIONENERGY: 10
FORMULA: C16H12O7
RETENTIONTIME: 6.140617
IONMODE: Negative
Comment: registered in RIKEN PlaSMA
Num Peaks: 6
151.00163	5
300.02768	110
301.03207	25
313.03494	7
314.03754	15
315.05057	1000

NAME: isorhamnetin-3-O-rutinoside
PRECURSORMZ: 623.16175854783
PRECURSORTYPE: [M-H]-
INSTRUMENTTYPE: LC-ESI-QTOF
SMILES: COC1=C(O)C=CC(=C1)C1=C(OC2OC(COC3OC(C)C(O)C(O)C3O)C(O)C(O)C2O)C(=O)C2=C(O)C=C(O)C=C2O1
INCHIKEY: UIDGLYUNOUKLBM-UHFFFAOYNA-N
Ontology: Flavonoid-3-O-glycosides
COLLISIONENERGY: 30
FORMULA: C28H32O16
RETENTIONTIME: 4.19645
IONMODE: Negative
Comment: registered in RIKEN PlaSMA
Num Peaks: 17
151.00275	16
243.02434	5
257.03915	7
271.02472	17
272.03043	11
285.03741	9
287.05197	13
299.01495	58
300.02359	106
301.02731	24
314.04214	344
315.04852	1000
316.0517	206
317.05109	42
357.05396	8
357.06818	9
623.15686	38

NAME: Kaempferol-3-O-glucoside
PRECURSORMZ: 447.09328504783
PRECURSORTYPE: [M-H]-
INSTRUMENTTYPE: LC-ESI-QTOF
SMILES: OCC1OC(OC2=C(OC3=CC(O)=CC(O)=C3C2=O)C2=CC=C(O)C=C2)C(O)C(O)C1O
INCHIKEY: JPUKWEQWGBDDQB-UHFFFAOYNA-N
Ontology: Flavonoid-3-O-glycosides
COLLISIONENERGY: 30
FORMULA: C21H20O11
RETENTIONTIME: 4.307533
IONMODE: Negative
Comment: registered in RIKEN PlaSMA
Num Peaks: 27
151.00313	13
162.99933	13
165.01807	6
167.0457	9
174.02975	8
179.00237	6
192.00824	5
211.04286	7
227.03368	464
228.03648	88
228.04893	10
229.03998	12
229.05228	47
239.03734	6
255.02815	1000
256.03247	239
257.03564	64
257.05197	16
258.0481	10
269.04541	6
283.0278	7
284.03122	946
285.0369	378
286.03894	46
287.04803	11
327.04749	8
447.09186	21

NAME: Kaempferol-7-O-neohesperidoside
PRECURSORMZ: 593.15119384783
PRECURSORTYPE: [M-H]-
INSTRUMENTTYPE: LC-ESI-QTOF
SMILES: CC1OC(OC2C(O)C(O)C(CO)OC2OC2=CC(O)=C3C(=O)C(O)=C(OC3=C2)C2=CC=C(O)C=C2)C(O)C(O)C1O
INCHIKEY: ZEJXENDZTYVXDP-UHFFFAOYNA-N
Ontology: Flavonoid-7-O-glycosides
COLLISIONENERGY: 30
FORMULA: C27H30O15
RETENTIONTIME: 4.33045
IONMODE: Negative
Comment: registered in RIKEN PlaSMA
Num Peaks: 22
107.01402	6
150.99709	8
151.00381	8
193.01566	6
211.04114	7
220.3165	7
227.02948	5
235.02608	5
266.15756	5
284.03159	92
284.71921	5
285.03906	1000
286.01834	5
286.04279	179
287.04431	9
287.06287	9
298.05136	8
327.04263	6
358.05386	5
387.07431	7
429.09601	7
447.09122	11

NAME: Gossypetin-8-C-glucoside
PRECURSORMZ: 479.08311424783
PRECURSORTYPE: [M-H]-
INSTRUMENTTYPE: LC-ESI-QTOF
SMILES: OCC1OC(OC2=C(O)C=C(O)C3=C2OC(=C(O)C3=O)C2=CC(O)=C(O)C=C2)C(O)C(O)C1O
INCHIKEY: SJRXVLUZMMDCNG-UHFFFAOYNA-N
Ontology: Flavonoid-8-O-glycosides
COLLISIONENERGY: 30
FORMULA: C21H20O13
RETENTIONTIME: 4.647167
IONMODE: Negative
Comment: registered in RIKEN PlaSMA
Num Peaks: 22
139.00438	135
149.02054	78
166.99457	132
177.01122	66
194.9937	254
199.03651	63
201.05313	88
227.03494	63
229.05174	63
231.02113	113
243.02953	66
245.06529	63
249.03975	63
281.00339	63
281.01407	60
289.03616	201
299.02521	229
300.01135	56
301.01663	63
316.01697	107
317.02606	1000
318.03687	72

NAME: Genistein
PRECURSORMZ: 269.04554694783
PRECURSORTYPE: [M-H]-
INSTRUMENTTYPE: LC-ESI-QTOF
SMILES: OC1=CC=C(C=C1)C1=COC2=CC(O)=CC(O)=C2C1=O
INCHIKEY: TZBJGXHYKVUXJN-UHFFFAOYSA-N
Ontology: Isoflavones
COLLISIONENERGY: 30
FORMULA: C15H10O5
RETENTIONTIME: 5.922117
IONMODE: Negative
Comment: registered in RIKEN PlaSMA
Num Peaks: 131
63.02367	45
65.00173	45
77.04435	5
78.99753	6
83.00966	6
83.01272	14
83.01848	8
89.00574	8
89.03627	15
89.0405	7
90.03974	7
91.01752	84
91.99049	27
91.99536	7
92.01987	17
96.02387	7
102.04755	10
103.05361	5
104.02293	9
105.03268	84
106.80506	5
107.01401	268
108.01136	14
108.023	6
108.9924	7
109.01814	9
113.0377	13
117.03267	53
120.02341	11
129.03006	6
130.04489	39
130.28865	5
131.05086	95
132.02057	237
132.05511	7
132.70184	7
133.02805	1000
133.05609	5
134.03537	164
134.9987	7
135.00945	58
135.04367	233
136.04591	40
141.03664	20
142.04065	9
143.05054	36
144.05191	9
145.06354	18
148.02032	11
151.00243	58
152.004	11
152.05806	6
154.04021	26
154.04721	25
155.04723	157
156.0193	6
156.0518	27
156.06363	18
156.79622	8
156.99887	9
157.0285	180
157.06424	46
157.07689	7
158.03403	22
158.04196	26
159.04398	310
159.06291	6
159.07109	9
160.04648	43
167.04086	6
167.05167	17
168.04034	6
168.05302	9
168.06136	27
169.06151	33
169.06781	78
171.04111	106
172.04987	6
172.06245	6
173.05983	49
180.0538	134
180.06635	11
181.06294	151
182.03227	43
182.0428	16
182.06673	10
183.04506	162
183.06204	8
184.03647	14
184.05032	20
184.65141	9
185.05788	19
186.06114	5
191.46364	16
195.03369	14
195.04752	68
196.05133	75
196.63416	6
196.69453	9
197.05833	44
199.0396	58
200.04764	48
201.05557	85
207.04852	6
208.05186	12
211.02792	6
211.03984	24
211.05663	8
213.04636	14
213.05664	20
213.06525	15
214.05511	11
223.03571	100
224.03818	43
224.04747	137
225.04958	30
225.06206	14
226.05812	8
227.03143	18
227.03964	10
230.02937	8
235.29742	6
238.83217	11
239.02855	20
239.04071	14
240.03543	11
240.04668	49
267.01459	7
267.02588	13
268.04303	7
269.0452	321

NAME: isorhamnetin
PRECURSORMZ: 315.05102624783
PRECURSORTYPE: [M-H]-
INSTRUMENTTYPE: LC-ESI-QTOF
SMILES: COC1=C(O)C=CC(=C1)C1=C(O)C(=O)C2=C(O)C=C(O)C=C2O1
INCHIKEY: IZQSVPBOUDKVDZ-UHFFFAOYSA-N
Ontology: Flavonols
COLLISIONENERGY: 30
FORMULA: C16H12O7
RETENTIONTIME: 6.140617
IONMODE: Negative
Comment: registered in RIKEN PlaSMA
Num Peaks: 165
63.02243	73
65.00175	36
76.02648	8
83.01331	122
84.01473	18
86.51701	10
91.0193	8
92.01752	12
92.02415	8
94.00115	8
95.01575	8
96.02341	20
103.05463	8
103.66115	7
107.0117	636
108.01915	218
109.02406	39
109.03226	7
119.00941	6
120.0231	97
121.99911	30
123.00039	18
124.01064	18
124.01774	69
125.02099	11
127.11786	13
129.02698	9
129.03604	10
135.00458	6
135.01096	20
136.01254	94
136.02162	42
137.01387	7
141.02888	18
145.02199	9
146.03546	24
147.00714	8
148.01067	128
148.01886	148
149.02559	10
149.4818	6
149.98952	25
149.99864	21
150.01184	6
150.02754	7
150.27072	9
150.80841	11
151.00235	1000
151.97313	11
152.00621	132
153.00142	7
153.0159	20
154.37822	6
158.03716	6
159.04317	32
160.0139	6
161.02151	21
161.13968	7
161.83727	8
162.03642	8
163.0025	152
164.00752	265
164.01292	156
165.01718	29
170.03128	6
171.04242	6
172.04599	38
172.05682	20
174.02797	58
175.03354	24
176.00221	8
176.01389	32
177.19876	9
179.00009	14
183.03795	21
183.04494	10
183.10524	9
184.04411	6
184.05594	30
185.02463	8
185.04916	9
186.02396	11
186.03119	9
187.02928	6
187.0399	7
188.03297	7
189.01262	34
189.04253	11
190.02667	7
190.99844	15
191.02719	7
192.00436	42
193.01527	9
198.02435	57
199.03084	8
199.04076	32
199.04929	14
200.04309	26
200.05061	24
201.01727	6
201.05305	8
202.02467	25
203.03336	22
210.02921	11
211.03842	71
212.03979	18
214.01752	7
214.02936	8
214.04738	7
215.03606	54
216.00433	27
216.02887	6
216.04639	77
217.01347	9
217.04382	7
220.21561	6
222.61205	8
223.35248	8
226.03377	30
226.96143	8
227.03227	239
228.03166	31
228.04114	26
228.05382	6
229.00926	16
229.04039	16
230.00183	6
230.02592	7
231.02721	10
231.03651	11
232.04388	14
239.02666	14
239.03876	15
241.01582	48
242.01517	78
243.02802	273
243.03851	67
244.03098	92
246.03964	8
251.69235	10
254.01631	9
254.02611	9
255.02325	59
255.0316	158
255.43283	17
256.03751	20
256.57266	7
257.02463	8
257.04431	6
271.0228	383
272.02975	47
272.39044	10
273.0293	39
273.47186	11
282.01971	17
283.02304	154
284.02557	21
284.0365	34
299.01035	19
299.01978	59
300.02539	781
300.05301	8
300.0882	12
301.02811	152
302.0361	8

NAME: isorhamnetin-3-O-rutinoside
PRECURSORMZ: 623.16175854783
PRECURSORTYPE: [M-H]-
INSTRUMENTTYPE: LC-ESI-QTOF
SMILES: COC1=C(O)C=CC(=C1)C1=C(OC2OC(COC3OC(C)C(O)C(O)C3O)C(O)C(O)C2O)C(=O)C2=C(O)C=C(O)C=C2O1
INCHIKEY: UIDGLYUNOUKLBM-UHFFFAOYNA-N
Ontology: Flavonoid-3-O-glycosides
COLLISIONENERGY: 50
FORMULA: C28H32O16
RETENTIONTIME: 4.19645
IONMODE: Negative
Comment: registered in RIKEN PlaSMA
Num Peaks: 100
64.99886	6
95.97054	5
109.02885	5
129.78027	5
135.0076	16
148.01079	7
150.02866	7
151.00139	27
151.01117	6
155.04898	6
156.33388	7
159.02399	7
162.99998	5
163.00983	12
163.03926	5
165.01466	6
165.02707	10
169.00938	6
171.04103	13
171.1219	9
172.0462	6
174.03799	7
175.03732	8
178.99673	9
183.04837	18
187.0013	7
187.03954	18
188.04311	7
188.9964	9
189.98576	8
191.0016	28
191.99759	12
192.00531	6
192.01691	6
199.03947	47
201.02094	19
202.03165	15
203.03156	23
211.02763	7
214.02538	5
215.03951	13
216.03993	19
217.01076	5
219.06053	8
219.07031	6
226.0242	15
226.03764	6
227.03339	82
228.03571	14
229.04305	6
242.00479	8
242.02036	40
242.0555	6
243.03004	380
244.03557	120
245.03065	26
245.8775	6
254.02307	27
255.02344	169
255.03276	140
255.93477	8
256.02521	38
256.03287	82
257.03568	19
257.04593	41
259.0452	7
269.04202	5
269.84039	6
270.00937	17
270.02228	29
271.02274	1000
271.06934	9
272.02701	259
272.05023	7
272.13541	5
273.0202	19
273.41949	6
274.39929	12
285.0386	110
285.05676	12
286.0369	27
286.05127	8
287.05142	16
287.06244	16
287.26331	6
299.0174	785
300.02576	674
300.05173	9
301.02948	135
301.04578	17
302.01361	7
302.04312	25
309.98831	5
314.03793	54
314.04944	28
315.05075	155
315.08188	5
316.05096	44
391.11365	5
586.28021	5

NAME: Kaempferol-3-O-glucoside
PRECURSORMZ: 447.09328504783
PRECURSORTYPE: [M-H]-
INSTRUMENTTYPE: LC-ESI-QTOF
SMILES: OCC1OC(OC2=C(OC3=CC(O)=CC(O)=C3C2=O)C2=CC=C(O)C=C2)C(O)C(O)C1O
INCHIKEY: JPUKWEQWGBDDQB-UHFFFAOYNA-N
Ontology: Flavonoid-3-O-glycosides
COLLISIONENERGY: 50
FORMULA: C21H20O11
RETENTIONTIME: 4.307533
IONMODE: Negative
Comment: registered in RIKEN PlaSMA
Num Peaks: 41
117.02784	6
120.02088	8
130.04094	8
132.02324	7
135.00812	18
136.01323	9
137.02283	6
139.05359	8
139.06355	7
143.04434	6
143.16476	7
155.04663	11
157.02965	7
162.99869	6
167.05479	9
169.06361	6
170.03423	6
171.04343	9
182.03535	42
183.0451	156
184.04739	25
185.02051	5
185.04977	6
185.06461	6
187.04524	7
199.03209	12
211.03758	103
213.02	7
227.03371	1000
228.03853	123
229.03963	10
229.04855	6
239.0345	9
240.0442	8
255.02936	515
255.05692	9
256.0354	84
257.03632	17
284.03189	6
285.03146	6
285.04083	6

NAME: Gossypetin-8-C-glucoside
PRECURSORMZ: 479.08311424783
PRECURSORTYPE: [M-H]-
INSTRUMENTTYPE: LC-ESI-QTOF
SMILES: OCC1OC(OC2=C(O)C=C(O)C3=C2OC(=C(O)C3=O)C2=CC(O)=C(O)C=C2)C(O)C(O)C1O
INCHIKEY: SJRXVLUZMMDCNG-UHFFFAOYNA-N
Ontology: Flavonoid-8-O-glycosides
COLLISIONENERGY: 50
FORMULA: C21H20O13
RETENTIONTIME: 4.647167
IONMODE: Negative
Comment: registered in RIKEN PlaSMA
Num Peaks: 16
110.00185	188
111.00914	297
112.00562	194
121.03044	285
138.9975	1000
150.01669	164
153.01642	145
159.03391	152
166.99301	248
171.041	218
174.03893	200
187.04684	206
190.02437	127
208.00922	109
269.00565	200
287.01596	109

NAME: Genistein
PRECURSORMZ: 269.04554694783
PRECURSORTYPE: [M-H]-
INSTRUMENTTYPE: LC-ESI-QTOF
SMILES: OC1=CC=C(C=C1)C1=COC2=CC(O)=CC(O)=C2C1=O
INCHIKEY: TZBJGXHYKVUXJN-UHFFFAOYSA-N
Ontology: Isoflavones
COLLISIONENERGY: 50
FORMULA: C15H10O5
RETENTIONTIME: 5.922117
IONMODE: Negative
Comment: registered in RIKEN PlaSMA
Num Peaks: 51
63.02458	162
63.07193	61
63.99156	51
65.00224	211
72.07513	28
77.0343	26
77.04494	25
83.01498	78
84.77752	26
89.03916	34
91.01731	135
92.02487	66
93.03562	40
104.02621	226
105.03856	108
106.03563	30
107.00848	41
108.02419	24
116.02988	62
117.03572	189
119.05045	32
121.03159	34
129.02943	40
130.03719	55
130.23781	24
131.04094	34
131.05014	26
132.02121	1000
133.02393	319
133.03691	44
134.03639	454
135.04767	175
141.0314	103
151.05446	50
155.04695	24
156.01819	34
156.02591	59
157.02217	67
157.03212	95
158.0309	57
159.04749	80
167.03917	34
168.05829	50
169.02249	37
180.05771	33
182.035	87
184.04547	40
195.04202	34
195.05957	24
210.04048	58
223.04483	30

NAME: isorhamnetin
PRECURSORMZ: 315.05102624783
PRECURSORTYPE: [M-H]-
INSTRUMENTTYPE: LC-ESI-QTOF
SMILES: COC1=C(O)C=CC(=C1)C1=C(O)C(=O)C2=C(O)C=C(O)C=C2O1
INCHIKEY: IZQSVPBOUDKVDZ-UHFFFAOYSA-N
Ontology: Flavonols
COLLISIONENERGY: 50
FORMULA: C16H12O7
RETENTIONTIME: 6.140617
IONMODE: Negative
Comment: registered in RIKEN PlaSMA
Num Peaks: 88
63.02494	261
65.00455	214
68.65692	58
78.01144	83
79.01713	147
83.01138	297
91.01586	114
91.98422	81
94.00234	119
96.37637	78
101.03361	50
103.02656	106
104.02622	131
107.01066	75
107.01861	214
108.01973	1000
109.02782	403
113.03864	72
115.01539	75
116.02723	50
117.03001	175
119.88741	56
120.02207	375
124.0146	114
127.046	111
127.0527	61
129.03206	53
131.04202	56
131.05203	58
132.02525	131
133.0231	144
135.00822	589
136.01295	258
139.05824	56
143.04755	367
144.05257	56
145.02415	72
147.04373	94
148.0143	344
149.01898	83
149.9975	117
153.03426	56
154.0442	114
155.04939	297
158.02899	69
159.03685	81
159.04303	114
160.01692	92
161.02187	50
161.02802	72
163.00275	717
164.00531	86
166.1158	64
168.01921	50
169.02838	153
170.02628	69
171.03653	75
171.04657	261
172.03949	67
172.05023	83
174.02834	119
175.03868	67
181.03078	131
182.03954	164
183.04192	158
183.05092	58
184.04916	69
186.03419	78
187.0356	128
195.04939	119
197.02336	133
198.03343	67
198.04057	108
199.0367	136
199.04311	300
201.01328	122
201.02534	103
213.01633	136
215.03111	178
215.04469	72
218.03838	64
226.02321	111
228.04713	61
241.01314	92
242.01186	94
243.02428	239
243.05026	50
255.03453	67

NAME: Catechol
PRECURSORMZ: 109.02950294783
PRECURSORTYPE: [M-H]-
INSTRUMENTTYPE: LC-ESI-QTOF
SMILES: OC1=CC=CC=C1O
INCHIKEY: YCIMNLLNPGFGHC-UHFFFAOYSA-N
Ontology: Catechols
COLLISIONENERGY: 10
FORMULA: C6H6O2
RETENTIONTIME: 2.672717
IONMODE: Negative
Comment: registered in RIKEN PlaSMA
Num Peaks: 3
108.02302	118
109.02757	1000
109.03857	167

NAME: isorhamnetin-3-O-rutinoside
PRECURSORMZ: 623.16175854783
PRECURSORTYPE: [M-H]-
INSTRUMENTTYPE: LC-ESI-QTOF
SMILES: COC1=C(O)C=CC(=C1)C1=C(OC2OC(COC3OC(C)C(O)C(O)C3O)C(O)C(O)C2O)C(=O)C2=C(O)C=C(O)C=C2O1
INCHIKEY: UIDGLYUNOUKLBM-UHFFFAOYNA-N
Ontology: Flavonoid-3-O-glycosides
COLLISIONENERGY: 10
FORMULA: C28H32O16
RETENTIONTIME: 4.19645
IONMODE: Negative
Comment: registered in RIKEN PlaSMA
Num Peaks: 24
243.02893	13
244.02859	5
255.0244	9
257.04797	6
271.01889	37
271.02826	33
285.02866	8
285.0386	20
287.0513	8
299.01147	13
299.02151	44
300.02277	117
300.03564	36
301.01425	7
313.0412	6
314.04263	189
315.04987	670
315.08081	5
316.05255	154
317.04941	10
317.06378	8
318.06372	6
357.07132	5
623.16223	1000

NAME: Kaempferol-3-O-glucoside
PRECURSORMZ: 447.09328504783
PRECURSORTYPE: [M-H]-
INSTRUMENTTYPE: LC-ESI-QTOF
SMILES: OCC1OC(OC2=C(OC3=CC(O)=CC(O)=C3C2=O)C2=CC=C(O)C=C2)C(O)C(O)C1O
INCHIKEY: JPUKWEQWGBDDQB-UHFFFAOYNA-N
Ontology: Flavonoid-3-O-glycosides
COLLISIONENERGY: 10
FORMULA: C21H20O11
RETENTIONTIME: 4.307533
IONMODE: Negative
Comment: registered in RIKEN PlaSMA
Num Peaks: 25
151.00351	12
162.99849	6
178.99409	9
181.015	5
183.04021	6
185.05901	9
211.03717	11
217.04756	6
227.03456	245
228.03859	19
229.04712	12
255.02882	379
256.03021	77
256.04144	58
257.03912	19
257.04828	9
258.04556	9
284.03107	483
285.03882	292
286.03815	27
287.03986	6
327.04559	6
327.05521	8
362.50739	6
447.09293	1000

NAME: Kaempferol-7-O-neohesperidoside
PRECURSORMZ: 593.15119384783
PRECURSORTYPE: [M-H]-
INSTRUMENTTYPE: LC-ESI-QTOF
SMILES: CC1OC(OC2C(O)C(O)C(CO)OC2OC2=CC(O)=C3C(=O)C(O)=C(OC3=C2)C2=CC=C(O)C=C2)C(O)C(O)C1O
INCHIKEY: ZEJXENDZTYVXDP-UHFFFAOYNA-N
Ontology: Flavonoid-7-O-glycosides
COLLISIONENERGY: 10
FORMULA: C27H30O15
RETENTIONTIME: 4.33045
IONMODE: Negative
Comment: registered in RIKEN PlaSMA
Num Peaks: 31
148.63715	7
150.99831	15
151.00919	24
179.90294	7
193.01561	6
200.71924	6
215.03793	5
257.03696	5
276.50378	10
277.66306	7
284.03094	67
285.03903	1000
286.02435	13
286.04404	148
287.03052	7
287.04449	20
302.72775	6
305.38144	7
308.6817	6
326.48779	6
327.04697	27
328.06329	15
353.0733	6
411.07919	6
434.35309	6
448.09543	6
448.11081	8
459.11429	14
473.10901	9
592.3291	6
593.14966	718

NAME: Gossypetin-8-C-glucoside
PRECURSORMZ: 479.08311424783
PRECURSORTYPE: [M-H]-
INSTRUMENTTYPE: LC-ESI-QTOF
SMILES: OCC1OC(OC2=C(O)C=C(O)C3=C2OC(=C(O)C3=O)C2=CC(O)=C(O)C=C2)C(O)C(O)C1O
INCHIKEY: SJRXVLUZMMDCNG-UHFFFAOYNA-N
Ontology: Flavonoid-8-O-glycosides
COLLISIONENERGY: 10
FORMULA: C21H20O13
RETENTIONTIME: 4.647167
IONMODE: Negative
Comment: registered in RIKEN PlaSMA
Num Peaks: 13
125.15694	40
138.99731	36
166.99564	42
177.01776	44
245.00703	44
245.04117	38
274.66095	35
299.01352	36
316.02765	51
316.58267	38
317.02808	1000
318.03473	220
479.08597	42

NAME: Genistein
PRECURSORMZ: 269.04554694783
PRECURSORTYPE: [M-H]-
INSTRUMENTTYPE: LC-ESI-QTOF
SMILES: OC1=CC=C(C=C1)C1=COC2=CC(O)=CC(O)=C2C1=O
INCHIKEY: TZBJGXHYKVUXJN-UHFFFAOYSA-N
Ontology: Isoflavones
COLLISIONENERGY: 10
FORMULA: C15H10O5
RETENTIONTIME: 5.922117
IONMODE: Negative
Comment: registered in RIKEN PlaSMA
Num Peaks: 25
91.01724	9
107.01086	14
132.02	14
133.02898	54
134.03183	11
150.99783	5
157.02716	7
157.06323	7
159.04367	24
169.06136	6
180.05666	22
181.06293	26
181.06874	11
183.04347	16
196.0482	10
197.05722	8
199.0408	9
201.05392	17
213.05301	7
224.04208	9
224.05168	12
225.05455	19
240.04152	5
269.04391	1000
269.08917	14

NAME: isorhamnetin
PRECURSORMZ: 315.05102624783
PRECURSORTYPE: [M-H]-
INSTRUMENTTYPE: LC-ESI-QTOF
SMILES: COC1=C(O)C=CC(=C1)C1=C(O)C(=O)C2=C(O)C=C(O)C=C2O1
INCHIKEY: IZQSVPBOUDKVDZ-UHFFFAOYSA-N
Ontology: Flavonols
COLLISIONENERGY: 10
FORMULA: C16H12O7
RETENTIONTIME: 6.140617
IONMODE: Negative
Comment: registered in RIKEN PlaSMA
Num Peaks: 49
63.02474	5
80.02332	9
107.01431	46
108.02036	18
120.01975	10
122.00185	5
124.0147	15
136.01527	15
148.0135	42
149.9964	19
151.00206	132
152.00768	16
159.04111	8
163.00162	51
164.00989	50
165.01733	7
174.02574	7
183.04283	17
188.05559	7
192.00369	5
192.00995	15
199.03796	5
211.03094	6
211.05	5
215.02762	8
216.04419	8
227.02614	8
227.03296	14
228.04005	18
229.00995	6
241.0135	5
242.01631	12
243.02574	31
244.02795	14
255.0271	35
255.04057	6
256.03589	10
270.00473	6
271.02481	73
272.03137	21
282.01569	6
283.02325	31
299.02271	7
300.02631	633
301.03073	134
302.02637	10
313.03662	10
314.03604	19
315.04996	1000

NAME: Catechol
PRECURSORMZ: 109.02950294783
PRECURSORTYPE: [M-H]-
INSTRUMENTTYPE: LC-ESI-QTOF
SMILES: OC1=CC=CC=C1O
INCHIKEY: YCIMNLLNPGFGHC-UHFFFAOYSA-N
Ontology: Catechols
COLLISIONENERGY: 10
FORMULA: C6H6O2
RETENTIONTIME: 2.672717
IONMODE: Negative
Comment: registered in RIKEN PlaSMA
Num Peaks: 2
108.02141	126
109.02841	1000

NAME: isorhamnetin-3-O-rutinoside
PRECURSORMZ: 623.16175854783
PRECURSORTYPE: [M-H]-
INSTRUMENTTYPE: LC-ESI-QTOF
SMILES: COC1=C(O)C=CC(=C1)C1=C(OC2OC(COC3OC(C)C(O)C(O)C3O)C(O)C(O)C2O)C(=O)C2=C(O)C=C(O)C=C2O1
INCHIKEY: UIDGLYUNOUKLBM-UHFFFAOYNA-N
Ontology: Flavonoid-3-O-glycosides
COLLISIONENERGY: 10
FORMULA: C28H32O16
RETENTIONTIME: 4.19645
IONMODE: Negative
Comment: registered in RIKEN PlaSMA
Num Peaks: 2
315.04797	25
623.15942	1000

NAME: Kaempferol-3-O-glucoside
PRECURSORMZ: 447.09328504783
PRECURSORTYPE: [M-H]-
INSTRUMENTTYPE: LC-ESI-QTOF
SMILES: OCC1OC(OC2=C(OC3=CC(O)=CC(O)=C3C2=O)C2=CC=C(O)C=C2)C(O)C(O)C1O
INCHIKEY: JPUKWEQWGBDDQB-UHFFFAOYNA-N
Ontology: Flavonoid-3-O-glycosides
COLLISIONENERGY: 10
FORMULA: C21H20O11
RETENTIONTIME: 4.307533
IONMODE: Negative
Comment: registered in RIKEN PlaSMA
Num Peaks: 3
284.0307	35
285.03714	53
447.09128	1000

NAME: Kaempferol-7-O-neohesperidoside
PRECURSORMZ: 593.15119384783
PRECURSORTYPE: [M-H]-
INSTRUMENTTYPE: LC-ESI-QTOF
SMILES: CC1OC(OC2C(O)C(O)C(CO)OC2OC2=CC(O)=C3C(=O)C(O)=C(OC3=C2)C2=CC=C(O)C=C2)C(O)C(O)C1O
INCHIKEY: ZEJXENDZTYVXDP-UHFFFAOYNA-N
Ontology: Flavonoid-7-O-glycosides
COLLISIONENERGY: 10
FORMULA: C27H30O15
RETENTIONTIME: 4.33045
IONMODE: Negative
Comment: registered in RIKEN PlaSMA
Num Peaks: 7
285.03781	36
286.04855	12
327.05139	9
444.6691	5
487.8826	6
592.83398	7
593.15125	1000

NAME: Gossypetin-8-C-glucoside
PRECURSORMZ: 479.08311424783
PRECURSORTYPE: [M-H]-
INSTRUMENTTYPE: LC-ESI-QTOF
SMILES: OCC1OC(OC2=C(O)C=C(O)C3=C2OC(=C(O)C3=O)C2=CC(O)=C(O)C=C2)C(O)C(O)C1O
INCHIKEY: SJRXVLUZMMDCNG-UHFFFAOYNA-N
Ontology: Flavonoid-8-O-glycosides
COLLISIONENERGY: 10
FORMULA: C21H20O13
RETENTIONTIME: 4.647167
IONMODE: Negative
Comment: registered in RIKEN PlaSMA
Num Peaks: 4
317.02957	1000
318.03381	225
320.03317	33
479.08972	141

NAME: Genistein
PRECURSORMZ: 269.04554694783
PRECURSORTYPE: [M-H]-
INSTRUMENTTYPE: LC-ESI-QTOF
SMILES: OC1=CC=C(C=C1)C1=COC2=CC(O)=CC(O)=C2C1=O
INCHIKEY: TZBJGXHYKVUXJN-UHFFFAOYSA-N
Ontology: Isoflavones
COLLISIONENERGY: 10
FORMULA: C15H10O5
RETENTIONTIME: 5.922117
IONMODE: Negative
Comment: registered in RIKEN PlaSMA
Num Peaks: 2
269.04379	1000
269.09042	13

NAME: isorhamnetin
PRECURSORMZ: 315.05102624783
PRECURSORTYPE: [M-H]-
INSTRUMENTTYPE: LC-ESI-QTOF
SMILES: COC1=C(O)C=CC(=C1)C1=C(O)C(=O)C2=C(O)C=C(O)C=C2O1
INCHIKEY: IZQSVPBOUDKVDZ-UHFFFAOYSA-N
Ontology: Flavonols
COLLISIONENERGY: 10
FORMULA: C16H12O7
RETENTIONTIME: 6.140617
IONMODE: Negative
Comment: registered in RIKEN PlaSMA
Num Peaks: 6
300.02603	137
301.02863	15
313.0336	14
314.03311	7
314.04318	7
315.04895	1000

NAME: isorhamnetin-3-O-rutinoside
PRECURSORMZ: 623.16175854783
PRECURSORTYPE: [M-H]-
INSTRUMENTTYPE: LC-ESI-QTOF
SMILES: COC1=C(O)C=CC(=C1)C1=C(OC2OC(COC3OC(C)C(O)C(O)C3O)C(O)C(O)C2O)C(=O)C2=C(O)C=C(O)C=C2O1
INCHIKEY: UIDGLYUNOUKLBM-UHFFFAOYNA-N
Ontology: Flavonoid-3-O-glycosides
COLLISIONENERGY: 30
FORMULA: C28H32O16
RETENTIONTIME: 4.19645
IONMODE: Negative
Comment: registered in RIKEN PlaSMA
Num Peaks: 18
151.00667	10
255.02983	6
271.02637	25
272.03397	16
287.05478	7
299.02213	63
300.02747	127
301.02206	5
301.03305	6
301.0448	10
314.04285	317
315.05045	1000
316.05417	161
317.04272	8
317.06155	18
357.06116	6
623.14191	20
623.1629	50

NAME: Kaempferol-3-O-glucoside
PRECURSORMZ: 447.09328504783
PRECURSORTYPE: [M-H]-
INSTRUMENTTYPE: LC-ESI-QTOF
SMILES: OCC1OC(OC2=C(OC3=CC(O)=CC(O)=C3C2=O)C2=CC=C(O)C=C2)C(O)C(O)C1O
INCHIKEY: JPUKWEQWGBDDQB-UHFFFAOYNA-N
Ontology: Flavonoid-3-O-glycosides
COLLISIONENERGY: 30
FORMULA: C21H20O11
RETENTIONTIME: 4.307533
IONMODE: Negative
Comment: registered in RIKEN PlaSMA
Num Peaks: 37
125.02159	10
125.36024	5
136.01599	7
150.99939	17
151.0094	7
162.99956	6
163.00833	7
169.01349	6
185.05965	7
193.011	7
197.0536	8
213.05109	12
227.03424	448
228.02765	15
228.04144	50
229.0488	24
229.05794	6
239.03175	12
239.04222	6
240.04607	7
247.30959	5
255.02814	1000
255.2984	5
256.03485	287
257.03235	29
257.04541	28
258.04572	8
269.04761	8
283.0162	7
284.03177	958
284.05716	8
285.03714	364
286.03989	60
287.05502	6
327.04987	12
447.07471	6
447.09283	11

NAME: Kaempferol-7-O-neohesperidoside
PRECURSORMZ: 593.15119384783
PRECURSORTYPE: [M-H]-
INSTRUMENTTYPE: LC-ESI-QTOF
SMILES: CC1OC(OC2C(O)C(O)C(CO)OC2OC2=CC(O)=C3C(=O)C(O)=C(OC3=C2)C2=CC=C(O)C=C2)C(O)C(O)C1O
INCHIKEY: ZEJXENDZTYVXDP-UHFFFAOYNA-N
Ontology: Flavonoid-7-O-glycosides
COLLISIONENERGY: 30
FORMULA: C27H30O15
RETENTIONTIME: 4.33045
IONMODE: Negative
Comment: registered in RIKEN PlaSMA
Num Peaks: 15
255.02875	5
258.04846	6
284.03348	87
285.03912	1000
285.06186	16
286.04276	194
287.03836	11
327.04337	20
327.05582	5
328.04718	10
339.07928	7
365.74542	6
429.07114	14
593.14264	11
593.16406	9

NAME: Gossypetin-8-C-glucoside
PRECURSORMZ: 479.08311424783
PRECURSORTYPE: [M-H]-
INSTRUMENTTYPE: LC-ESI-QTOF
SMILES: OCC1OC(OC2=C(O)C=C(O)C3=C2OC(=C(O)C3=O)C2=CC(O)=C(O)C=C2)C(O)C(O)C1O
INCHIKEY: SJRXVLUZMMDCNG-UHFFFAOYNA-N
Ontology: Flavonoid-8-O-glycosides
COLLISIONENERGY: 30
FORMULA: C21H20O13
RETENTIONTIME: 4.647167
IONMODE: Negative
Comment: registered in RIKEN PlaSMA
Num Peaks: 25
111.00951	230
138.99838	257
139.00514	224
151.0408	211
166.99661	309
173.05827	132
194.99084	316
198.04073	138
208.98875	125
217.04674	158
230.02646	118
232.02805	145
245.02974	132
245.03793	151
249.04643	204
270.01895	132
271.01678	118
299.01578	132
299.04062	132
300.02429	132
316.02576	132
316.03494	243
317.02585	1000
317.04764	145
396.97339	145

NAME: Genistein
PRECURSORMZ: 269.04554694783
PRECURSORTYPE: [M-H]-
INSTRUMENTTYPE: LC-ESI-QTOF
SMILES: OC1=CC=C(C=C1)C1=COC2=CC(O)=CC(O)=C2C1=O
INCHIKEY: TZBJGXHYKVUXJN-UHFFFAOYSA-N
Ontology: Isoflavones
COLLISIONENERGY: 30
FORMULA: C15H10O5
RETENTIONTIME: 5.922117
IONMODE: Negative
Comment: registered in RIKEN PlaSMA
Num Peaks: 145
63.02216	106
65.00119	43
65.00616	9
67.01929	14
77.03816	6
80.01744	6
83.0086	6
84.01553	5
89.00028	31
89.03874	41
89.9989	5
90.03991	6
91.01756	118
93.03299	5
94.00957	6
99.76324	6
105.03476	93
106.03433	14
107.01239	248
107.04902	11
108.01531	24
108.02259	7
109.0312	27
114.04005	6
117.03339	78
117.75758	5
118.04124	5
119.04811	6
127.05733	6
129.03033	10
129.03825	5
129.06462	12
130.0386	45
131.04747	105
132.01926	195
132.94775	5
133.02771	1000
134.02718	33
134.03413	158
135.00648	72
135.04419	406
136.0056	5
136.03963	5
136.04958	8
139.05865	6
140.10674	5
141.02849	27
141.09976	7
143.04929	23
144.0479	6
144.05727	6
145.06258	21
146.06685	9
149.99046	9
150.99915	37
151.01019	10
151.05197	26
152.05774	7
152.06491	7
153.03267	11
154.03566	13
154.04211	15
155.04924	75
156.05482	47
157.02931	187
157.04727	6
157.06041	27
157.07066	5
158.03853	16
159.04358	301
160.04599	33
161.05324	5
167.04543	31
168.05054	28
169.06123	35
170.04034	5
170.06226	13
171.04155	31
171.06982	5
172.04495	11
173.05074	22
173.05907	47
174.05539	6
174.07115	19
174.84946	6
176.0052	6
176.01192	10
177.03052	11
179.04936	27
180.05615	224
180.07184	5
181.02721	5
181.0614	70
182.0242	8
182.03543	61
182.04672	23
182.06897	5
183.04314	201
183.05392	36
183.07544	9
184.04919	14
185.06085	49
187.03075	5
194.08942	6
195.04251	87
195.06047	7
196.03802	11
196.05241	107
197.02649	6
197.04813	5
197.06259	56
198.03004	22
199.03337	15
200.0381	5
201.04643	27
201.05525	40
202.04854	7
204.03149	7
208.0513	11
210.03003	6
211.03946	35
212.04292	23
213.05197	63
213.0658	22
223.04004	50
224.03987	38
224.04951	74
224.06522	5
225.01093	9
225.04527	5
225.06084	6
226.02808	6
226.05141	11
227.0295	20
237.48537	9
239.03436	16
240.03712	27
240.04903	16
241.06244	5
242.05257	6
259.71692	6
267.02698	5
268.03705	6
269.04129	263
269.11963	6

NAME: isorhamnetin
PRECURSORMZ: 315.05102624783
PRECURSORTYPE: [M-H]-
INSTRUMENTTYPE: LC-ESI-QTOF
SMILES: COC1=C(O)C=CC(=C1)C1=C(O)C(=O)C2=C(O)C=C(O)C=C2O1
INCHIKEY: IZQSVPBOUDKVDZ-UHFFFAOYSA-N
Ontology: Flavonols
COLLISIONENERGY: 30
FORMULA: C16H12O7
RETENTIONTIME: 6.140617
IONMODE: Negative
Comment: registered in RIKEN PlaSMA
Num Peaks: 158
63.02213	68
65.0034	45
65.57588	6
82.00331	14
83.01131	131
83.02106	12
85.85486	10
92.02348	21
94.00408	24
96.01954	10
104.46557	11
107.0133	552
108.02013	144
108.0294	7
109.02581	10
109.03138	13
116.06094	8
119.00974	31
120.02064	55
122.0016	56
124.01325	62
126.01524	8
129.06122	8
132.02446	7
133.01723	7
133.05013	11
135.00327	37
135.01096	14
136.01396	171
136.02751	11
137.02437	14
141.02704	10
142.04059	10
145.02654	6
146.03705	18
147.00978	13
148.01463	295
148.04982	6
149.01634	25
149.99287	68
150.3528	7
151.00273	1000
151.13002	10
151.99432	8
152.00681	149
152.02167	9
153.01486	10
153.03735	12
156.0569	9
157.05914	10
158.03491	7
158.8649	7
159.04024	27
160.05281	14
160.42479	10
161.02644	8
161.9942	11
162.02721	25
163.00293	281
163.03848	7
164.00964	333
164.02324	25
165.009	24
165.01985	22
169.05537	11
170.04184	32
171.03798	8
172.01694	9
172.02501	15
172.05669	6
173.02718	23
173.98932	13
174.02341	23
174.03789	7
176.00946	17
176.05003	7
178.2683	11
179.00098	8
182.04517	11
182.81105	6
183.03818	35
183.04599	26
183.0564	21
183.74828	6
184.04759	10
185.01726	8
186.03085	32
187.03629	16
188.05188	17
189.01492	25
189.3407	8
190.02045	13
192.00348	48
192.01112	12
197.0309	10
198.02155	10
199.03253	27
199.04268	30
200.04144	31
200.05119	14
201.01544	24
201.04936	18
202.01775	6
202.03343	17
203.01767	7
203.0316	50
204.04039	28
211.0376	12
215.022	11
215.03619	64
216.03783	51
216.04869	26
217.0397	7
226.01851	16
226.02684	7
227.034	217
227.46712	7
228.03702	74
228.06404	22
229.01357	18
229.02602	6
229.05453	12
230.01831	7
237.55511	8
238.59467	8
239.03993	9
241.01178	39
242.01044	10
242.02165	6
242.94194	8
243.02893	251
244.03009	32
244.04076	23
244.04851	8
245.03838	7
255.02614	171
255.04123	37
257.00513	7
257.05084	9
263.68777	7
270.01569	19
270.91623	6
271.02438	321
272.03546	65
273.02734	17
282.02487	7
283.02335	221
283.03412	54
284.01562	10
284.03668	56
284.06107	13
285.03442	15
285.04926	10
299.01245	21
299.02505	22
300.02509	620
301.02771	160
302.02917	7

NAME: isorhamnetin-3-O-rutinoside
PRECURSORMZ: 623.16175854783
PRECURSORTYPE: [M-H]-
INSTRUMENTTYPE: LC-ESI-QTOF
SMILES: COC1=C(O)C=CC(=C1)C1=C(OC2OC(COC3OC(C)C(O)C(O)C3O)C(O)C(O)C2O)C(=O)C2=C(O)C=C(O)C=C2O1
INCHIKEY: UIDGLYUNOUKLBM-UHFFFAOYNA-N
Ontology: Flavonoid-3-O-glycosides
COLLISIONENERGY: 50
FORMULA: C28H32O16
RETENTIONTIME: 4.19645
IONMODE: Negative
Comment: registered in RIKEN PlaSMA
Num Peaks: 83
61.30522	6
108.01826	11
117.03009	7
119.0501	6
147.00827	6
151.00339	47
153.02162	11
163.00298	21
164.00517	6
166.0961	7
175.03323	12
176.04483	5
183.75027	8
186.76678	6
199.0372	28
199.04663	14
200.03433	8
201.00732	6
202.01717	9
203.04269	5
204.04092	9
206.58936	8
209.02335	5
211.03185	15
214.01877	5
215.02994	7
215.03688	16
226.02547	12
227.03497	61
228.03653	31
230.01785	5
230.02463	12
232.05025	6
240.03728	6
242.02711	22
242.05421	6
243.02771	349
244.03401	81
245.04979	6
248.02011	7
254.01434	31
255.02779	278
255.04176	39
256.02731	43
257.03732	28
257.0484	42
258.01709	14
258.04578	14
270.00876	59
270.01755	19
270.28027	7
271.02298	1000
271.98688	7
272.03098	130
272.04059	32
273.28241	8
274.03146	6
278.83646	9
283.02704	11
284.03287	7
285.03815	154
286.03702	9
286.04901	28
287.0509	11
287.06039	9
288.05844	21
299.01797	835
300.02527	729
300.79462	6
301.00693	6
301.01974	25
301.03259	82
302.04541	10
314.02502	11
314.04321	52
315.04324	38
315.05566	76
316.04166	11
316.06122	9
316.67529	6
317.0463	14
318.0578	6
402.78992	8

NAME: Kaempferol-3-O-glucoside
PRECURSORMZ: 447.09328504783
PRECURSORTYPE: [M-H]-
INSTRUMENTTYPE: LC-ESI-QTOF
SMILES: OCC1OC(OC2=C(OC3=CC(O)=CC(O)=C3C2=O)C2=CC=C(O)C=C2)C(O)C(O)C1O
INCHIKEY: JPUKWEQWGBDDQB-UHFFFAOYNA-N
Ontology: Flavonoid-3-O-glycosides
COLLISIONENERGY: 50
FORMULA: C21H20O11
RETENTIONTIME: 4.307533
IONMODE: Negative
Comment: registered in RIKEN PlaSMA
Num Peaks: 29
107.01215	15
109.03232	7
132.02417	8
135.00682	13
137.02611	7
139.05396	7
156.0582	17
159.0394	5
167.0482	29
171.04276	10
181.02953	8
182.03508	44
183.04303	141
183.04982	52
184.04707	25
185.02332	47
199.04347	10
200.04643	7
210.01952	5
210.03006	7
211.03906	102
213.05212	8
226.03259	10
227.03311	1000
228.03578	151
229.04323	18
255.0287	568
256.03058	107
257.03946	20

NAME: Kaempferol-7-O-neohesperidoside
PRECURSORMZ: 593.15119384783
PRECURSORTYPE: [M-H]-
INSTRUMENTTYPE: LC-ESI-QTOF
SMILES: CC1OC(OC2C(O)C(O)C(CO)OC2OC2=CC(O)=C3C(=O)C(O)=C(OC3=C2)C2=CC=C(O)C=C2)C(O)C(O)C1O
INCHIKEY: ZEJXENDZTYVXDP-UHFFFAOYNA-N
Ontology: Flavonoid-7-O-glycosides
COLLISIONENERGY: 50
FORMULA: C27H30O15
RETENTIONTIME: 4.33045
IONMODE: Negative
Comment: registered in RIKEN PlaSMA
Num Peaks: 67
83.0139	11
93.03642	8
107.01255	62
108.0153	25
131.05032	18
132.02151	12
134.02914	9
135.00983	10
136.01369	17
143.04674	11
149.02168	13
149.98869	8
149.99864	20
151.00143	171
152.00734	20
153.04057	8
154.03928	10
155.04802	15
158.03323	7
163.00719	29
164.00687	8
165.01601	19
167.04774	11
167.19681	8
169.06729	12
171.03783	13
173.01392	9
183.0294	8
183.04013	8
184.05293	23
185.05589	10
185.06615	14
186.06898	13
187.03558	9
188.04474	9
189.0509	10
195.04474	18
198.02937	11
199.04112	14
201.05542	39
208.65892	8
211.0351	26
213.03961	10
214.02927	10
215.02701	9
227.02907	24
227.03621	10
229.04507	8
229.0659	8
239.01822	7
239.03654	8
240.04152	10
241.05002	13
242.05421	9
255.01518	20
255.02657	8
257.04089	57
257.05252	15
269.04926	13
283.02158	10
284.01477	22
284.03314	188
285.03851	1000
286.04352	179
287.04089	21
298.92444	11
414.68195	9

NAME: Gossypetin-8-C-glucoside
PRECURSORMZ: 479.08311424783
PRECURSORTYPE: [M-H]-
INSTRUMENTTYPE: LC-ESI-QTOF
SMILES: OCC1OC(OC2=C(O)C=C(O)C3=C2OC(=C(O)C3=O)C2=CC(O)=C(O)C=C2)C(O)C(O)C1O
INCHIKEY: SJRXVLUZMMDCNG-UHFFFAOYNA-N
Ontology: Flavonoid-8-O-glycosides
COLLISIONENERGY: 50
FORMULA: C21H20O13
RETENTIONTIME: 4.647167
IONMODE: Negative
Comment: registered in RIKEN PlaSMA
Num Peaks: 10
95.0165	368
109.99489	316
111.00326	1000
124.98163	474
139.0029	456
149.02762	544
151.00882	386
159.04172	386
189.01312	456
216.04362	351

NAME: Genistein
PRECURSORMZ: 269.04554694783
PRECURSORTYPE: [M-H]-
INSTRUMENTTYPE: LC-ESI-QTOF
SMILES: OC1=CC=C(C=C1)C1=COC2=CC(O)=CC(O)=C2C1=O
INCHIKEY: TZBJGXHYKVUXJN-UHFFFAOYSA-N
Ontology: Isoflavones
COLLISIONENERGY: 50
FORMULA: C15H10O5
RETENTIONTIME: 5.922117
IONMODE: Negative
Comment: registered in RIKEN PlaSMA
Num Peaks: 37
65.0014	66
65.73112	43
71.40335	43
78.04065	45
89.03494	38
89.04222	43
91.01493	107
91.01953	45
92.02783	53
105.03379	88
107.01726	53
115.05138	49
117.03305	139
117.03941	62
130.03877	98
131.45824	38
132.02231	1000
133.0262	226
133.03162	325
134.03482	312
135.04254	147
135.04756	51
139.0573	51
141.02765	49
141.03528	41
143.04335	51
151.00244	53
152.00754	43
155.0493	81
156.02094	109
159.03554	56
159.0419	51
183.04033	41
196.05376	58
211.04796	43
223.03603	45
224.00525	43

NAME: isorhamnetin
PRECURSORMZ: 315.05102624783
PRECURSORTYPE: [M-H]-
INSTRUMENTTYPE: LC-ESI-QTOF
SMILES: COC1=C(O)C=CC(=C1)C1=C(O)C(=O)C2=C(O)C=C(O)C=C2O1
INCHIKEY: IZQSVPBOUDKVDZ-UHFFFAOYSA-N
Ontology: Flavonols
COLLISIONENERGY: 50
FORMULA: C16H12O7
RETENTIONTIME: 6.140617
IONMODE: Negative
Comment: registered in RIKEN PlaSMA
Num Peaks: 82
63.02458	289
65.00211	73
65.00641	45
81.00971	50
83.01669	168
91.01541	75
91.01981	60
95.00987	101
95.01491	136
96.0143	73
96.02086	60
97.02298	48
97.0286	90
107.01492	88
108.0203	1000
109.02174	83
109.03098	48
113.04113	55
117.02794	58
117.0351	158
118.03725	80
119.00986	141
120.0218	108
122.00168	53
125.03893	90
129.03307	63
130.04402	106
133.02718	121
134.03802	63
134.94762	85
135.0063	188
136.01909	206
142.039	50
143.0434	88
143.05164	116
145.02861	259
145.0417	50
147.01732	63
147.03954	60
148.01202	317
148.02	284
149.0498	88
150.99997	50
154.04225	78
155.04584	211
157.01764	50
157.02798	55
159.04286	204
161.02391	133
163.00475	317
163.02628	60
167.04579	50
170.03546	58
171.04497	118
172.04265	50
173.01851	151
174.02214	68
174.03111	48
175.03745	63
182.03552	324
183.03078	106
183.04556	58
184.05055	50
185.01993	80
185.02681	65
187.03917	269
188.03705	95
198.02844	352
199.05247	45
200.0096	45
200.06252	65
201.0202	78
202.01701	60
202.02405	73
214.03111	128
215.03348	58
216.0262	45
226.01297	85
242.01596	123
245.03336	60
256.03375	68
271.0415	63

NAME: Catechol
PRECURSORMZ: 109.02950294783
PRECURSORTYPE: [M-H]-
INSTRUMENTTYPE: LC-ESI-QTOF
SMILES: OC1=CC=CC=C1O
INCHIKEY: YCIMNLLNPGFGHC-UHFFFAOYSA-N
Ontology: Catechols
COLLISIONENERGY: 10
FORMULA: C6H6O2
RETENTIONTIME: 2.672717
IONMODE: Negative
Comment: registered in RIKEN PlaSMA
Num Peaks: 3
108.01475	101
108.0197	131
109.0259	1000

NAME: isorhamnetin-3-O-rutinoside
PRECURSORMZ: 623.16175854783
PRECURSORTYPE: [M-H]-
INSTRUMENTTYPE: LC-ESI-QTOF
SMILES: COC1=C(O)C=CC(=C1)C1=C(OC2OC(COC3OC(C)C(O)C(O)C3O)C(O)C(O)C2O)C(=O)C2=C(O)C=C(O)C=C2O1
INCHIKEY: UIDGLYUNOUKLBM-UHFFFAOYNA-N
Ontology: Flavonoid-3-O-glycosides
COLLISIONENERGY: 10
FORMULA: C28H32O16
RETENTIONTIME: 4.19645
IONMODE: Negative
Comment: registered in RIKEN PlaSMA
Num Peaks: 21
151.00313	12
243.02922	7
255.02377	6
255.03502	6
271.02173	15
271.03131	14
272.03299	9
285.03152	9
287.04779	7
299.0195	132
300.02457	127
301.01929	10
301.03607	17
302.02603	5
313.03912	8
314.03989	190
315.04999	680
316.05133	113
317.05249	21
357.06317	13
623.16095	1000

NAME: Kaempferol-3-O-glucoside
PRECURSORMZ: 447.09328504783
PRECURSORTYPE: [M-H]-
INSTRUMENTTYPE: LC-ESI-QTOF
SMILES: OCC1OC(OC2=C(OC3=CC(O)=CC(O)=C3C2=O)C2=CC=C(O)C=C2)C(O)C(O)C1O
INCHIKEY: JPUKWEQWGBDDQB-UHFFFAOYNA-N
Ontology: Flavonoid-3-O-glycosides
COLLISIONENERGY: 10
FORMULA: C21H20O11
RETENTIONTIME: 4.307533
IONMODE: Negative
Comment: registered in RIKEN PlaSMA
Num Peaks: 25
163.00473	10
178.99841	10
196.0527	5
212.04163	5
227.03267	253
228.03261	26
228.0452	19
229.04796	16
240.03485	8
255.02762	401
256.02563	51
256.03625	48
257.02954	7
257.04507	14
258.03632	9
259.05185	6
283.02008	6
283.05682	7
284.03174	490
285.03745	289
286.04034	48
287.05264	10
327.05893	19
447.09338	1000
447.13617	6

NAME: Kaempferol-7-O-neohesperidoside
PRECURSORMZ: 593.15119384783
PRECURSORTYPE: [M-H]-
INSTRUMENTTYPE: LC-ESI-QTOF
SMILES: CC1OC(OC2C(O)C(O)C(CO)OC2OC2=CC(O)=C3C(=O)C(O)=C(OC3=C2)C2=CC=C(O)C=C2)C(O)C(O)C1O
INCHIKEY: ZEJXENDZTYVXDP-UHFFFAOYNA-N
Ontology: Flavonoid-7-O-glycosides
COLLISIONENERGY: 10
FORMULA: C27H30O15
RETENTIONTIME: 4.33045
IONMODE: Negative
Comment: registered in RIKEN PlaSMA
Num Peaks: 32
188.04721	8
192.00706	7
205.01396	9
235.02919	8
235.20255	10
242.04655	7
255.02382	7
267.03305	8
283.022	8
284.03525	36
285.03894	1000
286.03949	151
286.04941	63
287.04584	13
295.66327	5
309.04037	11
327.04654	30
327.06537	8
328.06137	8
329.05286	9
358.27808	9
369.05096	6
370.06262	6
426.47043	5
429.08228	13
460.13126	6
473.09274	12
501.01706	5
559.01166	8
581.10565	6
592.79108	5
593.15051	722

NAME: Gossypetin-8-C-glucoside
PRECURSORMZ: 479.08311424783
PRECURSORTYPE: [M-H]-
INSTRUMENTTYPE: LC-ESI-QTOF
SMILES: OCC1OC(OC2=C(O)C=C(O)C3=C2OC(=C(O)C3=O)C2=CC(O)=C(O)C=C2)C(O)C(O)C1O
INCHIKEY: SJRXVLUZMMDCNG-UHFFFAOYNA-N
Ontology: Flavonoid-8-O-glycosides
COLLISIONENERGY: 10
FORMULA: C21H20O13
RETENTIONTIME: 4.647167
IONMODE: Negative
Comment: registered in RIKEN PlaSMA
Num Peaks: 12
136.98216	52
166.99883	52
201.05254	43
228.04239	50
271.01874	74
274.01221	48
311.04672	48
316.01025	43
317.03043	1000
318.03476	90
318.99924	48
479.08542	81

NAME: Genistein
PRECURSORMZ: 269.04554694783
PRECURSORTYPE: [M-H]-
INSTRUMENTTYPE: LC-ESI-QTOF
SMILES: OC1=CC=C(C=C1)C1=COC2=CC(O)=CC(O)=C2C1=O
INCHIKEY: TZBJGXHYKVUXJN-UHFFFAOYSA-N
Ontology: Isoflavones
COLLISIONENERGY: 10
FORMULA: C15H10O5
RETENTIONTIME: 5.922117
IONMODE: Negative
Comment: registered in RIKEN PlaSMA
Num Peaks: 25
107.0112	9
132.01961	19
133.02701	57
134.0289	9
135.04251	18
155.04417	6
157.0222	6
159.04453	25
160.04799	7
169.06326	7
180.05809	20
181.06215	23
182.06845	8
183.04388	21
196.04926	9
196.05855	6
197.0558	18
199.04314	6
201.0526	23
224.04016	9
224.04927	13
225.0535	12
241.05127	16
269.04358	1000
269.09045	11

NAME: isorhamnetin
PRECURSORMZ: 315.05102624783
PRECURSORTYPE: [M-H]-
INSTRUMENTTYPE: LC-ESI-QTOF
SMILES: COC1=C(O)C=CC(=C1)C1=C(O)C(=O)C2=C(O)C=C(O)C=C2O1
INCHIKEY: IZQSVPBOUDKVDZ-UHFFFAOYSA-N
Ontology: Flavonols
COLLISIONENERGY: 10
FORMULA: C16H12O7
RETENTIONTIME: 6.140617
IONMODE: Negative
Comment: registered in RIKEN PlaSMA
Num Peaks: 60
63.02524	6
65.0014	10
83.01408	10
107.0125	46
108.01912	12
122.00249	7
124.01702	7
135.0106	6
136.00681	6
136.01218	14
136.01843	12
137.02264	8
148.01674	31
149.02092	13
151.00224	139
152.00832	18
159.0385	5
162.03226	8
163.00481	36
164.01105	62
175.03728	8
183.04425	13
186.02904	12
189.01521	6
198.03365	5
200.04491	7
202.02013	6
215.02666	7
216.04298	24
226.02029	6
226.03647	5
227.03381	23
227.04089	8
228.03937	10
228.04922	5
241.01518	7
242.0065	7
242.01852	12
243.0298	39
244.03094	21
244.0437	6
254.01617	10
255.021	13
255.0294	24
256.02695	12
270.02145	7
271.02399	35
272.03122	15
283.01843	18
283.0296	10
299.02319	8
300.02615	694
300.05075	6
301.02942	110
301.04767	14
302.02591	6
313.03256	25
314.03372	24
314.04712	7
315.05026	1000

NAME: Catechol
PRECURSORMZ: 109.02950294783
PRECURSORTYPE: [M-H]-
INSTRUMENTTYPE: LC-ESI-QTOF
SMILES: OC1=CC=CC=C1O
INCHIKEY: YCIMNLLNPGFGHC-UHFFFAOYSA-N
Ontology: Catechols
COLLISIONENERGY: 10
FORMULA: C6H6O2
RETENTIONTIME: 2.672717
IONMODE: Negative
Comment: registered in RIKEN PlaSMA
Num Peaks: 2
108.0245	73
109.02698	1000

NAME: isorhamnetin-3-O-rutinoside
PRECURSORMZ: 623.16175854783
PRECURSORTYPE: [M-H]-
INSTRUMENTTYPE: LC-ESI-QTOF
SMILES: COC1=C(O)C=CC(=C1)C1=C(OC2OC(COC3OC(C)C(O)C(O)C3O)C(O)C(O)C2O)C(=O)C2=C(O)C=C(O)C=C2O1
INCHIKEY: UIDGLYUNOUKLBM-UHFFFAOYNA-N
Ontology: Flavonoid-3-O-glycosides
COLLISIONENERGY: 10
FORMULA: C28H32O16
RETENTIONTIME: 4.19645
IONMODE: Negative
Comment: registered in RIKEN PlaSMA
Num Peaks: 3
315.052	33
316.05432	11
623.16156	1000

NAME: Kaempferol-3-O-glucoside
PRECURSORMZ: 447.09328504783
PRECURSORTYPE: [M-H]-
INSTRUMENTTYPE: LC-ESI-QTOF
SMILES: OCC1OC(OC2=C(OC3=CC(O)=CC(O)=C3C2=O)C2=CC=C(O)C=C2)C(O)C(O)C1O
INCHIKEY: JPUKWEQWGBDDQB-UHFFFAOYNA-N
Ontology: Flavonoid-3-O-glycosides
COLLISIONENERGY: 10
FORMULA: C21H20O11
RETENTIONTIME: 4.307533
IONMODE: Negative
Comment: registered in RIKEN PlaSMA
Num Peaks: 4
284.03354	24
285.039	58
447.09235	1000
447.15302	5

NAME: Kaempferol-7-O-neohesperidoside
PRECURSORMZ: 593.15119384783
PRECURSORTYPE: [M-H]-
INSTRUMENTTYPE: LC-ESI-QTOF
SMILES: CC1OC(OC2C(O)C(O)C(CO)OC2OC2=CC(O)=C3C(=O)C(O)=C(OC3=C2)C2=CC=C(O)C=C2)C(O)C(O)C1O
INCHIKEY: ZEJXENDZTYVXDP-UHFFFAOYNA-N
Ontology: Flavonoid-7-O-glycosides
COLLISIONENERGY: 10
FORMULA: C27H30O15
RETENTIONTIME: 4.33045
IONMODE: Negative
Comment: registered in RIKEN PlaSMA
Num Peaks: 3
285.04056	53
286.03995	14
593.15137	1000

NAME: Gossypetin-8-C-glucoside
PRECURSORMZ: 479.08311424783
PRECURSORTYPE: [M-H]-
INSTRUMENTTYPE: LC-ESI-QTOF
SMILES: OCC1OC(OC2=C(O)C=C(O)C3=C2OC(=C(O)C3=O)C2=CC(O)=C(O)C=C2)C(O)C(O)C1O
INCHIKEY: SJRXVLUZMMDCNG-UHFFFAOYNA-N
Ontology: Flavonoid-8-O-glycosides
COLLISIONENERGY: 10
FORMULA: C21H20O13
RETENTIONTIME: 4.647167
IONMODE: Negative
Comment: registered in RIKEN PlaSMA
Num Peaks: 6
317.02539	1000
318.03448	105
415.96796	50
444.98026	36
477.06552	44
479.08328	360

NAME: Genistein
PRECURSORMZ: 269.04554694783
PRECURSORTYPE: [M-H]-
INSTRUMENTTYPE: LC-ESI-QTOF
SMILES: OC1=CC=C(C=C1)C1=COC2=CC(O)=CC(O)=C2C1=O
INCHIKEY: TZBJGXHYKVUXJN-UHFFFAOYSA-N
Ontology: Isoflavones
COLLISIONENERGY: 10
FORMULA: C15H10O5
RETENTIONTIME: 5.922117
IONMODE: Negative
Comment: registered in RIKEN PlaSMA
Num Peaks: 2
269.04395	1000
269.09052	10

NAME: isorhamnetin
PRECURSORMZ: 315.05102624783
PRECURSORTYPE: [M-H]-
INSTRUMENTTYPE: LC-ESI-QTOF
SMILES: COC1=C(O)C=CC(=C1)C1=C(O)C(=O)C2=C(O)C=C(O)C=C2O1
INCHIKEY: IZQSVPBOUDKVDZ-UHFFFAOYSA-N
Ontology: Flavonols
COLLISIONENERGY: 10
FORMULA: C16H12O7
RETENTIONTIME: 6.140617
IONMODE: Negative
Comment: registered in RIKEN PlaSMA
Num Peaks: 7
300.02777	125
301.02298	8
301.03564	16
313.03662	17
314.03571	13
314.05319	9
315.0506	1000

NAME: Catechol
PRECURSORMZ: 109.02950294783
PRECURSORTYPE: [M-H]-
INSTRUMENTTYPE: LC-ESI-QTOF
SMILES: OC1=CC=CC=C1O
INCHIKEY: YCIMNLLNPGFGHC-UHFFFAOYSA-N
Ontology: Catechols
COLLISIONENERGY: 30
FORMULA: C6H6O2
RETENTIONTIME: 2.672717
IONMODE: Negative
Comment: registered in RIKEN PlaSMA
Num Peaks: 1
91.02009	1000

NAME: isorhamnetin-3-O-rutinoside
PRECURSORMZ: 623.16175854783
PRECURSORTYPE: [M-H]-
INSTRUMENTTYPE: LC-ESI-QTOF
SMILES: COC1=C(O)C=CC(=C1)C1=C(OC2OC(COC3OC(C)C(O)C(O)C3O)C(O)C(O)C2O)C(=O)C2=C(O)C=C(O)C=C2O1
INCHIKEY: UIDGLYUNOUKLBM-UHFFFAOYNA-N
Ontology: Flavonoid-3-O-glycosides
COLLISIONENERGY: 30
FORMULA: C28H32O16
RETENTIONTIME: 4.19645
IONMODE: Negative
Comment: registered in RIKEN PlaSMA
Num Peaks: 22
151.00775	7
162.99968	6
204.04294	7
243.02988	8
271.02643	11
272.03085	13
285.02679	7
285.04153	8
286.04849	7
287.05402	7
288.05286	5
299.02118	70
300.02762	136
301.03256	25
313.0401	8
314.04388	369
315.0499	1000
316.05255	191
317.04703	12
317.05978	12
357.06049	6
623.16687	69

NAME: Kaempferol-3-O-glucoside
PRECURSORMZ: 447.09328504783
PRECURSORTYPE: [M-H]-
INSTRUMENTTYPE: LC-ESI-QTOF
SMILES: OCC1OC(OC2=C(OC3=CC(O)=CC(O)=C3C2=O)C2=CC=C(O)C=C2)C(O)C(O)C1O
INCHIKEY: JPUKWEQWGBDDQB-UHFFFAOYNA-N
Ontology: Flavonoid-3-O-glycosides
COLLISIONENERGY: 30
FORMULA: C21H20O11
RETENTIONTIME: 4.307533
IONMODE: Negative
Comment: registered in RIKEN PlaSMA
Num Peaks: 30
107.01286	6
151.00386	11
153.0224	10
163.00006	15
163.0088	6
171.03886	5
178.99805	10
185.05692	10
195.0396	5
199.0345	11
211.07465	6
227.03342	498
228.03322	42
228.04312	56
229.0416	17
229.04965	43
240.04109	6
241.0518	13
250.29935	5
255.02806	1000
255.23965	6
256.03345	289
257.03873	16
257.04849	35
258.05032	13
284.03232	880
284.07016	7
285.03888	381
286.04282	67
327.05856	9

NAME: Kaempferol-7-O-neohesperidoside
PRECURSORMZ: 593.15119384783
PRECURSORTYPE: [M-H]-
INSTRUMENTTYPE: LC-ESI-QTOF
SMILES: CC1OC(OC2C(O)C(O)C(CO)OC2OC2=CC(O)=C3C(=O)C(O)=C(OC3=C2)C2=CC=C(O)C=C2)C(O)C(O)C1O
INCHIKEY: ZEJXENDZTYVXDP-UHFFFAOYNA-N
Ontology: Flavonoid-7-O-glycosides
COLLISIONENERGY: 30
FORMULA: C27H30O15
RETENTIONTIME: 4.33045
IONMODE: Negative
Comment: registered in RIKEN PlaSMA
Num Peaks: 12
115.04298	6
130.82234	6
151.0024	16
227.0345	5
284.03021	76
285.03949	1000
286.04373	186
287.03912	15
287.05164	16
288.04065	6
327.05191	7
593.15979	8

NAME: Gossypetin-8-C-glucoside
PRECURSORMZ: 479.08311424783
PRECURSORTYPE: [M-H]-
INSTRUMENTTYPE: LC-ESI-QTOF
SMILES: OCC1OC(OC2=C(O)C=C(O)C3=C2OC(=C(O)C3=O)C2=CC(O)=C(O)C=C2)C(O)C(O)C1O
INCHIKEY: SJRXVLUZMMDCNG-UHFFFAOYNA-N
Ontology: Flavonoid-8-O-glycosides
COLLISIONENERGY: 30
FORMULA: C21H20O13
RETENTIONTIME: 4.647167
IONMODE: Negative
Comment: registered in RIKEN PlaSMA
Num Peaks: 13
139.00629	99
150.99866	118
167.00069	340
194.98608	429
208.00253	118
214.02406	158
229.04016	99
232.03346	281
245.05933	113
249.04588	123
256.04001	103
317.03162	1000
318.02472	103

NAME: Genistein
PRECURSORMZ: 269.04554694783
PRECURSORTYPE: [M-H]-
INSTRUMENTTYPE: LC-ESI-QTOF
SMILES: OC1=CC=C(C=C1)C1=COC2=CC(O)=CC(O)=C2C1=O
INCHIKEY: TZBJGXHYKVUXJN-UHFFFAOYSA-N
Ontology: Isoflavones
COLLISIONENERGY: 30
FORMULA: C15H10O5
RETENTIONTIME: 5.922117
IONMODE: Negative
Comment: registered in RIKEN PlaSMA
Num Peaks: 148
61.01009	6
63.02239	15
64.30767	6
65.00186	53
68.99931	7
75.02336	10
77.03703	16
79.02009	6
80.22553	7
83.01418	27
89.00068	13
89.00647	16
89.04031	16
91.01852	108
91.99196	12
92.0202	12
92.81973	6
103.05463	9
104.03041	10
105.03353	38
107.01141	260
108.01384	5
109.03009	7
113.04051	9
114.75458	5
117.03175	54
119.05127	7
119.05709	15
119.86282	9
121.02972	7
127.05599	7
129.03908	7
130.04021	45
131.04269	20
131.05008	70
132.02039	174
132.05434	25
133.02863	1000
134.0334	162
135.0083	37
135.04324	381
136.04643	21
141.02847	5
141.04251	10
142.07037	10
143.03511	6
143.05006	72
143.08356	6
144.05167	6
145.06081	13
147.06689	6
148.00807	7
151.00241	52
152.00359	15
152.01027	7
152.05959	14
153.03383	13
153.0681	11
153.07684	17
154.03546	10
154.0439	19
155.04539	81
155.0538	93
156.0144	9
156.05278	40
156.06064	11
156.61852	11
157.02808	136
157.05991	53
158.0338	81
158.05278	13
158.07295	12
159.04401	487
160.04924	28
161.02281	36
161.04071	6
166.03848	6
167.04797	87
168.05643	40
168.06465	18
169.03267	15
169.06241	104
170.03455	16
171.04446	64
172.0462	6
173.04184	7
173.05597	59
178.03714	6
179.04779	6
180.05565	247
181.019	7
181.04901	7
181.06535	153
182.02263	7
182.03539	67
182.0451	22
182.05664	9
183.04292	178
183.05951	6
184.04924	34
185.06119	7
186.06686	5
195.04239	54
195.05385	23
196.03825	6
196.05453	93
197.05739	46
198.06438	12
199.03029	25
199.04085	20
200.03693	5
200.0462	8
201.04713	26
201.05569	62
202.05237	16
202.06084	7
207.84537	6
211.03702	30
212.03822	7
212.05147	6
213.05328	45
214.05309	6
222.03645	6
223.03935	76
224.04633	154
225.01193	12
225.04535	24
225.05727	28
225.29031	5
226.06837	9
227.03741	22
228.03859	10
229.75574	8
239.02196	8
239.03435	46
240.02963	8
240.04274	15
241.04483	7
241.05296	6
241.46957	7
242.03072	7
242.04518	5
243.50436	8
249.56844	8
268.03336	8
268.04382	13
269.03699	109
269.04779	246

NAME: isorhamnetin
PRECURSORMZ: 315.05102624783
PRECURSORTYPE: [M-H]-
INSTRUMENTTYPE: LC-ESI-QTOF
SMILES: COC1=C(O)C=CC(=C1)C1=C(O)C(=O)C2=C(O)C=C(O)C=C2O1
INCHIKEY: IZQSVPBOUDKVDZ-UHFFFAOYSA-N
Ontology: Flavonols
COLLISIONENERGY: 30
FORMULA: C16H12O7
RETENTIONTIME: 6.140617
IONMODE: Negative
Comment: registered in RIKEN PlaSMA
Num Peaks: 160
63.02258	63
65.00274	20
79.0144	22
80.02292	10
83.00968	34
83.01376	69
84.02019	8
92.02335	20
94.00668	21
95.00864	18
96.02285	7
97.0241	6
106.00973	8
107.01243	490
107.29222	6
108.02135	311
108.92932	9
109.0239	16
109.03058	9
111.24577	10
119.01666	24
120.02102	120
121.03226	10
121.5325	9
121.99547	27
122.00241	28
122.03442	9
124.01657	113
125.01801	9
126.42569	7
128.62532	7
133.0262	12
135.0052	77
135.00945	41
135.98392	10
136.01604	151
137.01781	9
137.02499	7
138.03197	14
142.03995	11
143.04631	10
144.6091	9
145.03174	8
147.04443	10
148.01501	305
149.0195	42
149.99263	63
151.00241	1000
152.00871	138
153.00757	19
155.05164	18
158.03789	14
159.04533	7
160.02003	32
160.05446	9
161.02789	18
162.03346	28
163.00038	220
164.0107	377
164.02559	18
165.00108	9
165.01517	22
166.93181	7
167.04169	9
168.05438	7
169.28404	6
171.04358	35
172.01695	9
172.04814	79
173.04933	8
174.02486	6
174.03506	7
176.05211	8
177.04953	14
178.99484	9
182.03723	10
182.99332	9
183.04358	38
184.04799	7
186.01859	11
186.03053	54
187.03816	30
187.04994	10
188.01581	7
188.05142	23
189.02281	26
189.0509	14
189.19144	10
190.02228	21
191.99899	29
195.04399	9
197.02103	8
198.02644	8
199.04111	84
200.04419	75
200.05705	7
201.01485	11
201.93375	9
202.02151	14
203.03413	34
204.03619	28
204.04979	12
210.02654	15
211.04166	19
211.04922	15
212.04411	7
214.02832	6
215.03001	34
215.0497	9
215.99023	11
216.02818	14
216.04211	115
217.00526	6
217.04707	21
226.01463	10
226.02449	9
227.0345	259
228.0313	13
228.04335	44
228.99455	6
229.0387	15
230.02261	13
231.03308	7
232.03065	9
232.04298	8
239.02852	19
239.04347	9
241.00403	31
241.01617	31
242.00659	12
242.01854	54
242.03401	7
243.00298	8
243.02637	240
244.02515	43
244.03537	41
245.03702	6
246.01151	14
246.03835	6
250.58464	6
254.03342	6
255.02429	144
255.03845	32
256.03311	27
271.02328	300
272.02005	31
272.03293	37
272.05664	10
273.02258	8
283.02283	178
283.65344	9
284.02744	16
299.01862	61
299.03506	7
299.99957	12
300.0257	706
300.13055	7
301.02625	127
303.03378	18
315.05881	6

NAME: isorhamnetin-3-O-rutinoside
PRECURSORMZ: 623.16175854783
PRECURSORTYPE: [M-H]-
INSTRUMENTTYPE: LC-ESI-QTOF
SMILES: COC1=C(O)C=CC(=C1)C1=C(OC2OC(COC3OC(C)C(O)C(O)C3O)C(O)C(O)C2O)C(=O)C2=C(O)C=C(O)C=C2O1
INCHIKEY: UIDGLYUNOUKLBM-UHFFFAOYNA-N
Ontology: Flavonoid-3-O-glycosides
COLLISIONENERGY: 50
FORMULA: C28H32O16
RETENTIONTIME: 4.19645
IONMODE: Negative
Comment: registered in RIKEN PlaSMA
Num Peaks: 122
101.04182	8
104.41412	6
107.013	7
108.02031	17
121.02808	6
136.01028	6
137.3335	5
141.02826	6
144.0524	5
145.02583	8
148.00859	6
148.01732	5
149.01305	7
151.00375	35
152.01433	5
152.41046	5
153.02028	6
155.04277	13
157.03125	6
158.02441	5
158.03398	6
161.06584	7
161.9959	11
162.04327	8
163.00079	12
164.01379	19
167.04469	8
171.0414	18
171.04903	6
172.01695	8
174.93668	9
178.0694	12
182.03319	5
183.04166	22
184.04793	6
184.05705	6
185.02202	8
187.03802	18
189.01889	6
197.84096	6
199.04037	73
200.04842	12
201.02054	10
201.02853	11
203.03525	7
206.32869	5
211.03377	8
212.0394	8
212.05077	7
213.04373	5
215.02852	12
215.03758	12
217.05505	11
218.05164	5
226.02744	27
227.0332	74
227.05714	9
228.0403	11
230.16805	5
231.02856	13
231.03889	11
239.03001	5
242.01031	12
242.02327	12
242.03938	7
243.02872	395
243.05302	6
243.39345	6
244.01872	13
244.03516	93
245.03326	18
245.04449	7
247.59128	5
254.01945	52
255.02885	298
256.03415	47
257.03409	31
257.04791	52
258.03711	7
259.04642	5
259.06412	27
259.84955	10
268.90863	11
269.54376	10
270.01468	28
271.0238	1000
271.06171	8
271.74097	5
272.01562	45
272.02701	148
272.03809	60
272.05991	36
272.22281	8
273.02335	6
273.03897	13
279.28864	5
282.51642	14
285.03976	171
286.04483	22
287.04517	14
287.05423	38
288.0596	6
297.03284	10
298.0007	7
299.01877	790
299.04544	11
300.02472	821
301.02679	138
302.03787	29
313.03568	5
313.05566	9
314.04208	154
315.04187	33
315.05521	54
316.03131	10
316.04974	12
316.06802	7
317.05969	6
323.04977	6
342.00903	6
388.1658	6
470.14294	5

NAME: Kaempferol-3-O-glucoside
PRECURSORMZ: 447.09328504783
PRECURSORTYPE: [M-H]-
INSTRUMENTTYPE: LC-ESI-QTOF
SMILES: OCC1OC(OC2=C(OC3=CC(O)=CC(O)=C3C2=O)C2=CC=C(O)C=C2)C(O)C(O)C1O
INCHIKEY: JPUKWEQWGBDDQB-UHFFFAOYNA-N
Ontology: Flavonoid-3-O-glycosides
COLLISIONENERGY: 50
FORMULA: C21H20O11
RETENTIONTIME: 4.307533
IONMODE: Negative
Comment: registered in RIKEN PlaSMA
Num Peaks: 36
104.02593	7
107.01102	18
109.02591	6
132.01836	6
135.00467	15
139.056	7
155.04716	19
159.04851	15
162.99934	12
164.01358	5
167.03777	7
167.05214	15
182.03419	50
182.05783	6
183.04314	155
184.04494	21
185.01274	10
185.02165	14
185.03033	17
185.04535	8
185.06186	7
187.03728	21
188.04366	9
199.03009	13
210.03508	24
211.04083	78
212.05159	11
214.0228	7
227.03346	1000
228.03938	131
229.03673	8
255.0289	577
256.03244	80
257.02856	8
283.0162	7
284.02936	6

NAME: Kaempferol-7-O-neohesperidoside
PRECURSORMZ: 593.15119384783
PRECURSORTYPE: [M-H]-
INSTRUMENTTYPE: LC-ESI-QTOF
SMILES: CC1OC(OC2C(O)C(O)C(CO)OC2OC2=CC(O)=C3C(=O)C(O)=C(OC3=C2)C2=CC=C(O)C=C2)C(O)C(O)C1O
INCHIKEY: ZEJXENDZTYVXDP-UHFFFAOYNA-N
Ontology: Flavonoid-7-O-glycosides
COLLISIONENERGY: 50
FORMULA: C27H30O15
RETENTIONTIME: 4.33045
IONMODE: Negative
Comment: registered in RIKEN PlaSMA
Num Peaks: 61
93.03363	24
95.01173	25
107.01356	45
108.01852	37
109.03103	9
112.00636	8
132.02299	10
133.02751	10
136.01788	13
143.04697	9
146.03622	9
149.9938	23
151.00128	147
152.00096	9
154.0446	9
156.05446	12
157.0262	15
159.04549	12
161.05061	10
163.00014	12
164.00969	38
165.02551	14
167.04568	19
169.06174	13
174.03119	10
184.0441	8
185.06206	19
186.05809	9
186.06702	14
189.05475	11
190.0229	9
196.04991	10
199.02693	9
201.05777	13
211.03473	33
211.04575	8
212.04881	14
212.07153	17
213.05617	24
215.0271	10
216.03172	9
217.05142	12
229.04726	12
229.05724	32
230.05594	12
231.04489	13
239.03893	22
239.04874	15
240.0407	27
243.03268	17
255.02211	19
255.04221	19
257.04382	30
283.03384	26
284.01959	24
284.03363	67
285.04074	1000
286.03287	41
286.04636	155
287.04312	14
288.04718	9

NAME: Gossypetin-8-C-glucoside
PRECURSORMZ: 479.08311424783
PRECURSORTYPE: [M-H]-
INSTRUMENTTYPE: LC-ESI-QTOF
SMILES: OCC1OC(OC2=C(O)C=C(O)C3=C2OC(=C(O)C3=O)C2=CC(O)=C(O)C=C2)C(O)C(O)C1O
INCHIKEY: SJRXVLUZMMDCNG-UHFFFAOYNA-N
Ontology: Flavonoid-8-O-glycosides
COLLISIONENERGY: 50
FORMULA: C21H20O13
RETENTIONTIME: 4.647167
IONMODE: Negative
Comment: registered in RIKEN PlaSMA
Num Peaks: 11
109.02547	718
133.03215	324
134.03635	366
136.98781	338
139.0041	465
149.02187	577
167.00307	1000
171.04063	282
203.04184	282
211.04063	408
245.04021	310

NAME: Genistein
PRECURSORMZ: 269.04554694783
PRECURSORTYPE: [M-H]-
INSTRUMENTTYPE: LC-ESI-QTOF
SMILES: OC1=CC=C(C=C1)C1=COC2=CC(O)=CC(O)=C2C1=O
INCHIKEY: TZBJGXHYKVUXJN-UHFFFAOYSA-N
Ontology: Isoflavones
COLLISIONENERGY: 50
FORMULA: C15H10O5
RETENTIONTIME: 5.922117
IONMODE: Negative
Comment: registered in RIKEN PlaSMA
Num Peaks: 45
63.02245	124
64.99844	58
65.00161	159
77.03656	95
77.04379	92
89.00157	42
89.03909	31
91.0209	172
91.99176	66
92.01977	52
101.04234	29
104.02309	192
105.03102	100
105.03799	32
106.03799	29
107.01972	31
115.05555	42
116.02558	71
117.02621	29
117.03519	86
128.01979	42
128.02554	58
129.0298	41
130.03944	79
132.02144	1000
133.02727	294
133.0334	265
134.0295	127
134.03896	271
135.04414	182
141.03496	32
143.04459	60
145.0237	26
154.39674	41
155.0477	33
158.03606	103
159.04065	79
167.04825	29
169.02333	42
169.0311	26
170.03603	47
172.05301	32
178.04276	26
200.9259	26
211.03131	29

NAME: isorhamnetin
PRECURSORMZ: 315.05102624783
PRECURSORTYPE: [M-H]-
INSTRUMENTTYPE: LC-ESI-QTOF
SMILES: COC1=C(O)C=CC(=C1)C1=C(O)C(=O)C2=C(O)C=C(O)C=C2O1
INCHIKEY: IZQSVPBOUDKVDZ-UHFFFAOYSA-N
Ontology: Flavonols
COLLISIONENERGY: 50
FORMULA: C16H12O7
RETENTIONTIME: 6.140617
IONMODE: Negative
Comment: registered in RIKEN PlaSMA
Num Peaks: 81
63.02435	204
65.00382	149
66.0063	50
73.99242	68
80.02505	59
83.01029	370
87.02174	50
91.01643	184
94.00225	94
95.0135	72
96.02101	42
107.00902	254
107.01993	59
108.02016	1000
109.02487	92
109.03352	96
113.04398	94
117.02857	46
117.03453	107
119.01405	138
120.01553	53
120.02344	201
121.02563	39
123.0135	59
124.01433	44
127.0593	50
131.01312	44
132.01596	66
133.02657	98
133.03586	57
135.00262	57
135.00865	109
136.01616	63
140.28821	53
142.0417	46
143.04826	284
143.05667	46
145.02829	42
147.00845	55
147.04196	129
148.01241	138
148.02077	158
155.04568	96
157.03084	175
158.03792	74
159.05466	57
161.0293	85
163.00137	733
164.01035	114
167.04951	50
169.036	42
170.03903	42
171.04332	416
175.03757	48
181.02832	90
182.02707	68
182.0356	136
183.04584	427
184.04657	92
185.01878	57
186.02737	92
187.03943	232
188.04079	66
190.01718	44
193.02313	44
199.03741	164
201.01944	236
210.03165	53
211.04782	55
215.03175	53
215.04451	39
226.01401	46
226.02867	79
227.0242	44
242.01035	42
242.02013	63
244.03168	50
271.01157	53
271.02521	46
272.02454	44
283.02341	118

NAME: Luteolin-6-C-glucoside
PRECURSORMZ: 447.09328504783
PRECURSORTYPE: [M-H]-
INSTRUMENTTYPE: LC-ESI-QTOF
SMILES: OCC1OC(C(O)C(O)C1O)C1=C(O)C2=C(OC(=CC2=O)C2=CC(O)=C(O)C=C2)C=C1O
INCHIKEY: ODBRNZZJSYPIDI-UHFFFAOYNA-N
Ontology: Flavonoid C-glycosides
COLLISIONENERGY: 10
FORMULA: C21H20O11
RETENTIONTIME: 3.594683
IONMODE: Negative
Comment: registered in RIKEN PlaSMA
Num Peaks: 123
109.02572	6
117.03571	6
125.02348	6
133.02428	13
134.02991	5
134.04192	9
145.03427	10
147.04295	9
156.0479	6
161.02437	16
162.99846	7
163.00504	17
163.03532	8
165.01205	15
176.01907	6
176.03795	5
179.06776	8
185.01448	6
191.02722	6
196.06372	6
196.86807	8
197.07236	8
199.03992	29
199.07758	10
201.01964	8
203.03426	15
211.03712	13
214.01613	6
216.0477	5
217.05666	6
223.08556	5
226.02499	10
227.03221	19
227.06259	9
227.70491	6
228.74249	6
231.05444	5
239.03052	5
240.10167	6
241.03706	15
241.05042	8
243.0309	11
251.02156	6
251.03444	6
253.04047	11
253.05705	13
255.02913	11
255.06166	13
256.02869	6
257.04166	10
257.4689	10
265.06522	7
267.03821	6
267.10846	9
268.02853	9
269.04025	29
269.05118	13
270.03772	17
271.05133	15
281.03885	6
282.04639	5
283.05835	10
284.01981	22
284.03329	49
284.06543	9
285.03894	95
285.0611	11
286.04495	22
296.02509	8
297.03683	187
298.03918	45
298.04965	135
299.05753	139
300.05624	66
300.08524	8
309.02039	5
309.03342	18
311.05765	52
312.04636	8
312.0567	10
313.02618	35
313.03842	14
313.07394	7
315.04071	6
325.03348	23
326.04034	10
327.04874	743
328.05298	127
329.0571	33
331.89032	6
333.16168	6
339.05197	90
339.07104	10
341.03116	5
341.06506	26
341.07672	18
347.82773	8
353.06723	6
356.32669	8
357.05905	496
358.06485	109
359.0654	40
369.04999	5
369.0614	15
370.05756	7
371.07755	15
381.06204	18
383.09094	7
387.07657	12
394.04666	5
397.0593	13
399.06647	14
405.68842	5
410.0607	6
418.08231	6
429.07629	50
429.09503	21
430.09167	22
442.0658	8
445.07639	40
446.08276	80
447.09174	1000
447.14334	6

NAME: Kaempferol-3-O-glucoside-7-O-rhamnoside
PRECURSORMZ: 593.15119384783
PRECURSORTYPE: [M-H]-
INSTRUMENTTYPE: LC-ESI-QTOF
SMILES: CC1OC(OC2=CC(O)=C3C(=O)C(OC4OC(CO)C(O)C(O)C4O)=C(OC3=C2)C2=CC=C(O)C=C2)C(O)C(O)C1O
INCHIKEY: JYXSWDCPHRTYGU-UHFFFAOYNA-N
Ontology: Flavonoid-7-O-glycosides
COLLISIONENERGY: 10
FORMULA: C27H30O15
RETENTIONTIME: 3.665517
IONMODE: Negative
Comment: registered in RIKEN PlaSMA
Num Peaks: 23
151.0025	5
213.0513	6
214.06508	6
215.03659	7
243.02686	7
255.06924	9
283.02322	355
284.02597	101
285.03806	462
286.03476	19
286.04398	58
287.03043	8
287.05081	11
430.08884	257
431.05655	6
431.09561	276
432.09521	40
432.11649	10
433.08969	8
447.09082	205
448.08246	13
448.09863	27
593.14941	1000

NAME: trans-4-Coumaric acid
PRECURSORMZ: 163.04006764783
PRECURSORTYPE: [M-H]-
INSTRUMENTTYPE: LC-ESI-QTOF
SMILES: OC(=O)C=CC1=CC=C(O)C=C1
INCHIKEY: NGSWKAQJJWESNS-UHFFFAOYSA-N
Ontology: Hydroxycinnamic acids
COLLISIONENERGY: 10
FORMULA: C9H8O3
RETENTIONTIME: 4.006017
IONMODE: Negative
Comment: registered in RIKEN PlaSMA
Num Peaks: 6
93.0314	10
117.03368	8
119.04873	1000
120.05202	93
121.05508	10
163.03899	156

NAME: Luteolin-6-C-glucoside
PRECURSORMZ: 447.09328504783
PRECURSORTYPE: [M-H]-
INSTRUMENTTYPE: LC-ESI-QTOF
SMILES: OCC1OC(C(O)C(O)C1O)C1=C(O)C2=C(OC(=CC2=O)C2=CC(O)=C(O)C=C2)C=C1O
INCHIKEY: ODBRNZZJSYPIDI-UHFFFAOYNA-N
Ontology: Flavonoid C-glycosides
COLLISIONENERGY: 10
FORMULA: C21H20O11
RETENTIONTIME: 3.594683
IONMODE: Negative
Comment: registered in RIKEN PlaSMA
Num Peaks: 14
325.02875	9
326.04062	6
327.0513	138
328.05164	8
328.06253	9
339.04327	5
357.06006	102
358.06476	23
429.08148	22
429.09995	10
445.07541	20
445.09351	5
446.07977	62
447.09106	1000

NAME: Kaempferol-3-O-glucoside-7-O-rhamnoside
PRECURSORMZ: 593.15119384783
PRECURSORTYPE: [M-H]-
INSTRUMENTTYPE: LC-ESI-QTOF
SMILES: CC1OC(OC2=CC(O)=C3C(=O)C(OC4OC(CO)C(O)C(O)C4O)=C(OC3=C2)C2=CC=C(O)C=C2)C(O)C(O)C1O
INCHIKEY: JYXSWDCPHRTYGU-UHFFFAOYNA-N
Ontology: Flavonoid-7-O-glycosides
COLLISIONENERGY: 10
FORMULA: C27H30O15
RETENTIONTIME: 3.665517
IONMODE: Negative
Comment: registered in RIKEN PlaSMA
Num Peaks: 6
431.09763	46
432.0954	6
447.09061	59
448.09399	7
448.108	7
593.14899	1000

NAME: trans-4-Coumaric acid
PRECURSORMZ: 163.04006764783
PRECURSORTYPE: [M-H]-
INSTRUMENTTYPE: LC-ESI-QTOF
SMILES: OC(=O)C=CC1=CC=C(O)C=C1
INCHIKEY: NGSWKAQJJWESNS-UHFFFAOYSA-N
Ontology: Hydroxycinnamic acids
COLLISIONENERGY: 10
FORMULA: C9H8O3
RETENTIONTIME: 4.006017
IONMODE: Negative
Comment: registered in RIKEN PlaSMA
Num Peaks: 4
119.0486	1000
120.05194	95
121.05483	7
163.03865	297

NAME: Luteolin-6-C-glucoside
PRECURSORMZ: 447.09328504783
PRECURSORTYPE: [M-H]-
INSTRUMENTTYPE: LC-ESI-QTOF
SMILES: OCC1OC(C(O)C(O)C1O)C1=C(O)C2=C(OC(=CC2=O)C2=CC(O)=C(O)C=C2)C=C1O
INCHIKEY: ODBRNZZJSYPIDI-UHFFFAOYNA-N
Ontology: Flavonoid C-glycosides
COLLISIONENERGY: 30
FORMULA: C21H20O11
RETENTIONTIME: 3.594683
IONMODE: Negative
Comment: registered in RIKEN PlaSMA
Num Peaks: 170
75.00432	6
109.02661	18
133.02452	66
134.03958	7
135.04503	13
139.04143	6
149.02711	11
150.0219	6
151.00378	10
155.03377	9
157.04085	7
161.02394	6
162.9976	8
163.00671	16
163.03854	34
165.01654	48
171.42119	8
175.02925	7
175.03751	26
176.04848	12
177.00793	8
177.02138	9
178.01939	8
179.03146	6
185.02135	10
185.06442	6
191.03017	8
193.00882	11
193.01797	23
193.05562	6
195.04143	6
196.04849	9
196.08713	6
197.06473	6
198.02652	6
199.04248	14
199.06534	6
199.07695	6
201.01057	8
201.02333	33
201.04637	6
203.03644	30
207.03706	6
211.03763	15
211.05666	10
211.07547	13
213.0519	35
214.05609	8
215.03746	21
217.04358	13
217.14757	7
217.95461	6
223.00966	8
224.04547	8
225.05791	10
228.03375	15
229.05391	7
230.01979	9
231.06667	8
231.2731	8
231.99968	7
237.04439	6
237.05699	6
237.49704	6
240.03961	19
240.04869	8
240.32684	13
241.04659	6
243.02826	6
246.0489	6
249.05174	15
251.02629	25
253.04568	32
253.51405	8
255.02602	12
255.07199	7
256.03894	14
256.05765	6
256.06891	8
257.04428	27
257.99875	6
259.02557	8
259.38193	13
259.48199	6
263.02945	12
265.04391	11
268.03339	6
268.88153	6
269.03479	55
269.04678	36
269.06039	6
270.02661	6
270.04858	83
270.06976	23
271.04153	14
282.03275	6
282.04803	10
283.0592	9
284.0311	84
285.02258	40
285.03983	295
286.03229	22
286.043	64
287.0267	9
287.04065	7
287.05176	17
295.02371	9
296.02411	6
297.03818	629
297.90656	6
298.04495	589
299.05319	607
299.39252	6
300.05527	80
301.06165	13
303.74982	7
308.5563	6
309.04349	31
310.03159	8
310.04092	6
311.05298	164
312.05984	47
313.0282	27
313.04205	13
313.06326	6
321.07053	8
324.01352	11
324.02335	22
325.03906	37
326.03064	8
327.00159	6
327.04913	1000
328.05188	253
329.05948	15
335.26166	6
337.026	10
337.04129	6
337.07736	15
338.09116	6
339.05087	220
339.07611	8
340.04871	33
341.06552	79
341.0863	6
342.07227	6
351.04086	7
351.05609	9
353.0661	8
357.06091	366
358.05859	64
358.07111	60
358.09601	6
359.07349	8
364.05093	6
365.06491	17
368.0593	6
369.04346	19
369.06198	7
369.08362	8
370.06201	8
371.04971	6
381.0293	8
381.05585	8
382.07248	7
387.07013	9
393.05811	17
399.08218	7
431.07953	8
431.10513	7
447.09048	8

NAME: Kaempferol-3-O-glucoside-7-O-rhamnoside
PRECURSORMZ: 593.15119384783
PRECURSORTYPE: [M-H]-
INSTRUMENTTYPE: LC-ESI-QTOF
SMILES: CC1OC(OC2=CC(O)=C3C(=O)C(OC4OC(CO)C(O)C(O)C4O)=C(OC3=C2)C2=CC=C(O)C=C2)C(O)C(O)C1O
INCHIKEY: JYXSWDCPHRTYGU-UHFFFAOYNA-N
Ontology: Flavonoid-7-O-glycosides
COLLISIONENERGY: 30
FORMULA: C27H30O15
RETENTIONTIME: 3.665517
IONMODE: Negative
Comment: registered in RIKEN PlaSMA
Num Peaks: 31
151.00471	9
165.01611	5
173.64232	7
255.02762	9
257.04434	14
269.03674	8
283.0246	578
283.05121	15
284.02252	81
284.03516	98
285.03839	1000
286.04346	157
287.039	16
287.05176	8
290.00165	5
299.03558	5
327.05759	7
340.05441	7
341.05948	6
355.05521	6
430.09097	479
431.09421	269
431.12839	6
432.10083	41
433.09274	12
447.09219	224
448.09283	63
448.11746	13
449.09595	25
593.16144	5
593.17889	6

NAME: trans-4-Coumaric acid
PRECURSORMZ: 163.04006764783
PRECURSORTYPE: [M-H]-
INSTRUMENTTYPE: LC-ESI-QTOF
SMILES: OC(=O)C=CC1=CC=C(O)C=C1
INCHIKEY: NGSWKAQJJWESNS-UHFFFAOYSA-N
Ontology: Hydroxycinnamic acids
COLLISIONENERGY: 30
FORMULA: C9H8O3
RETENTIONTIME: 4.006017
IONMODE: Negative
Comment: registered in RIKEN PlaSMA
Num Peaks: 11
90.04307	21
91.0568	34
93.02842	32
93.03391	143
93.04034	30
94.03984	13
117.03202	45
119.04924	1000
120.05211	121
121.0292	19
121.05985	23

NAME: Luteolin-6-C-glucoside
PRECURSORMZ: 447.09328504783
PRECURSORTYPE: [M-H]-
INSTRUMENTTYPE: LC-ESI-QTOF
SMILES: OCC1OC(C(O)C(O)C1O)C1=C(O)C2=C(OC(=CC2=O)C2=CC(O)=C(O)C=C2)C=C1O
INCHIKEY: ODBRNZZJSYPIDI-UHFFFAOYNA-N
Ontology: Flavonoid C-glycosides
COLLISIONENERGY: 50
FORMULA: C21H20O11
RETENTIONTIME: 3.594683
IONMODE: Negative
Comment: registered in RIKEN PlaSMA
Num Peaks: 197
64.99826	15
75.50984	12
77.03786	13
77.04164	13
79.01553	24
79.02019	48
89.03559	13
91.05273	16
91.51066	12
92.02074	18
95.04819	17
100.03071	15
103.0541	13
105.03172	39
107.01453	81
108.01915	42
109.02637	94
109.03104	38
117.02975	65
117.03731	36
119.01247	57
119.05118	55
120.04948	13
121.02868	154
122.02482	13
122.03201	28
122.18367	12
123.00653	14
125.01839	20
125.02515	15
129.03181	22
132.02086	48
133.02853	1000
134.03494	60
134.64896	15
135.00212	38
135.01065	97
135.02623	22
135.03593	33
135.04628	93
135.25575	13
136.05487	15
137.01645	40
137.02725	12
143.04378	16
143.05223	44
144.01675	18
145.02135	16
145.02914	77
146.03178	13
147.04349	13
149.01819	43
150.03687	19
150.50121	13
151.00288	46
151.03804	99
151.04803	29
153.07352	22
155.05145	19
155.9269	15
156.05228	20
157.02972	39
158.04044	42
159.01384	26
160.00839	20
160.01657	24
161.02136	221
161.03499	20
162.02687	17
163.00293	399
163.03726	184
163.07159	15
164.0067	26
164.01707	22
165.01488	143
165.02776	26
168.04341	22
168.07658	17
169.04803	12
169.06325	14
170.03336	14
170.20496	15
171.03976	37
171.07178	15
174.02367	38
174.03152	13
175.03244	61
175.03813	140
176.00365	12
177.01711	63
177.0248	71
180.04865	20
181.06596	17
182.03426	30
182.07207	13
183.04468	114
185.01811	22
185.05701	54
186.05742	13
186.06425	16
187.00919	12
187.03799	16
189.02054	20
190.02823	12
191.02997	37
193.06148	12
194.03865	17
195.0383	16
196.05388	28
197.06171	61
198.034	72
199.03479	89
200.04155	48
201.00902	14
201.01996	34
201.05014	38
201.05884	15
202.02008	34
203.02548	13
210.05347	18
211.03822	170
211.0739	39
212.04257	114
213.05022	35
213.06056	16
214.05952	56
215.03851	19
216.03827	13
217.05096	40
223.03961	13
223.05153	21
223.07877	12
223.12659	20
224.04321	13
225.05247	108
226.60719	19
227.02933	65
227.04041	14
228.03587	15
229.03957	35
229.05702	37
231.06931	28
235.04738	36
237.05984	20
239.02795	20
239.08438	22
240.03369	22
240.05434	24
241.04715	90
242.02354	50
242.05623	12
243.0345	14
243.05626	26
250.05548	16
251.03699	38
252.04225	42
253.04819	79
254.04991	23
255.02827	91
255.03645	38
255.05963	14
255.08655	13
256.03397	51
261.0538	15
265.06256	25
267.0282	15
268.03461	22
269.04175	183
269.07071	16
270.03375	28
270.05084	13
270.06061	17
271.05032	19
282.04547	15
284.01553	40
284.02939	110
284.04129	71
285.03003	88
285.04443	63
286.04584	15
288.30099	12
295.03021	17
296.0343	16
297.03183	108
297.04379	116
298.04388	191
299.05072	71
299.06381	59
300.06454	42
304.09003	18
310.05914	16
311.0462	29
311.05896	22
311.30887	13
313.03525	22
324.03421	13
339.05161	29

NAME: Kaempferol-3-O-glucoside-7-O-rhamnoside
PRECURSORMZ: 593.15119384783
PRECURSORTYPE: [M-H]-
INSTRUMENTTYPE: LC-ESI-QTOF
SMILES: CC1OC(OC2=CC(O)=C3C(=O)C(OC4OC(CO)C(O)C(O)C4O)=C(OC3=C2)C2=CC=C(O)C=C2)C(O)C(O)C1O
INCHIKEY: JYXSWDCPHRTYGU-UHFFFAOYNA-N
Ontology: Flavonoid-7-O-glycosides
COLLISIONENERGY: 50
FORMULA: C27H30O15
RETENTIONTIME: 3.665517
IONMODE: Negative
Comment: registered in RIKEN PlaSMA
Num Peaks: 46
109.51299	7
143.05002	10
151.00131	8
151.98778	5
154.04492	7
155.0529	11
159.03943	13
163.00238	7
165.02393	9
168.05893	10
169.05536	5
169.06429	22
170.0356	6
173.02533	9
173.06026	7
183.04637	45
185.01657	5
187.03734	8
187.04593	5
189.05772	12
201.05937	8
211.04085	50
213.02417	9
213.05614	28
213.07216	6
214.01865	8
215.03442	7
227.03113	51
227.03847	17
228.0401	7
229.04765	20
239.03389	17
244.02866	6
255.02963	612
256.02686	25
256.03912	60
257.03702	8
257.05347	7
258.04263	10
267.02057	7
267.03497	9
268.03671	5
283.02359	1000
284.02917	155
285.0405	357
286.04181	71

NAME: trans-4-Coumaric acid
PRECURSORMZ: 163.04006764783
PRECURSORTYPE: [M-H]-
INSTRUMENTTYPE: LC-ESI-QTOF
SMILES: OC(=O)C=CC1=CC=C(O)C=C1
INCHIKEY: NGSWKAQJJWESNS-UHFFFAOYSA-N
Ontology: Hydroxycinnamic acids
COLLISIONENERGY: 50
FORMULA: C9H8O3
RETENTIONTIME: 4.006017
IONMODE: Negative
Comment: registered in RIKEN PlaSMA
Num Peaks: 2
117.03555	371
119.05161	1000

NAME: Luteolin-6-C-glucoside
PRECURSORMZ: 447.09328504783
PRECURSORTYPE: [M-H]-
INSTRUMENTTYPE: LC-ESI-QTOF
SMILES: OCC1OC(C(O)C(O)C1O)C1=C(O)C2=C(OC(=CC2=O)C2=CC(O)=C(O)C=C2)C=C1O
INCHIKEY: ODBRNZZJSYPIDI-UHFFFAOYNA-N
Ontology: Flavonoid C-glycosides
COLLISIONENERGY: 10
FORMULA: C21H20O11
RETENTIONTIME: 3.594683
IONMODE: Negative
Comment: registered in RIKEN PlaSMA
Num Peaks: 100
57.33367	5
119.01207	8
122.04093	7
133.02602	44
133.03123	25
134.03358	12
148.01675	5
149.02007	6
161.02641	8
162.02716	5
163.00052	18
163.0441	12
165.01524	11
170.99709	7
175.04005	16
176.01347	5
177.01665	6
179.03934	5
191.03679	6
193.01682	11
199.74927	6
200.05157	8
201.01161	5
201.01729	13
211.07845	7
224.04712	5
225.04831	12
228.0443	5
229.04781	5
233.05043	6
239.04324	8
239.07039	9
240.0497	6
241.04713	14
243.02419	8
243.03415	7
243.05891	5
250.06653	5
253.04938	12
255.06506	17
263.03922	6
267.06796	7
269.0484	17
270.04755	64
271.04788	6
281.03708	8
283.01834	8
284.03159	65
285.01337	5
285.04007	78
295.0607	10
297.0394	216
297.06207	9
298.04694	112
298.06079	31
299.03818	22
299.05414	124
300.06149	36
305.02768	5
309.03476	8
310.04114	11
311.05197	66
311.06216	18
312.06244	10
313.02689	27
316.11765	8
322.03781	5
324.01688	15
324.03156	18
325.03394	20
326.04181	9
327.04855	695
328.05093	189
328.07281	10
329.05087	34
329.06711	6
339.05438	76
340.05573	16
341.04065	5
341.06799	7
351.04431	8
357.06091	497
357.11374	7
357.1644	8
358.06357	129
358.54007	6
369.05737	37
371.05981	8
371.07376	11
381.06354	8
387.07596	5
393.0535	8
399.07208	5
413.08139	6
429.078	38
429.10327	13
430.07834	16
445.06958	17
446.07654	62
447.09055	1000

NAME: Kaempferol-3-O-glucoside-7-O-rhamnoside
PRECURSORMZ: 593.15119384783
PRECURSORTYPE: [M-H]-
INSTRUMENTTYPE: LC-ESI-QTOF
SMILES: CC1OC(OC2=CC(O)=C3C(=O)C(OC4OC(CO)C(O)C(O)C4O)=C(OC3=C2)C2=CC=C(O)C=C2)C(O)C(O)C1O
INCHIKEY: JYXSWDCPHRTYGU-UHFFFAOYNA-N
Ontology: Flavonoid-7-O-glycosides
COLLISIONENERGY: 10
FORMULA: C27H30O15
RETENTIONTIME: 3.665517
IONMODE: Negative
Comment: registered in RIKEN PlaSMA
Num Peaks: 25
145.32777	5
150.99957	10
151.0076	7
213.04668	9
227.0267	6
239.03673	6
255.02942	33
256.03345	11
283.02402	393
284.02902	126
285.03973	502
286.04288	79
287.0477	13
327.04755	7
337.06534	5
430.08917	281
431.09628	272
432.09711	37
432.11594	24
433.10327	10
447.09259	248
448.09741	64
449.09286	11
542.64667	5
593.14996	1000

NAME: trans-4-Coumaric acid
PRECURSORMZ: 163.04006764783
PRECURSORTYPE: [M-H]-
INSTRUMENTTYPE: LC-ESI-QTOF
SMILES: OC(=O)C=CC1=CC=C(O)C=C1
INCHIKEY: NGSWKAQJJWESNS-UHFFFAOYSA-N
Ontology: Hydroxycinnamic acids
COLLISIONENERGY: 10
FORMULA: C9H8O3
RETENTIONTIME: 4.006017
IONMODE: Negative
Comment: registered in RIKEN PlaSMA
Num Peaks: 6
93.03357	11
119.04843	1000
119.07987	6
120.05235	97
121.05514	8
163.03914	118

NAME: Luteolin-6-C-glucoside
PRECURSORMZ: 447.09328504783
PRECURSORTYPE: [M-H]-
INSTRUMENTTYPE: LC-ESI-QTOF
SMILES: OCC1OC(C(O)C(O)C1O)C1=C(O)C2=C(OC(=CC2=O)C2=CC(O)=C(O)C=C2)C=C1O
INCHIKEY: ODBRNZZJSYPIDI-UHFFFAOYNA-N
Ontology: Flavonoid C-glycosides
COLLISIONENERGY: 10
FORMULA: C21H20O11
RETENTIONTIME: 3.594683
IONMODE: Negative
Comment: registered in RIKEN PlaSMA
Num Peaks: 14
297.04068	6
313.03647	7
325.03598	8
327.05145	153
328.05222	36
339.05151	8
357.06317	100
358.06293	23
358.07925	7
429.0864	30
445.07468	27
446.07297	33
446.09317	26
447.09259	1000

NAME: Kaempferol-3-O-glucoside-7-O-rhamnoside
PRECURSORMZ: 593.15119384783
PRECURSORTYPE: [M-H]-
INSTRUMENTTYPE: LC-ESI-QTOF
SMILES: CC1OC(OC2=CC(O)=C3C(=O)C(OC4OC(CO)C(O)C(O)C4O)=C(OC3=C2)C2=CC=C(O)C=C2)C(O)C(O)C1O
INCHIKEY: JYXSWDCPHRTYGU-UHFFFAOYNA-N
Ontology: Flavonoid-7-O-glycosides
COLLISIONENERGY: 10
FORMULA: C27H30O15
RETENTIONTIME: 3.665517
IONMODE: Negative
Comment: registered in RIKEN PlaSMA
Num Peaks: 6
431.09583	43
432.09705	6
447.09317	59
448.08551	7
448.10098	7
593.15125	1000

NAME: trans-4-Coumaric acid
PRECURSORMZ: 163.04006764783
PRECURSORTYPE: [M-H]-
INSTRUMENTTYPE: LC-ESI-QTOF
SMILES: OC(=O)C=CC1=CC=C(O)C=C1
INCHIKEY: NGSWKAQJJWESNS-UHFFFAOYSA-N
Ontology: Hydroxycinnamic acids
COLLISIONENERGY: 10
FORMULA: C9H8O3
RETENTIONTIME: 4.006017
IONMODE: Negative
Comment: registered in RIKEN PlaSMA
Num Peaks: 4
119.04844	1000
120.05168	91
121.05491	6
163.03839	280

NAME: Luteolin-6-C-glucoside
PRECURSORMZ: 447.09328504783
PRECURSORTYPE: [M-H]-
INSTRUMENTTYPE: LC-ESI-QTOF
SMILES: OCC1OC(C(O)C(O)C1O)C1=C(O)C2=C(OC(=CC2=O)C2=CC(O)=C(O)C=C2)C=C1O
INCHIKEY: ODBRNZZJSYPIDI-UHFFFAOYNA-N
Ontology: Flavonoid C-glycosides
COLLISIONENERGY: 30
FORMULA: C21H20O11
RETENTIONTIME: 3.594683
IONMODE: Negative
Comment: registered in RIKEN PlaSMA
Num Peaks: 172
105.03546	10
109.03074	7
121.02764	18
125.02287	7
132.01823	6
133.02617	48
134.03181	12
135.04962	7
135.30093	6
135.67566	5
137.02864	13
145.0276	8
147.04694	7
148.01073	6
149.02286	22
151.0081	11
161.01643	11
161.02481	17
162.02206	9
163.00385	13
163.03589	15
163.04469	10
163.05373	6
164.80547	5
165.0163	46
167.04578	9
171.04306	8
172.84065	8
174.02399	6
175.00484	6
175.02933	10
175.04089	26
176.01028	12
176.98163	6
177.02	5
179.02834	7
179.0361	13
179.04521	12
183.07817	7
185.02219	14
185.06134	5
189.02261	11
192.02643	5
193.01395	22
199.04161	15
199.07669	5
201.01514	23
203.0295	21
204.00255	7
205.01047	5
209.06093	8
211.03696	11
211.07263	7
212.07961	6
213.04721	10
213.0551	11
215.03421	6
217.04138	5
219.02571	6
221.04642	12
225.0477	19
227.01738	5
228.03145	18
229.00162	6
229.04745	8
230.05206	8
231.06097	9
237.31117	5
238.06923	7
240.04524	10
240.05331	10
241.05333	20
242.05199	5
243.02196	6
243.03743	10
253.04575	14
254.04771	11
255.02657	30
255.0556	11
255.06482	8
255.08199	6
256.07233	9
257.60004	8
260.03296	5
264.45621	9
267.05801	6
267.07004	9
268.03598	5
269.0419	95
269.05234	28
270.0462	57
270.0607	8
271.05905	19
271.07013	15
272.06146	6
279.02911	8
283.02585	11
284.01712	19
284.03311	135
285.03802	342
286.02945	8
286.04398	33
286.06058	9
286.5199	5
287.0477	6
289.0434	5
294.05457	5
295.0563	23
297.03082	253
297.04193	372
297.08334	9
298.04422	438
298.63202	6
298.6824	7
299.05319	528
300.04089	9
300.05923	64
301.06921	9
301.30994	5
306.79581	6
309.03696	5
309.08545	5
310.04431	7
310.40115	6
311.04828	137
311.0683	30
312.03311	13
312.36316	7
313.03485	28
313.05957	11
321.07812	9
321.75879	7
324.01517	6
325.02905	41
325.0441	8
325.06384	6
326.03027	7
326.04294	10
326.90878	7
327.0498	1000
328.0513	171
329.05042	31
329.07336	8
329.17197	9
330.06598	15
331.05841	7
337.02097	6
337.05627	5
337.07645	18
339.04648	306
340.05212	52
340.07031	8
341.05429	73
341.07855	27
351.05573	20
355.04907	14
355.07785	7
357.03525	14
357.06097	471
358.06552	71
358.07913	36
360.0694	6
365.05896	5
365.07834	9
369.06021	35
370.06854	15
371.07492	5
381.08881	7
382.07498	5
383.06909	9
392.05426	7
393.05978	9

NAME: Kaempferol-3-O-glucoside-7-O-rhamnoside
PRECURSORMZ: 593.15119384783
PRECURSORTYPE: [M-H]-
INSTRUMENTTYPE: LC-ESI-QTOF
SMILES: CC1OC(OC2=CC(O)=C3C(=O)C(OC4OC(CO)C(O)C(O)C4O)=C(OC3=C2)C2=CC=C(O)C=C2)C(O)C(O)C1O
INCHIKEY: JYXSWDCPHRTYGU-UHFFFAOYNA-N
Ontology: Flavonoid-7-O-glycosides
COLLISIONENERGY: 30
FORMULA: C27H30O15
RETENTIONTIME: 3.665517
IONMODE: Negative
Comment: registered in RIKEN PlaSMA
Num Peaks: 28
151.0051	10
240.59724	6
241.0616	8
255.01816	6
255.02969	28
267.01816	6
283.02365	593
284.02536	221
284.04504	14
285.03873	1000
286.039	130
286.05038	58
287.04279	47
300.05017	8
327.05472	10
328.05695	9
348.81857	5
430.0885	550
431.09549	307
432.10013	42
433.10931	12
447.09091	216
447.13947	8
448.08475	31
448.09982	68
449.09048	6
593.14136	7
593.16565	11

NAME: trans-4-Coumaric acid
PRECURSORMZ: 163.04006764783
PRECURSORTYPE: [M-H]-
INSTRUMENTTYPE: LC-ESI-QTOF
SMILES: OC(=O)C=CC1=CC=C(O)C=C1
INCHIKEY: NGSWKAQJJWESNS-UHFFFAOYSA-N
Ontology: Hydroxycinnamic acids
COLLISIONENERGY: 30
FORMULA: C9H8O3
RETENTIONTIME: 4.006017
IONMODE: Negative
Comment: registered in RIKEN PlaSMA
Num Peaks: 14
65.03661	12
81.94184	15
89.03577	17
91.05192	30
93.03305	177
95.03731	31
104.0265	16
117.02544	12
117.03349	62
119.04881	1000
119.05555	219
120.0497	31
120.05602	18
158.98834	11

NAME: Luteolin-6-C-glucoside
PRECURSORMZ: 447.09328504783
PRECURSORTYPE: [M-H]-
INSTRUMENTTYPE: LC-ESI-QTOF
SMILES: OCC1OC(C(O)C(O)C1O)C1=C(O)C2=C(OC(=CC2=O)C2=CC(O)=C(O)C=C2)C=C1O
INCHIKEY: ODBRNZZJSYPIDI-UHFFFAOYNA-N
Ontology: Flavonoid C-glycosides
COLLISIONENERGY: 50
FORMULA: C21H20O11
RETENTIONTIME: 3.594683
IONMODE: Negative
Comment: registered in RIKEN PlaSMA
Num Peaks: 212
63.0254	20
65.00014	17
65.03646	11
67.01698	12
75.01943	12
77.03651	13
79.01949	17
80.0248	11
81.03474	15
83.01087	10
91.01703	19
91.02093	27
91.0552	12
93.03641	12
95.01457	13
97.02769	56
103.01994	11
105.03266	15
106.0408	11
107.00679	12
107.01501	31
108.02449	16
109.02054	12
109.02795	79
109.03156	37
115.01894	11
117.03112	15
119.00912	12
119.04714	57
120.02589	14
121.01972	11
121.02911	130
123.04381	11
124.02278	11
125.02666	19
126.02537	19
130.03447	16
131.00943	28
131.05119	13
132.01389	15
132.02289	10
133.02844	1000
134.03287	143
134.04039	46
135.00633	24
135.03569	24
135.0468	57
136.01176	12
137.01971	44
143.0546	20
144.02382	23
144.05336	12
145.02795	22
145.03305	10
145.06317	14
147.04814	35
148.02277	19
149.01218	11
149.02129	42
149.0585	17
149.15237	11
150.99335	29
151.00449	36
151.01051	12
151.03706	22
152.0378	11
153.06888	11
156.0174	14
156.06003	11
156.19798	11
158.03571	10
159.03969	11
161.01921	97
161.0293	43
162.03207	32
163.00275	242
163.04068	110
163.99873	12
164.01221	13
165.0155	74
165.04182	12
167.05276	28
168.05513	26
169.05992	13
169.06851	12
171.03	14
171.0826	11
173.0197	17
173.05946	10
175.00133	18
175.04187	115
176.04774	11
176.98172	12
177.01546	60
177.98485	13
178.01212	13
179.0462	16
181.05714	29
181.07866	11
181.13768	18
182.03583	42
182.06665	12
183.03534	12
184.04559	41
185.03212	19
185.05814	13
187.04123	51
187.04994	39
187.08136	14
188.00409	15
189.01576	12
190.02049	11
190.03372	14
193.00804	35
193.01703	18
193.04764	14
195.03726	38
195.04433	109
196.05042	11
197.02118	22
197.05569	38
198.02884	33
198.04263	25
199.03122	57
199.04784	14
200.03888	29
201.01776	67
201.03716	12
201.05753	44
202.015	14
203.03082	11
203.04015	10
209.06854	11
210.02608	17
210.06003	18
211.03294	70
211.04492	14
211.06644	17
212.04375	32
213.02168	11
213.05057	51
213.06183	10
214.05894	13
215.02664	20
215.05794	12
216.04036	12
217.05452	23
219.03191	12
221.03758	15
222.03967	10
223.04022	12
224.04308	32
225.0446	14
225.05547	24
226.02426	46
226.05768	49
227.03143	41
227.07628	28
228.07466	12
229.03235	12
229.05296	20
235.03215	12
236.04626	16
237.0619	27
239.03159	73
240.03574	25
241.04623	51
241.05753	32
242.01665	11
242.06789	14
243.03436	16
243.06354	13
251.04597	29
253.00194	10
253.04262	20
253.05382	54
254.0231	13
255.02582	40
257.04251	10
263.07211	10
268.04666	11
269.04538	66
270.04791	48
270.07101	14
271.05997	11
277.04865	13
279.01736	19
279.02905	14
281.03104	14
282.06696	14
283.01834	16
283.05029	25
284.02396	114
284.03629	40
285.03409	12
285.04477	23
285.05719	26
286.06137	16
295.0199	11
296.02866	11
297.01294	11
297.03601	230
297.06003	33
298.03479	55
298.04962	109
299.04303	10
299.06433	112
310.03757	13
311.05234	46
311.35172	12
341.70914	12
350.03751	10

NAME: Kaempferol-3-O-glucoside-7-O-rhamnoside
PRECURSORMZ: 593.15119384783
PRECURSORTYPE: [M-H]-
INSTRUMENTTYPE: LC-ESI-QTOF
SMILES: CC1OC(OC2=CC(O)=C3C(=O)C(OC4OC(CO)C(O)C(O)C4O)=C(OC3=C2)C2=CC=C(O)C=C2)C(O)C(O)C1O
INCHIKEY: JYXSWDCPHRTYGU-UHFFFAOYNA-N
Ontology: Flavonoid-7-O-glycosides
COLLISIONENERGY: 50
FORMULA: C27H30O15
RETENTIONTIME: 3.665517
IONMODE: Negative
Comment: registered in RIKEN PlaSMA
Num Peaks: 51
117.03413	6
151.00717	9
153.0152	8
154.03343	8
155.04439	6
155.06146	6
159.03848	10
160.04893	9
161.9959	8
165.01804	20
167.04472	5
169.06015	9
169.06691	37
171.04025	8
173.02338	7
174.02699	15
183.04036	23
183.04851	6
184.04451	9
185.05727	8
185.06888	7
187.03775	11
187.04939	7
189.0547	22
199.03658	6
199.04485	6
208.00377	6
211.04257	14
212.05104	8
213.0528	23
213.06068	14
214.02672	35
215.03699	18
227.03253	111
229.03772	8
239.02948	10
243.01511	8
243.03009	28
255.02963	672
256.03198	88
256.47729	5
257.04166	26
257.05197	8
258.0416	9
258.05231	7
267.4599	7
283.02457	1000
284.02661	168
285.039	350
286.04379	50
287.04608	19

NAME: trans-4-Coumaric acid
PRECURSORMZ: 163.04006764783
PRECURSORTYPE: [M-H]-
INSTRUMENTTYPE: LC-ESI-QTOF
SMILES: OC(=O)C=CC1=CC=C(O)C=C1
INCHIKEY: NGSWKAQJJWESNS-UHFFFAOYSA-N
Ontology: Hydroxycinnamic acids
COLLISIONENERGY: 50
FORMULA: C9H8O3
RETENTIONTIME: 4.006017
IONMODE: Negative
Comment: registered in RIKEN PlaSMA
Num Peaks: 3
93.03247	1000
117.03667	420
119.05137	290

NAME: Luteolin-6-C-glucoside
PRECURSORMZ: 447.09328504783
PRECURSORTYPE: [M-H]-
INSTRUMENTTYPE: LC-ESI-QTOF
SMILES: OCC1OC(C(O)C(O)C1O)C1=C(O)C2=C(OC(=CC2=O)C2=CC(O)=C(O)C=C2)C=C1O
INCHIKEY: ODBRNZZJSYPIDI-UHFFFAOYNA-N
Ontology: Flavonoid C-glycosides
COLLISIONENERGY: 10
FORMULA: C21H20O11
RETENTIONTIME: 3.594683
IONMODE: Negative
Comment: registered in RIKEN PlaSMA
Num Peaks: 108
109.02788	6
133.02145	8
133.02882	27
134.02985	15
134.04041	12
135.00784	6
149.02299	10
162.99706	18
163.00954	10
163.03748	7
165.01593	8
167.03146	5
169.07741	6
175.03989	20
187.03387	6
187.04318	6
191.02991	5
192.70697	10
198.06085	10
199.03929	9
201.01448	8
213.05746	10
218.05429	6
221.04091	5
224.04759	5
225.06042	7
227.03137	8
229.04561	10
239.03757	7
240.036	5
241.04823	6
243.02455	15
252.036	8
254.04233	6
255.0748	13
256.03497	14
268.03049	6
269.00952	6
269.03702	29
269.05118	25
270.03806	18
270.04825	13
281.04239	5
282.04422	6
284.03369	24
284.04553	17
285.02826	29
285.04205	111
286.04459	28
295.01984	5
296.03516	8
297.01517	7
297.04071	161
297.98148	6
298.04675	222
299.04321	39
299.05637	133
300.05508	22
310.05157	10
311.01892	6
311.0538	68
311.06546	29
313.03784	8
313.67511	6
324.02603	12
325.039	22
326.03809	20
326.9808	6
327.05106	680
327.08578	10
328.05362	167
328.08496	11
329.06027	6
329.07278	7
338.04449	7
339.04831	68
339.06723	16
340.05182	17
341.06149	9
343.05829	6
356.04974	6
357.06107	502
357.09155	5
357.10931	10
358.06393	110
359.05472	8
359.07581	10
365.05542	6
369.06021	52
371.05292	7
381.0726	6
387.07175	12
388.07581	8
393.06152	8
399.06143	6
411.04996	6
411.0817	13
411.97549	7
412.08109	9
429.08286	71
430.04031	6
430.0979	8
431.08679	17
432.0863	6
445.07996	9
446.07446	55
446.0943	25
447.09268	1000

NAME: Kaempferol-3-O-glucoside-7-O-rhamnoside
PRECURSORMZ: 593.15119384783
PRECURSORTYPE: [M-H]-
INSTRUMENTTYPE: LC-ESI-QTOF
SMILES: CC1OC(OC2=CC(O)=C3C(=O)C(OC4OC(CO)C(O)C(O)C4O)=C(OC3=C2)C2=CC=C(O)C=C2)C(O)C(O)C1O
INCHIKEY: JYXSWDCPHRTYGU-UHFFFAOYNA-N
Ontology: Flavonoid-7-O-glycosides
COLLISIONENERGY: 10
FORMULA: C27H30O15
RETENTIONTIME: 3.665517
IONMODE: Negative
Comment: registered in RIKEN PlaSMA
Num Peaks: 28
155.15564	6
213.04329	8
213.05624	8
255.01828	7
255.02936	23
255.04396	6
256.03339	7
257.0524	8
258.04346	7
283.02313	425
284.03055	158
285.0372	419
286.04391	104
287.0426	12
327.04282	20
328.04855	7
430.08902	262
431.09344	281
432.08505	23
432.10315	65
433.10605	29
447.08984	302
448.0831	14
448.09683	30
448.12619	8
449.10422	17
593.15015	1000
593.23193	8

NAME: trans-4-Coumaric acid
PRECURSORMZ: 163.04006764783
PRECURSORTYPE: [M-H]-
INSTRUMENTTYPE: LC-ESI-QTOF
SMILES: OC(=O)C=CC1=CC=C(O)C=C1
INCHIKEY: NGSWKAQJJWESNS-UHFFFAOYSA-N
Ontology: Hydroxycinnamic acids
COLLISIONENERGY: 10
FORMULA: C9H8O3
RETENTIONTIME: 4.006017
IONMODE: Negative
Comment: registered in RIKEN PlaSMA
Num Peaks: 5
93.03525	13
119.0486	1000
120.0518	110
121.05606	6
163.03839	152

NAME: Luteolin-6-C-glucoside
PRECURSORMZ: 447.09328504783
PRECURSORTYPE: [M-H]-
INSTRUMENTTYPE: LC-ESI-QTOF
SMILES: OCC1OC(C(O)C(O)C1O)C1=C(O)C2=C(OC(=CC2=O)C2=CC(O)=C(O)C=C2)C=C1O
INCHIKEY: ODBRNZZJSYPIDI-UHFFFAOYNA-N
Ontology: Flavonoid C-glycosides
COLLISIONENERGY: 10
FORMULA: C21H20O11
RETENTIONTIME: 3.594683
IONMODE: Negative
Comment: registered in RIKEN PlaSMA
Num Peaks: 14
313.03635	5
327.05145	140
328.05298	33
356.05176	5
357.06119	108
358.05331	14
358.0694	16
369.05978	9
429.07184	16
429.08597	14
445.07877	28
446.06598	12
446.08026	38
447.09219	1000

NAME: Kaempferol-3-O-glucoside-7-O-rhamnoside
PRECURSORMZ: 593.15119384783
PRECURSORTYPE: [M-H]-
INSTRUMENTTYPE: LC-ESI-QTOF
SMILES: CC1OC(OC2=CC(O)=C3C(=O)C(OC4OC(CO)C(O)C(O)C4O)=C(OC3=C2)C2=CC=C(O)C=C2)C(O)C(O)C1O
INCHIKEY: JYXSWDCPHRTYGU-UHFFFAOYNA-N
Ontology: Flavonoid-7-O-glycosides
COLLISIONENERGY: 10
FORMULA: C27H30O15
RETENTIONTIME: 3.665517
IONMODE: Negative
Comment: registered in RIKEN PlaSMA
Num Peaks: 6
285.03711	6
431.09903	30
432.10724	10
447.09357	43
448.0968	11
593.14996	1000

NAME: trans-4-Coumaric acid
PRECURSORMZ: 163.04006764783
PRECURSORTYPE: [M-H]-
INSTRUMENTTYPE: LC-ESI-QTOF
SMILES: OC(=O)C=CC1=CC=C(O)C=C1
INCHIKEY: NGSWKAQJJWESNS-UHFFFAOYSA-N
Ontology: Hydroxycinnamic acids
COLLISIONENERGY: 10
FORMULA: C9H8O3
RETENTIONTIME: 4.006017
IONMODE: Negative
Comment: registered in RIKEN PlaSMA
Num Peaks: 3
119.0489	1000
120.05218	94
163.03828	272

NAME: Luteolin-6-C-glucoside
PRECURSORMZ: 447.09328504783
PRECURSORTYPE: [M-H]-
INSTRUMENTTYPE: LC-ESI-QTOF
SMILES: OCC1OC(C(O)C(O)C1O)C1=C(O)C2=C(OC(=CC2=O)C2=CC(O)=C(O)C=C2)C=C1O
INCHIKEY: ODBRNZZJSYPIDI-UHFFFAOYNA-N
Ontology: Flavonoid C-glycosides
COLLISIONENERGY: 30
FORMULA: C21H20O11
RETENTIONTIME: 3.594683
IONMODE: Negative
Comment: registered in RIKEN PlaSMA
Num Peaks: 216
57.48208	6
57.74049	5
105.02924	6
109.02574	8
109.0322	9
111.93671	6
119.05058	7
125.02247	6
132.02188	7
132.99336	9
133.02036	6
133.03143	38
134.03166	22
135.03897	8
135.05151	5
137.02007	6
143.0441	7
145.03204	8
147.04161	6
149.02382	22
151.03668	8
157.06709	5
159.00478	5
159.05983	6
159.08005	8
161.02249	9
161.05103	6
162.99858	13
163.00545	21
163.03658	24
164.03358	8
165.0094	7
168.05505	6
172.01152	10
174.03909	10
174.99802	6
175.03062	15
175.04056	61
175.08202	9
176.04288	10
177.01721	10
179.0014	6
179.02858	15
183.32649	7
185.02237	6
185.02991	10
189.01994	8
191.03445	14
191.0432	7
193.01088	22
194.01321	10
194.76549	9
196.63615	9
199.03149	5
199.04451	8
200.38826	8
201.01003	6
201.0191	10
202.99854	5
203.02902	28
203.03802	25
204.59273	7
206.02544	7
210.73367	7
211.07962	9
213.015	6
213.05698	9
213.06386	6
214.02269	7
214.05634	5
215.04025	10
216.07784	7
217.04587	6
217.05769	8
218.0575	6
218.81892	6
220.02419	7
221.04166	10
223.03094	7
224.89743	9
225.05885	12
226.01729	6
227.03285	9
227.06796	9
228.04633	6
229.0155	25
238.01567	6
239.02779	6
240.0433	7
240.83392	6
241.01479	6
241.03976	19
242.05083	7
243.02971	43
243.06145	21
248.05229	8
249.04941	6
251.03169	8
251.08411	7
253.05101	5
253.21309	7
254.06584	7
255.0314	14
255.0724	12
256.02707	5
265.03177	7
266.41104	8
267.06384	10
268.03421	13
268.56662	5
269.04434	110
270.04056	40
270.05057	50
271.05518	22
272.06296	11
273.077	6
274.06879	7
277.83664	7
280.04272	8
280.06	5
281.04349	24
282.04373	5
284.03134	139
284.05807	6
285.03915	414
286.03839	83
287.03598	10
287.04785	7
287.08936	6
291.1008	10
293.0412	7
295.03894	13
295.05197	10
296.03467	5
296.06732	8
296.99521	5
297.01321	7
297.03903	614
297.99316	6
298.04608	569
298.06555	32
298.15839	6
299.05576	588
300.05856	129
300.08127	5
301.05038	16
301.06262	12
301.07458	5
301.33862	8
304.81061	14
308.04544	9
309.0423	7
309.92917	8
310.04691	5
310.34283	6
310.63626	7
311.05511	183
312.01233	5
312.05679	25
312.07788	9
313.03677	25
321.02496	10
321.03595	6
322.05606	5
323.05554	7
324.02499	65
325.02151	11
325.03342	37
325.07849	7
326.02127	6
326.03891	7
326.05066	7
327.0502	1000
328.04532	84
328.05789	89
328.0737	20
329.0459	21
329.08282	9
329.64386	6
330.06042	6
331.05145	5
337.06281	5
338.02713	6
338.07111	8
338.66098	10
339.05222	257
340.04657	64
340.06262	26
341.06256	41
342.05637	9
352.07953	13
352.86758	7
354.07669	6
355.04129	7
356.04373	6
357.0593	463
357.87894	5
358.06586	121
358.08676	14
359.05679	7
359.06802	7
363.05399	6
365.06531	13
366.0668	7
369.06094	18
370.05679	7
371.07025	6
371.0918	6
381.06146	36
381.08289	10
382.06512	7
383.07965	11
392.13049	6
399.06976	9
411.05945	8
430.07852	7

NAME: Kaempferol-3-O-glucoside-7-O-rhamnoside
PRECURSORMZ: 593.15119384783
PRECURSORTYPE: [M-H]-
INSTRUMENTTYPE: LC-ESI-QTOF
SMILES: CC1OC(OC2=CC(O)=C3C(=O)C(OC4OC(CO)C(O)C(O)C4O)=C(OC3=C2)C2=CC=C(O)C=C2)C(O)C(O)C1O
INCHIKEY: JYXSWDCPHRTYGU-UHFFFAOYNA-N
Ontology: Flavonoid-7-O-glycosides
COLLISIONENERGY: 30
FORMULA: C27H30O15
RETENTIONTIME: 3.665517
IONMODE: Negative
Comment: registered in RIKEN PlaSMA
Num Peaks: 27
151.00757	14
181.00755	7
181.01924	6
255.02902	11
257.03714	9
283.0235	651
284.02823	211
285.01105	8
285.03931	1000
286.04288	177
287.04129	12
327.04742	12
371.03134	5
430.05585	8
430.08963	502
430.16592	5
431.09464	320
432.09375	73
432.12967	7
433.10391	13
434.11703	8
447.0932	224
448.08597	29
448.09967	27
448.12842	5
449.09607	32
593.14447	31

NAME: trans-4-Coumaric acid
PRECURSORMZ: 163.04006764783
PRECURSORTYPE: [M-H]-
INSTRUMENTTYPE: LC-ESI-QTOF
SMILES: OC(=O)C=CC1=CC=C(O)C=C1
INCHIKEY: NGSWKAQJJWESNS-UHFFFAOYSA-N
Ontology: Hydroxycinnamic acids
COLLISIONENERGY: 30
FORMULA: C9H8O3
RETENTIONTIME: 4.006017
IONMODE: Negative
Comment: registered in RIKEN PlaSMA
Num Peaks: 10
91.05377	44
93.0324	150
93.03782	59
94.03924	47
94.26595	12
116.93317	12
117.03327	34
117.03889	34
119.04924	1000
120.05256	101

NAME: Luteolin-6-C-glucoside
PRECURSORMZ: 447.09328504783
PRECURSORTYPE: [M-H]-
INSTRUMENTTYPE: LC-ESI-QTOF
SMILES: OCC1OC(C(O)C(O)C1O)C1=C(O)C2=C(OC(=CC2=O)C2=CC(O)=C(O)C=C2)C=C1O
INCHIKEY: ODBRNZZJSYPIDI-UHFFFAOYNA-N
Ontology: Flavonoid C-glycosides
COLLISIONENERGY: 50
FORMULA: C21H20O11
RETENTIONTIME: 3.594683
IONMODE: Negative
Comment: registered in RIKEN PlaSMA
Num Peaks: 200
66.00217	11
67.017	20
77.03884	49
79.01469	13
86.37057	19
91.01744	10
91.05314	13
92.02891	23
93.0321	10
94.00752	11
95.01223	12
97.03191	10
101.03456	11
103.01727	10
103.05396	17
103.05939	26
105.02873	25
105.03347	36
107.01088	111
107.02143	11
107.05586	40
108.02197	23
109.02855	136
110.03336	43
115.01921	10
115.35162	19
117.03194	23
119.0471	12
121.02605	37
121.03268	33
122.02936	13
125.03633	13
127.05425	11
129.03142	11
131.05264	13
132.0208	60
133.0282	1000
134.02885	61
134.03589	125
135.00092	22
135.01195	24
135.04286	78
136.01166	12
136.04594	23
136.93178	18
137.01805	23
139.04002	15
141.07513	21
142.03951	12
144.06081	15
145.02824	54
147.00485	14
147.03427	15
147.04608	10
148.01671	45
149.02158	38
149.02963	13
150.0229	18
150.99998	88
151.03981	54
153.02979	19
153.06998	13
157.03099	19
157.06181	25
157.99788	14
158.03792	14
159.03975	24
159.04828	43
161.0195	79
161.02965	23
162.03027	30
163.0022	91
163.03534	10
163.04524	54
164.01208	13
165.00786	16
165.01738	49
167.05017	11
168.05026	16
169.06392	36
169.07082	22
170.03935	24
170.07585	10
171.04713	68
173.02409	22
173.04919	53
174.03152	39
174.04561	12
175.00401	14
175.03699	96
176.01241	19
176.04428	29
177.02179	19
177.05963	13
178.01555	11
181.4762	10
182.07408	27
183.03627	38
183.04897	16
184.0475	23
184.06665	10
185.06071	15
186.06271	17
187.04193	11
188.00801	11
188.04059	14
189.02383	16
189.98712	33
191.03679	13
192.00746	28
195.04845	16
196.04759	27
197.05492	48
198.02707	35
199.03748	24
199.0554	24
200.03938	14
200.04527	25
201.01111	21
201.02135	39
201.06775	18
202.02039	12
203.07478	19
205.01562	54
208.05051	28
209.05801	13
211.0437	24
212.02856	13
212.04541	23
213.05641	55
215.03938	29
221.71829	11
222.02483	13
223.03503	35
224.03813	22
225.05151	121
226.0321	12
226.04768	15
226.06178	16
227.03999	42
227.07285	18
228.04187	30
228.06717	27
229.04794	24
231.05551	17
236.03883	10
237.06172	11
239.03737	53
239.08452	17
240.04153	73
240.05025	18
241.04674	38
241.06767	27
242.05789	14
242.06473	28
243.06252	42
251.02928	27
251.04408	12
253.0401	28
253.05034	28
254.04536	12
255.02295	27
255.04034	18
255.06274	35
264.03738	13
267.03018	21
267.06125	12
268.02838	20
268.03937	12
269.04361	162
270.05219	22
270.065	18
270.16901	10
271.05685	12
279.03238	23
279.05444	13
281.04129	22
281.05301	13
282.01242	12
282.04892	29
284.03101	111
285.03439	57
286.04694	14
287.04053	11
296.0321	11
297.0228	52
297.03583	170
297.05981	26
298.04373	73
298.06165	48
299.04608	22
299.06799	22
299.15445	16
309.02811	13
310.05875	11
311.02203	13
312.04953	22
338.05542	11
340.043	13
349.30771	11

NAME: Kaempferol-3-O-glucoside-7-O-rhamnoside
PRECURSORMZ: 593.15119384783
PRECURSORTYPE: [M-H]-
INSTRUMENTTYPE: LC-ESI-QTOF
SMILES: CC1OC(OC2=CC(O)=C3C(=O)C(OC4OC(CO)C(O)C(O)C4O)=C(OC3=C2)C2=CC=C(O)C=C2)C(O)C(O)C1O
INCHIKEY: JYXSWDCPHRTYGU-UHFFFAOYNA-N
Ontology: Flavonoid-7-O-glycosides
COLLISIONENERGY: 50
FORMULA: C27H30O15
RETENTIONTIME: 3.665517
IONMODE: Negative
Comment: registered in RIKEN PlaSMA
Num Peaks: 60
137.02049	6
143.04468	7
143.05693	5
151.00026	10
151.99998	5
154.04523	9
155.05281	6
161.99374	15
163.00551	8
165.01729	10
167.05078	7
169.06458	52
171.04066	14
171.04646	6
173.01973	5
180.05112	6
182.03929	8
183.04552	34
184.03894	15
184.04816	6
185.05885	26
186.03949	6
187.03241	11
189.05562	14
190.05452	5
195.04984	6
198.01901	8
211.03876	43
211.6705	6
212.05412	5
213.05489	46
214.02341	15
214.03244	6
214.06064	8
215.03247	10
215.04008	12
227.03537	54
228.04387	8
229.04143	7
229.05196	12
239.03699	11
240.03426	7
241.05345	16
241.67197	7
243.03137	25
255.03018	688
256.03207	125
257.03021	18
257.04443	48
258.04254	15
268.03427	6
269.04456	5
282.03046	5
283.02332	1000
284.02747	189
285.03824	368
286.04059	54
287.0397	8
379.94797	6
430.0889	10

NAME: trans-4-Coumaric acid
PRECURSORMZ: 163.04006764783
PRECURSORTYPE: [M-H]-
INSTRUMENTTYPE: LC-ESI-QTOF
SMILES: OC(=O)C=CC1=CC=C(O)C=C1
INCHIKEY: NGSWKAQJJWESNS-UHFFFAOYSA-N
Ontology: Hydroxycinnamic acids
COLLISIONENERGY: 50
FORMULA: C9H8O3
RETENTIONTIME: 4.006017
IONMODE: Negative
Comment: registered in RIKEN PlaSMA
Num Peaks: 3
93.03924	1000
94.03755	488
119.05001	547

NAME: Malvidin-3-O-glucoside
PRECURSORMZ: 491.11895121576
PRECURSORTYPE: [M-2H]-
INSTRUMENTTYPE: LC-ESI-QTOF
SMILES: COC1=CC(=CC(OC)=C1O)C1=C(OC2OC(CO)C(O)C(O)C2O)C=C2C(O)=CC(O)=CC2=[O+]1
INCHIKEY: PXUQTDZNOHRWLI-UHFFFAOYNA-O
Ontology: Anthocyanidin-3-O-glycosides
COLLISIONENERGY: 10
FORMULA: C23H25O12
RETENTIONTIME: 3.213417
IONMODE: Negative
Comment: registered in RIKEN PlaSMA
Num Peaks: 37
71.01448	22
144.79242	36
192.0273	28
227.04372	22
242.02425	31
243.02693	18
254.01256	20
256.99698	44
257.03448	21
270.01395	99
271.01025	24
271.02771	47
286.04507	33
287.05072	28
299.0199	102
299.0434	24
300.01324	35
311.04346	19
312.0177	20
313.01917	37
313.03497	187
313.04605	77
314.03513	154
314.05084	51
317.07172	44
328.05356	238
329.06354	1000
330.0694	88
330.08444	24
332.07654	38
333.0705	21
343.09525	19
375.47855	24
383.06815	36
401.07593	31
444.69543	48
491.11804	373

NAME: Kaempferol-3-O-robinoside-7-O-rhamnoside
PRECURSORMZ: 739.20910264783
PRECURSORTYPE: [M-H]-
INSTRUMENTTYPE: LC-ESI-QTOF
SMILES: CC1OC(OCC2OC(OC3=C(OC4=CC(OC5OC(C)C(O)C(O)C5O)=CC(O)=C4C3=O)C3=CC=C(O)C=C3)C(O)C(O)C2O)C(O)C(O)C1O
INCHIKEY: PEFASEPMJYRQBW-UHFFFAOYNA-N
Ontology: Flavonoid-7-O-glycosides
COLLISIONENERGY: 10
FORMULA: C33H40O19
RETENTIONTIME: 3.57605
IONMODE: Negative
Comment: registered in RIKEN PlaSMA
Num Peaks: 24
151.00261	13
178.99867	11
283.01456	19
283.02707	36
284.00906	12
284.03275	188
285.02335	23
285.03955	199
286.03674	22
286.04593	9
327.05194	21
357.05737	7
430.08005	23
430.09018	44
431.09006	13
431.11069	16
593.15021	969
594.15265	297
595.15363	82
595.18542	6
596.13306	9
596.15942	14
739.20813	1000
739.25977	7

NAME: Kaempferol-3-O-galactoside-7-O-rhamnoside
PRECURSORMZ: 593.15119384783
PRECURSORTYPE: [M-H]-
INSTRUMENTTYPE: LC-ESI-QTOF
SMILES: CC1OC(OC2=CC(O)=C3C(=O)C(OC4OC(CO)C(O)C(O)C4O)=C(OC3=C2)C2=CC=C(O)C=C2)C(O)C(O)C1O
INCHIKEY: JYXSWDCPHRTYGU-UHFFFAOYNA-N
Ontology: Flavonoid-7-O-glycosides
COLLISIONENERGY: 10
FORMULA: C27H30O15
RETENTIONTIME: 3.5989
IONMODE: Negative
Comment: registered in RIKEN PlaSMA
Num Peaks: 27
107.01389	7
133.02612	6
150.99872	11
151.00706	14
179.00383	5
213.04918	6
226.02409	6
255.02849	32
256.03506	10
257.05197	11
265.37024	5
283.02332	487
284.02988	167
285.03787	299
286.02493	8
286.03946	30
287.04736	10
326.07007	7
327.05469	20
430.09012	329
431.09564	95
432.09644	43
447.09274	603
448.09427	106
449.0979	36
579.51367	8
593.15125	1000

NAME: Luteolin-7-O-glucoside
PRECURSORMZ: 447.09328504783
PRECURSORTYPE: [M-H]-
INSTRUMENTTYPE: LC-ESI-QTOF
SMILES: OCC1OC(OC2=CC(O)=C3C(=O)C=C(OC3=C2)C2=CC(O)=C(O)C=C2)C(O)C(O)C1O
INCHIKEY: PEFNSGRTCBGNAN-UHFFFAOYNA-N
Ontology: Flavonoid-7-O-glycosides
COLLISIONENERGY: 10
FORMULA: C21H20O11
RETENTIONTIME: 4.068067
IONMODE: Negative
Comment: registered in RIKEN PlaSMA
Num Peaks: 23
107.00952	5
111.03399	6
134.03325	7
147.04784	9
152.00568	8
212.04555	6
217.05586	8
223.03552	15
231.07327	8
241.04761	9
255.0275	13
256.02945	7
256.0451	9
266.02338	6
283.02768	17
284.03278	331
285.03857	1000
286.04199	132
287.047	25
327.06406	7
437.55753	7
447.09213	837
447.19778	8

NAME: 3-Hydroxycinnamic acid
PRECURSORMZ: 163.04006764783
PRECURSORTYPE: [M-H]-
INSTRUMENTTYPE: LC-ESI-QTOF
SMILES: OC(=O)C=CC1=CC(O)=CC=C1
INCHIKEY: KKSDGJDHHZEWEP-UHFFFAOYSA-N
Ontology: Hydroxycinnamic acids
COLLISIONENERGY: 10
FORMULA: C9H8O3
RETENTIONTIME: 4.405233
IONMODE: Negative
Comment: registered in RIKEN PlaSMA
Num Peaks: 6
91.05625	9
93.03598	12
94.03763	6
119.04824	1000
120.05285	114
163.03799	349

NAME: Naringenin
PRECURSORMZ: 271.06119704783
PRECURSORTYPE: [M-H]-
INSTRUMENTTYPE: LC-ESI-QTOF
SMILES: OC1=CC=C(C=C1)C1CC(=O)C2=C(O)C=C(O)C=C2O1
INCHIKEY: FTVWIRXFELQLPI-UHFFFAOYNA-N
Ontology: Flavanones
COLLISIONENERGY: 10
FORMULA: C15H12O5
RETENTIONTIME: 5.957833
IONMODE: Negative
Comment: registered in RIKEN PlaSMA
Num Peaks: 36
63.02315	18
65.00248	36
83.00897	11
83.01412	42
93.0322	109
107.01157	233
109.03253	9
117.0327	8
119.04884	603
120.05243	43
125.02031	17
133.02718	11
143.05042	13
145.03093	9
151.00249	1000
152.00444	43
152.01268	24
153.0049	8
161.05721	19
165.01678	79
177.01561	103
177.02264	68
178.01579	6
178.02664	14
184.05022	6
185.05211	12
185.0614	17
186.06464	6
187.03185	6
187.04216	15
201.05244	7
227.06566	6
227.07492	9
253.05394	6
271.06079	965
271.1059	6

NAME: Malvidin-3-O-glucoside
PRECURSORMZ: 491.11895121576
PRECURSORTYPE: [M-2H]-
INSTRUMENTTYPE: LC-ESI-QTOF
SMILES: COC1=CC(=CC(OC)=C1O)C1=C(OC2OC(CO)C(O)C(O)C2O)C=C2C(O)=CC(O)=CC2=[O+]1
INCHIKEY: PXUQTDZNOHRWLI-UHFFFAOYNA-O
Ontology: Anthocyanidin-3-O-glycosides
COLLISIONENERGY: 10
FORMULA: C23H25O12
RETENTIONTIME: 3.213417
IONMODE: Negative
Comment: registered in RIKEN PlaSMA
Num Peaks: 17
137.80585	22
156.53983	26
214.1851	16
313.0325	23
322.53641	14
328.05237	92
328.06628	51
329.06525	839
330.05896	50
330.07053	163
331.07965	19
343.07455	22
343.09265	45
383.06937	19
401.082	15
421.8378	18
491.11853	1000

NAME: Kaempferol-3-O-robinoside-7-O-rhamnoside
PRECURSORMZ: 739.20910264783
PRECURSORTYPE: [M-H]-
INSTRUMENTTYPE: LC-ESI-QTOF
SMILES: CC1OC(OCC2OC(OC3=C(OC4=CC(OC5OC(C)C(O)C(O)C5O)=CC(O)=C4C3=O)C3=CC=C(O)C=C3)C(O)C(O)C2O)C(O)C(O)C1O
INCHIKEY: PEFASEPMJYRQBW-UHFFFAOYNA-N
Ontology: Flavonoid-7-O-glycosides
COLLISIONENERGY: 10
FORMULA: C33H40O19
RETENTIONTIME: 3.57605
IONMODE: Negative
Comment: registered in RIKEN PlaSMA
Num Peaks: 3
593.15405	113
594.15417	29
739.20911	1000

NAME: Kaempferol-3-O-galactoside-7-O-rhamnoside
PRECURSORMZ: 593.15119384783
PRECURSORTYPE: [M-H]-
INSTRUMENTTYPE: LC-ESI-QTOF
SMILES: CC1OC(OC2=CC(O)=C3C(=O)C(OC4OC(CO)C(O)C(O)C4O)=C(OC3=C2)C2=CC=C(O)C=C2)C(O)C(O)C1O
INCHIKEY: JYXSWDCPHRTYGU-UHFFFAOYNA-N
Ontology: Flavonoid-7-O-glycosides
COLLISIONENERGY: 10
FORMULA: C27H30O15
RETENTIONTIME: 3.5989
IONMODE: Negative
Comment: registered in RIKEN PlaSMA
Num Peaks: 5
431.108	6
447.09045	105
448.09625	27
449.09616	10
593.15149	1000

NAME: Luteolin-7-O-glucoside
PRECURSORMZ: 447.09328504783
PRECURSORTYPE: [M-H]-
INSTRUMENTTYPE: LC-ESI-QTOF
SMILES: OCC1OC(OC2=CC(O)=C3C(=O)C=C(OC3=C2)C2=CC(O)=C(O)C=C2)C(O)C(O)C1O
INCHIKEY: PEFNSGRTCBGNAN-UHFFFAOYNA-N
Ontology: Flavonoid-7-O-glycosides
COLLISIONENERGY: 10
FORMULA: C21H20O11
RETENTIONTIME: 4.068067
IONMODE: Negative
Comment: registered in RIKEN PlaSMA
Num Peaks: 6
283.02271	6
285.03793	59
286.03867	15
446.07986	8
447.09061	1000
447.12775	6

NAME: 3-Hydroxycinnamic acid
PRECURSORMZ: 163.04006764783
PRECURSORTYPE: [M-H]-
INSTRUMENTTYPE: LC-ESI-QTOF
SMILES: OC(=O)C=CC1=CC(O)=CC=C1
INCHIKEY: KKSDGJDHHZEWEP-UHFFFAOYSA-N
Ontology: Hydroxycinnamic acids
COLLISIONENERGY: 10
FORMULA: C9H8O3
RETENTIONTIME: 4.405233
IONMODE: Negative
Comment: registered in RIKEN PlaSMA
Num Peaks: 5
91.05285	9
119.049	1000
120.05202	92
121.05641	13
163.03862	687

NAME: Myricetin
PRECURSORMZ: 317.03029084783
PRECURSORTYPE: [M-H]-
INSTRUMENTTYPE: LC-ESI-QTOF
SMILES: OC1=CC(O)=C2C(OC(=C(O)C2=O)C2=CC(O)=C(O)C(O)=C2)=C1
INCHIKEY: IKMDFBPHZNJCSN-UHFFFAOYSA-N
Ontology: Flavonols
COLLISIONENERGY: 10
FORMULA: C15H10O8
RETENTIONTIME: 4.661467
IONMODE: Negative
Comment: registered in RIKEN PlaSMA
Num Peaks: 15
151.00114	39
152.00945	7
173.02333	6
178.99408	80
192.00557	9
271.02444	8
287.00311	8
287.01743	42
288.00745	6
288.02133	32
289.03091	10
315.01331	167
315.03467	6
316.01682	217
317.02856	1000

NAME: Naringenin
PRECURSORMZ: 271.06119704783
PRECURSORTYPE: [M-H]-
INSTRUMENTTYPE: LC-ESI-QTOF
SMILES: OC1=CC=C(C=C1)C1CC(=O)C2=C(O)C=C(O)C=C2O1
INCHIKEY: FTVWIRXFELQLPI-UHFFFAOYNA-N
Ontology: Flavanones
COLLISIONENERGY: 10
FORMULA: C15H12O5
RETENTIONTIME: 5.957833
IONMODE: Negative
Comment: registered in RIKEN PlaSMA
Num Peaks: 12
93.03332	19
107.01282	10
119.04887	39
120.0529	5
125.02356	6
151.00206	322
152.00601	23
165.01671	16
177.01833	51
178.01837	6
227.0699	7
271.05984	1000

NAME: Malvidin-3-O-glucoside
PRECURSORMZ: 491.11895121576
PRECURSORTYPE: [M-2H]-
INSTRUMENTTYPE: LC-ESI-QTOF
SMILES: COC1=CC(=CC(OC)=C1O)C1=C(OC2OC(CO)C(O)C(O)C2O)C=C2C(O)=CC(O)=CC2=[O+]1
INCHIKEY: PXUQTDZNOHRWLI-UHFFFAOYNA-O
Ontology: Anthocyanidin-3-O-glycosides
COLLISIONENERGY: 30
FORMULA: C23H25O12
RETENTIONTIME: 3.213417
IONMODE: Negative
Comment: registered in RIKEN PlaSMA
Num Peaks: 28
138.0289	22
147.06155	23
174.99167	19
214.02277	26
225.02385	24
226.01802	40
226.02762	26
253.94736	46
254.02103	66
255.0309	77
269.01288	26
270.00162	25
272.03131	44
281.0072	19
282.00296	31
282.04404	23
286.0455	37
298.00516	26
299.01221	120
300.01239	47
301.05481	19
302.05991	32
313.03448	1000
314.04019	147
328.05786	372
329.06647	398
330.0639	32
343.09476	25

NAME: Kaempferol-3-O-robinoside-7-O-rhamnoside
PRECURSORMZ: 739.20910264783
PRECURSORTYPE: [M-H]-
INSTRUMENTTYPE: LC-ESI-QTOF
SMILES: CC1OC(OCC2OC(OC3=C(OC4=CC(OC5OC(C)C(O)C(O)C5O)=CC(O)=C4C3=O)C3=CC=C(O)C=C3)C(O)C(O)C2O)C(O)C(O)C1O
INCHIKEY: PEFASEPMJYRQBW-UHFFFAOYNA-N
Ontology: Flavonoid-7-O-glycosides
COLLISIONENERGY: 30
FORMULA: C33H40O19
RETENTIONTIME: 3.57605
IONMODE: Negative
Comment: registered in RIKEN PlaSMA
Num Peaks: 19
151.00447	9
269.04462	5
283.01447	7
283.02554	9
284.02838	115
285.03821	148
286.04187	28
327.0466	16
327.05972	10
430.07449	20
430.08783	49
431.09351	21
432.0975	6
593.14929	1000
594.15491	278
595.14496	53
595.16077	38
596.1593	12
739.21478	12

NAME: Kaempferol-3-O-galactoside-7-O-rhamnoside
PRECURSORMZ: 593.15119384783
PRECURSORTYPE: [M-H]-
INSTRUMENTTYPE: LC-ESI-QTOF
SMILES: CC1OC(OC2=CC(O)=C3C(=O)C(OC4OC(CO)C(O)C(O)C4O)=C(OC3=C2)C2=CC=C(O)C=C2)C(O)C(O)C1O
INCHIKEY: JYXSWDCPHRTYGU-UHFFFAOYNA-N
Ontology: Flavonoid-7-O-glycosides
COLLISIONENERGY: 30
FORMULA: C27H30O15
RETENTIONTIME: 3.5989
IONMODE: Negative
Comment: registered in RIKEN PlaSMA
Num Peaks: 75
124.01335	6
124.73054	7
133.42572	6
148.28758	7
149.02127	8
151.00276	16
152.00174	6
153.01648	6
161.33739	6
168.67705	6
169.01306	5
174.03258	11
178.93529	7
179.04103	8
187.03674	7
208.73274	7
209.00471	11
217.05544	7
226.32071	7
227.02684	6
229.05858	6
237.05223	8
241.92476	7
244.37141	6
251.24557	10
255.02246	7
255.03296	25
256.07193	7
257.04517	14
269.04431	14
277.05859	6
283.0231	1000
283.04913	7
284.02899	378
284.05682	6
284.87241	7
285.0386	750
286.04105	154
287.034	7
287.05078	7
287.48132	7
288.05621	6
290.85297	6
293.06601	6
297.60574	7
299.04919	6
303.8132	8
313.03809	7
314.047	19
327.04044	19
327.05884	6
329.0567	6
343.82828	7
349.93054	8
353.05029	7
353.06192	7
357.06418	8
391.6796	6
403.10312	7
430.08932	842
430.13217	6
430.50589	5
431.0961	302
432.07056	14
432.09628	69
433.10703	13
446.45395	6
447.09247	733
447.13797	12
448.09631	191
449.10104	47
450.08179	6
483.78131	6
593.12988	13
593.1546	36

NAME: Luteolin-7-O-glucoside
PRECURSORMZ: 447.09328504783
PRECURSORTYPE: [M-H]-
INSTRUMENTTYPE: LC-ESI-QTOF
SMILES: OCC1OC(OC2=CC(O)=C3C(=O)C=C(OC3=C2)C2=CC(O)=C(O)C=C2)C(O)C(O)C1O
INCHIKEY: PEFNSGRTCBGNAN-UHFFFAOYNA-N
Ontology: Flavonoid-7-O-glycosides
COLLISIONENERGY: 30
FORMULA: C21H20O11
RETENTIONTIME: 4.068067
IONMODE: Negative
Comment: registered in RIKEN PlaSMA
Num Peaks: 16
58.00336	5
133.02556	6
134.03822	8
151.0036	17
175.03882	8
217.04813	9
243.02837	13
243.03786	5
255.02856	11
256.03787	24
257.04688	7
284.03125	477
285.03857	1000
286.04227	201
287.0473	34
298.04401	7

NAME: 3-Hydroxycinnamic acid
PRECURSORMZ: 163.04006764783
PRECURSORTYPE: [M-H]-
INSTRUMENTTYPE: LC-ESI-QTOF
SMILES: OC(=O)C=CC1=CC(O)=CC=C1
INCHIKEY: KKSDGJDHHZEWEP-UHFFFAOYSA-N
Ontology: Hydroxycinnamic acids
COLLISIONENERGY: 30
FORMULA: C9H8O3
RETENTIONTIME: 4.405233
IONMODE: Negative
Comment: registered in RIKEN PlaSMA
Num Peaks: 5
89.04211	63
91.05405	186
92.05733	60
117.03117	114
119.04852	1000

NAME: Naringenin
PRECURSORMZ: 271.06119704783
PRECURSORTYPE: [M-H]-
INSTRUMENTTYPE: LC-ESI-QTOF
SMILES: OC1=CC=C(C=C1)C1CC(=O)C2=C(O)C=C(O)C=C2O1
INCHIKEY: FTVWIRXFELQLPI-UHFFFAOYNA-N
Ontology: Flavanones
COLLISIONENERGY: 30
FORMULA: C15H12O5
RETENTIONTIME: 5.957833
IONMODE: Negative
Comment: registered in RIKEN PlaSMA
Num Peaks: 41
63.02323	25
65.00255	89
80.02542	13
83.01173	145
84.01203	7
89.03741	5
93.03352	82
107.01248	224
108.0162	31
109.02865	5
109.03342	6
117.03305	18
117.41328	6
119.04861	1000
120.05044	97
120.05843	8
121.03279	11
121.05235	7
121.05766	7
125.01898	10
133.03362	11
134.03601	7
136.01556	10
143.04657	31
145.02806	23
146.03346	9
151.00107	133
152.00531	29
156.06598	6
158.06529	6
159.04314	6
161.05881	37
167.04726	9
177.02075	28
183.04478	7
185.05759	11
185.06511	14
187.03903	63
199.06812	7
209.05373	6
224.04323	6

NAME: Malvidin-3-O-glucoside
PRECURSORMZ: 491.11895121576
PRECURSORTYPE: [M-2H]-
INSTRUMENTTYPE: LC-ESI-QTOF
SMILES: COC1=CC(=CC(OC)=C1O)C1=C(OC2OC(CO)C(O)C(O)C2O)C=C2C(O)=CC(O)=CC2=[O+]1
INCHIKEY: PXUQTDZNOHRWLI-UHFFFAOYNA-O
Ontology: Anthocyanidin-3-O-glycosides
COLLISIONENERGY: 50
FORMULA: C23H25O12
RETENTIONTIME: 3.213417
IONMODE: Negative
Comment: registered in RIKEN PlaSMA
Num Peaks: 42
115.0283	75
119.01432	113
154.03473	84
154.04509	92
175.04456	75
185.02211	113
186.02882	192
198.03128	264
214.01974	255
214.03206	180
215.02786	79
216.03023	88
217.06952	84
226.01695	84
226.02666	477
226.03639	167
227.03889	126
228.05077	88
230.04753	113
241.01685	75
241.1331	75
242.01729	795
242.02795	414
243.03041	548
252.00575	100
253.01166	88
254.02052	289
255.01826	234
255.03258	84
257.03854	117
258.03464	79
270.01459	1000
271.01105	176
271.02814	364
272.02524	84
281.99695	100
283.01495	151
285.02902	130
286.02649	92
300.02402	117
313.03854	238
314.03946	138

NAME: Kaempferol-3-O-robinoside-7-O-rhamnoside
PRECURSORMZ: 739.20910264783
PRECURSORTYPE: [M-H]-
INSTRUMENTTYPE: LC-ESI-QTOF
SMILES: CC1OC(OCC2OC(OC3=C(OC4=CC(OC5OC(C)C(O)C(O)C5O)=CC(O)=C4C3=O)C3=CC=C(O)C=C3)C(O)C(O)C2O)C(O)C(O)C1O
INCHIKEY: PEFASEPMJYRQBW-UHFFFAOYNA-N
Ontology: Flavonoid-7-O-glycosides
COLLISIONENERGY: 50
FORMULA: C33H40O19
RETENTIONTIME: 3.57605
IONMODE: Negative
Comment: registered in RIKEN PlaSMA
Num Peaks: 44
151.00194	49
192.00482	8
193.01663	7
197.0643	6
212.06473	6
213.05431	13
227.02437	10
227.0396	54
228.03522	16
229.04153	18
239.03719	7
241.04608	12
255.00717	6
255.03047	291
256.02597	16
256.03754	50
257.04172	28
257.06134	5
258.05786	11
261.60687	7
267.01248	7
267.02802	6
271.05923	9
281.04684	9
283.02448	821
284.03168	1000
285.03906	712
286.04156	102
286.05298	31
287.03922	21
287.46765	5
299.05637	8
327.04535	13
327.05945	10
391.39493	7
430.08389	20
430.10126	21
430.11609	12
431.07864	6
431.09506	6
432.10406	7
593.14838	8
593.16412	12
594.15735	9

NAME: Kaempferol-3-O-galactoside-7-O-rhamnoside
PRECURSORMZ: 593.15119384783
PRECURSORTYPE: [M-H]-
INSTRUMENTTYPE: LC-ESI-QTOF
SMILES: CC1OC(OC2=CC(O)=C3C(=O)C(OC4OC(CO)C(O)C(O)C4O)=C(OC3=C2)C2=CC=C(O)C=C2)C(O)C(O)C1O
INCHIKEY: JYXSWDCPHRTYGU-UHFFFAOYNA-N
Ontology: Flavonoid-7-O-glycosides
COLLISIONENERGY: 50
FORMULA: C27H30O15
RETENTIONTIME: 3.5989
IONMODE: Negative
Comment: registered in RIKEN PlaSMA
Num Peaks: 70
107.01125	20
109.02681	6
117.03019	6
120.5264	5
143.05434	7
144.04608	7
146.06834	9
151.00227	29
159.05286	5
163.00079	6
164.00914	10
165.02592	6
167.04787	24
169.06604	28
169.07378	9
171.04686	15
179.05289	7
183.03496	9
183.04489	18
183.05664	11
184.04871	18
187.03542	6
189.05484	11
197.05576	9
199.03873	24
201.04648	6
209.00357	6
211.02188	6
211.03911	20
212.0535	6
213.04793	17
213.05615	29
214.02049	11
214.02826	14
215.03568	23
216.0399	13
217.05136	8
227.03494	118
227.05084	6
228.03404	16
229.04796	11
229.06032	5
236.07722	6
240.03923	5
241.05055	7
243.03987	10
254.16003	7
255.0033	5
255.02985	776
255.06004	7
256.03143	127
256.04074	41
257.02475	8
257.04004	19
257.05673	7
258.03036	11
258.04953	7
258.06079	10
264.57455	8
272.25681	6
282.96124	6
283.0231	1000
284.02884	234
284.03766	72
285.04047	434
285.06284	12
286.04425	75
287.04788	8
298.04266	6
328.20074	6

NAME: Luteolin-7-O-glucoside
PRECURSORMZ: 447.09328504783
PRECURSORTYPE: [M-H]-
INSTRUMENTTYPE: LC-ESI-QTOF
SMILES: OCC1OC(OC2=CC(O)=C3C(=O)C=C(OC3=C2)C2=CC(O)=C(O)C=C2)C(O)C(O)C1O
INCHIKEY: PEFNSGRTCBGNAN-UHFFFAOYNA-N
Ontology: Flavonoid-7-O-glycosides
COLLISIONENERGY: 50
FORMULA: C21H20O11
RETENTIONTIME: 4.068067
IONMODE: Negative
Comment: registered in RIKEN PlaSMA
Num Peaks: 121
62.28825	15
63.02452	146
64.0246	16
65.00284	19
79.02671	28
83.00738	15
84.77352	15
94.0087	20
106.00085	20
107.01273	336
108.01736	24
108.02639	25
109.03251	26
115.05624	15
121.02776	26
122.01282	18
123.00605	31
131.00179	23
131.0098	26
132.02309	15
133.02113	66
133.02928	268
134.02428	45
134.03696	15
134.04369	24
135.04387	21
136.01434	16
136.04062	36
141.03096	27
144.02039	17
145.04071	20
145.06339	21
145.89905	15
148.0145	89
149.02319	23
149.03098	26
149.06261	19
149.99263	42
149.9995	18
150.02678	21
150.99368	84
151.00493	179
152.01047	22
155.05371	57
159.03622	31
159.04608	21
161.0231	21
169.06642	27
170.04482	29
171.04611	83
172.05295	39
174.03171	66
175.03224	34
175.03893	45
175.04935	19
177.0094	18
177.01891	26
179.05302	24
181.02104	23
183.04152	124
183.0549	37
184.05434	45
185.03084	21
185.05627	24
185.06314	19
187.03726	55
187.048	18
188.0435	21
189.05168	21
194.30544	17
195.04231	39
196.04614	30
197.02701	17
198.03191	34
199.03773	130
199.21571	23
200.04749	69
201.05748	45
203.03185	24
210.02039	24
210.02945	19
211.02727	18
211.04086	72
211.05185	21
212.04175	23
212.05045	25
213.05505	45
214.01999	25
215.02797	18
216.02869	28
217.05185	25
217.866	18
218.0491	15
227.02829	215
227.04012	39
228.03384	70
228.35861	21
238.88643	23
239.03514	37
240.033	30
240.04178	74
241.04134	25
242.01192	29
255.01451	37
255.03181	193
256.02142	21
256.03885	180
256.05753	39
257.04471	40
259.04868	17
268.02667	27
283.01788	95
283.035	24
284.03268	1000
284.06003	15
285.02429	55
285.04245	239
286.02509	18
286.0484	44
297.04831	18
385.10593	24

NAME: 3-Hydroxycinnamic acid
PRECURSORMZ: 163.04006764783
PRECURSORTYPE: [M-H]-
INSTRUMENTTYPE: LC-ESI-QTOF
SMILES: OC(=O)C=CC1=CC(O)=CC=C1
INCHIKEY: KKSDGJDHHZEWEP-UHFFFAOYSA-N
Ontology: Hydroxycinnamic acids
COLLISIONENERGY: 50
FORMULA: C9H8O3
RETENTIONTIME: 4.405233
IONMODE: Negative
Comment: registered in RIKEN PlaSMA
Num Peaks: 1
151.00183	1000

NAME: Myricetin
PRECURSORMZ: 317.03029084783
PRECURSORTYPE: [M-H]-
INSTRUMENTTYPE: LC-ESI-QTOF
SMILES: OC1=CC(O)=C2C(OC(=C(O)C2=O)C2=CC(O)=C(O)C(O)=C2)=C1
INCHIKEY: IKMDFBPHZNJCSN-UHFFFAOYSA-N
Ontology: Flavonols
COLLISIONENERGY: 50
FORMULA: C15H10O8
RETENTIONTIME: 4.661467
IONMODE: Negative
Comment: registered in RIKEN PlaSMA
Num Peaks: 20
63.02082	310
65.0041	128
81.03316	102
82.03406	137
84.01591	80
95.04836	111
105.03503	119
109.02625	1000
109.03596	217
111.02067	106
120.0508	93
122.02878	106
125.01485	111
125.0206	128
126.02832	88
135.03923	97
137.0275	80
147.03262	111
197.02792	128
214.02379	133

NAME: Naringenin
PRECURSORMZ: 271.06119704783
PRECURSORTYPE: [M-H]-
INSTRUMENTTYPE: LC-ESI-QTOF
SMILES: OC1=CC=C(C=C1)C1CC(=O)C2=C(O)C=C(O)C=C2O1
INCHIKEY: FTVWIRXFELQLPI-UHFFFAOYNA-N
Ontology: Flavanones
COLLISIONENERGY: 50
FORMULA: C15H12O5
RETENTIONTIME: 5.957833
IONMODE: Negative
Comment: registered in RIKEN PlaSMA
Num Peaks: 17
63.01724	40
63.02273	63
65.0006	38
65.04305	46
83.00761	57
83.01299	113
115.05444	38
116.02715	44
117.02943	88
117.03883	55
119.04897	1000
120.04892	109
125.0148	42
132.02284	50
137.02234	38
152.01012	63
165.04114	75

NAME: Kaempferol-3-O-robinoside-7-O-rhamnoside
PRECURSORMZ: 739.20910264783
PRECURSORTYPE: [M-H]-
INSTRUMENTTYPE: LC-ESI-QTOF
SMILES: CC1OC(OCC2OC(OC3=C(OC4=CC(OC5OC(C)C(O)C(O)C5O)=CC(O)=C4C3=O)C3=CC=C(O)C=C3)C(O)C(O)C2O)C(O)C(O)C1O
INCHIKEY: PEFASEPMJYRQBW-UHFFFAOYNA-N
Ontology: Flavonoid-7-O-glycosides
COLLISIONENERGY: 10
FORMULA: C33H40O19
RETENTIONTIME: 3.57605
IONMODE: Negative
Comment: registered in RIKEN PlaSMA
Num Peaks: 20
151.00325	7
178.9901	5
256.03021	10
283.02182	90
284.03247	178
285.03757	219
286.04486	44
327.04971	16
430.08755	73
430.1077	16
431.09332	32
502.78595	5
593.14966	1000
593.19714	6
594.15662	259
595.13	10
595.16174	81
596.15625	20
597.13477	5
739.20782	863

NAME: Kaempferol-3-O-galactoside-7-O-rhamnoside
PRECURSORMZ: 593.15119384783
PRECURSORTYPE: [M-H]-
INSTRUMENTTYPE: LC-ESI-QTOF
SMILES: CC1OC(OC2=CC(O)=C3C(=O)C(OC4OC(CO)C(O)C(O)C4O)=C(OC3=C2)C2=CC=C(O)C=C2)C(O)C(O)C1O
INCHIKEY: JYXSWDCPHRTYGU-UHFFFAOYNA-N
Ontology: Flavonoid-7-O-glycosides
COLLISIONENERGY: 10
FORMULA: C27H30O15
RETENTIONTIME: 3.5989
IONMODE: Negative
Comment: registered in RIKEN PlaSMA
Num Peaks: 27
151.01266	7
153.83765	5
169.06516	5
197.06392	6
217.05489	6
239.0334	7
255.03178	44
257.06046	6
267.02704	7
283.02368	381
284.02832	143
285.0376	266
286.03827	38
327.04837	7
327.06702	5
340.10394	5
377.94864	5
392.84845	6
430.0896	228
431.09409	138
432.08231	7
432.09964	13
447.09592	612
448.09543	210
449.08948	13
449.10358	16
593.1496	1000

NAME: Luteolin-7-O-glucoside
PRECURSORMZ: 447.09328504783
PRECURSORTYPE: [M-H]-
INSTRUMENTTYPE: LC-ESI-QTOF
SMILES: OCC1OC(OC2=CC(O)=C3C(=O)C=C(OC3=C2)C2=CC(O)=C(O)C=C2)C(O)C(O)C1O
INCHIKEY: PEFNSGRTCBGNAN-UHFFFAOYNA-N
Ontology: Flavonoid-7-O-glycosides
COLLISIONENERGY: 10
FORMULA: C21H20O11
RETENTIONTIME: 4.068067
IONMODE: Negative
Comment: registered in RIKEN PlaSMA
Num Peaks: 28
107.01931	6
109.03082	6
134.03165	5
136.01732	7
151.00305	12
167.04939	7
198.03235	6
199.03572	9
211.03413	9
213.05402	10
217.05219	22
224.04788	6
227.03319	7
243.02635	6
255.03316	8
256.03677	15
257.03339	7
267.0249	6
283.03409	11
284.02988	358
285.03772	1000
286.04102	135
287.04135	27
297.02335	7
299.05402	11
327.0466	7
446.09424	8
447.09213	747

NAME: 3-Hydroxycinnamic acid
PRECURSORMZ: 163.04006764783
PRECURSORTYPE: [M-H]-
INSTRUMENTTYPE: LC-ESI-QTOF
SMILES: OC(=O)C=CC1=CC(O)=CC=C1
INCHIKEY: KKSDGJDHHZEWEP-UHFFFAOYSA-N
Ontology: Hydroxycinnamic acids
COLLISIONENERGY: 10
FORMULA: C9H8O3
RETENTIONTIME: 4.405233
IONMODE: Negative
Comment: registered in RIKEN PlaSMA
Num Peaks: 5
91.05396	14
119.04884	1000
120.05177	101
121.18912	5
163.03848	250

NAME: Naringenin
PRECURSORMZ: 271.06119704783
PRECURSORTYPE: [M-H]-
INSTRUMENTTYPE: LC-ESI-QTOF
SMILES: OC1=CC=C(C=C1)C1CC(=O)C2=C(O)C=C(O)C=C2O1
INCHIKEY: FTVWIRXFELQLPI-UHFFFAOYNA-N
Ontology: Flavanones
COLLISIONENERGY: 10
FORMULA: C15H12O5
RETENTIONTIME: 5.957833
IONMODE: Negative
Comment: registered in RIKEN PlaSMA
Num Peaks: 28
63.02624	7
65.00385	21
65.00724	5
83.0128	40
84.01733	8
93.03172	48
93.03906	7
94.03553	5
107.01196	179
119.04909	513
120.05242	42
121.02878	10
125.02406	8
143.04984	26
145.0274	19
145.04175	8
149.02911	6
151.00244	825
152.00435	70
153.00615	15
165.0168	50
177.01854	132
178.01987	15
185.06207	13
187.03885	9
227.07002	12
229.05237	11
271.05939	1000

NAME: Malvidin-3-O-glucoside
PRECURSORMZ: 491.11895121576
PRECURSORTYPE: [M-2H]-
INSTRUMENTTYPE: LC-ESI-QTOF
SMILES: COC1=CC(=CC(OC)=C1O)C1=C(OC2OC(CO)C(O)C(O)C2O)C=C2C(O)=CC(O)=CC2=[O+]1
INCHIKEY: PXUQTDZNOHRWLI-UHFFFAOYNA-O
Ontology: Anthocyanidin-3-O-glycosides
COLLISIONENERGY: 10
FORMULA: C23H25O12
RETENTIONTIME: 3.213417
IONMODE: Negative
Comment: registered in RIKEN PlaSMA
Num Peaks: 14
167.04121	20
261.88928	13
327.0408	12
328.05945	65
329.06708	739
329.50323	12
330.06116	96
330.07202	99
331.07291	30
332.07452	14
341.06317	13
449.12207	16
459.07874	14
491.11987	1000

NAME: Kaempferol-3-O-robinoside-7-O-rhamnoside
PRECURSORMZ: 739.20910264783
PRECURSORTYPE: [M-H]-
INSTRUMENTTYPE: LC-ESI-QTOF
SMILES: CC1OC(OCC2OC(OC3=C(OC4=CC(OC5OC(C)C(O)C(O)C5O)=CC(O)=C4C3=O)C3=CC=C(O)C=C3)C(O)C(O)C2O)C(O)C(O)C1O
INCHIKEY: PEFASEPMJYRQBW-UHFFFAOYNA-N
Ontology: Flavonoid-7-O-glycosides
COLLISIONENERGY: 10
FORMULA: C33H40O19
RETENTIONTIME: 3.57605
IONMODE: Negative
Comment: registered in RIKEN PlaSMA
Num Peaks: 3
593.14874	98
594.15021	27
739.21002	1000

NAME: Kaempferol-3-O-galactoside-7-O-rhamnoside
PRECURSORMZ: 593.15119384783
PRECURSORTYPE: [M-H]-
INSTRUMENTTYPE: LC-ESI-QTOF
SMILES: CC1OC(OC2=CC(O)=C3C(=O)C(OC4OC(CO)C(O)C(O)C4O)=C(OC3=C2)C2=CC=C(O)C=C2)C(O)C(O)C1O
INCHIKEY: JYXSWDCPHRTYGU-UHFFFAOYNA-N
Ontology: Flavonoid-7-O-glycosides
COLLISIONENERGY: 10
FORMULA: C27H30O15
RETENTIONTIME: 3.5989
IONMODE: Negative
Comment: registered in RIKEN PlaSMA
Num Peaks: 4
431.09024	8
447.08932	112
448.10141	30
593.15228	1000

NAME: Luteolin-7-O-glucoside
PRECURSORMZ: 447.09328504783
PRECURSORTYPE: [M-H]-
INSTRUMENTTYPE: LC-ESI-QTOF
SMILES: OCC1OC(OC2=CC(O)=C3C(=O)C=C(OC3=C2)C2=CC(O)=C(O)C=C2)C(O)C(O)C1O
INCHIKEY: PEFNSGRTCBGNAN-UHFFFAOYNA-N
Ontology: Flavonoid-7-O-glycosides
COLLISIONENERGY: 10
FORMULA: C21H20O11
RETENTIONTIME: 4.068067
IONMODE: Negative
Comment: registered in RIKEN PlaSMA
Num Peaks: 4
285.03967	70
286.03479	14
446.08862	6
447.09256	1000

NAME: 3-Hydroxycinnamic acid
PRECURSORMZ: 163.04006764783
PRECURSORTYPE: [M-H]-
INSTRUMENTTYPE: LC-ESI-QTOF
SMILES: OC(=O)C=CC1=CC(O)=CC=C1
INCHIKEY: KKSDGJDHHZEWEP-UHFFFAOYSA-N
Ontology: Hydroxycinnamic acids
COLLISIONENERGY: 10
FORMULA: C9H8O3
RETENTIONTIME: 4.405233
IONMODE: Negative
Comment: registered in RIKEN PlaSMA
Num Peaks: 4
119.04887	1000
120.05154	86
121.06073	9
163.03914	499

NAME: Myricetin
PRECURSORMZ: 317.03029084783
PRECURSORTYPE: [M-H]-
INSTRUMENTTYPE: LC-ESI-QTOF
SMILES: OC1=CC(O)=C2C(OC(=C(O)C2=O)C2=CC(O)=C(O)C(O)=C2)=C1
INCHIKEY: IKMDFBPHZNJCSN-UHFFFAOYSA-N
Ontology: Flavonols
COLLISIONENERGY: 10
FORMULA: C15H10O8
RETENTIONTIME: 4.661467
IONMODE: Negative
Comment: registered in RIKEN PlaSMA
Num Peaks: 24
107.0159	6
137.02092	28
138.02654	7
151.00021	29
151.00885	11
152.00606	10
174.9494	5
178.99742	123
179.99707	23
192.00694	10
193.01414	29
231.02649	5
259.03098	7
261.02878	5
271.02853	8
287.01382	19
287.02884	10
288.02109	48
289.02417	16
290.02444	7
300.02472	7
315.01724	112
316.01801	158
317.0285	1000

NAME: Naringenin
PRECURSORMZ: 271.06119704783
PRECURSORTYPE: [M-H]-
INSTRUMENTTYPE: LC-ESI-QTOF
SMILES: OC1=CC=C(C=C1)C1CC(=O)C2=C(O)C=C(O)C=C2O1
INCHIKEY: FTVWIRXFELQLPI-UHFFFAOYNA-N
Ontology: Flavanones
COLLISIONENERGY: 10
FORMULA: C15H12O5
RETENTIONTIME: 5.957833
IONMODE: Negative
Comment: registered in RIKEN PlaSMA
Num Peaks: 8
93.03304	22
107.01254	10
119.04942	55
151.0024	323
152.00342	21
165.01727	9
177.01721	61
271.05972	1000

NAME: Kaempferol-3-O-robinoside-7-O-rhamnoside
PRECURSORMZ: 739.20910264783
PRECURSORTYPE: [M-H]-
INSTRUMENTTYPE: LC-ESI-QTOF
SMILES: CC1OC(OCC2OC(OC3=C(OC4=CC(OC5OC(C)C(O)C(O)C5O)=CC(O)=C4C3=O)C3=CC=C(O)C=C3)C(O)C(O)C2O)C(O)C(O)C1O
INCHIKEY: PEFASEPMJYRQBW-UHFFFAOYNA-N
Ontology: Flavonoid-7-O-glycosides
COLLISIONENERGY: 30
FORMULA: C33H40O19
RETENTIONTIME: 3.57605
IONMODE: Negative
Comment: registered in RIKEN PlaSMA
Num Peaks: 16
283.02783	20
284.03024	107
285.03839	155
286.04654	27
327.05087	15
430.08456	53
430.10501	11
431.0975	20
432.10101	5
593.15082	1000
594.15552	339
595.15472	75
595.17273	22
596.15967	7
597.16016	5
739.22168	14

NAME: Kaempferol-3-O-galactoside-7-O-rhamnoside
PRECURSORMZ: 593.15119384783
PRECURSORTYPE: [M-H]-
INSTRUMENTTYPE: LC-ESI-QTOF
SMILES: CC1OC(OC2=CC(O)=C3C(=O)C(OC4OC(CO)C(O)C(O)C4O)=C(OC3=C2)C2=CC=C(O)C=C2)C(O)C(O)C1O
INCHIKEY: JYXSWDCPHRTYGU-UHFFFAOYNA-N
Ontology: Flavonoid-7-O-glycosides
COLLISIONENERGY: 30
FORMULA: C27H30O15
RETENTIONTIME: 3.5989
IONMODE: Negative
Comment: registered in RIKEN PlaSMA
Num Peaks: 63
107.01077	5
144.29106	11
150.99995	35
152.00206	12
153.0134	9
174.0295	6
178.99509	12
181.05959	8
181.79926	5
192.20064	9
213.05618	7
239.07233	5
244.8358	10
255.01276	15
255.02557	22
256.05103	7
257.05258	7
270.05569	6
270.08142	7
281.29483	7
283.02399	1000
283.05045	10
284.02844	394
285.0376	831
286.021	6
286.03448	34
286.04587	54
286.33286	7
287.0347	7
287.04404	24
299.05508	9
300.04822	7
300.05899	10
303.45856	8
308.51218	6
309.11624	5
327.04721	27
327.08798	7
329.06348	5
335.0553	9
353.06564	6
353.09109	8
359.06259	7
361.16098	5
366.38306	5
395.63034	7
419.11118	8
429.90216	5
430.08981	921
431.09436	350
432.01144	6
432.1041	78
447.09216	669
447.17844	5
448.08765	130
448.10519	46
448.12811	6
448.67468	5
449.08136	7
449.10925	33
450.0816	6
514.14313	6
593.15198	97

NAME: Luteolin-7-O-glucoside
PRECURSORMZ: 447.09328504783
PRECURSORTYPE: [M-H]-
INSTRUMENTTYPE: LC-ESI-QTOF
SMILES: OCC1OC(OC2=CC(O)=C3C(=O)C=C(OC3=C2)C2=CC(O)=C(O)C=C2)C(O)C(O)C1O
INCHIKEY: PEFNSGRTCBGNAN-UHFFFAOYNA-N
Ontology: Flavonoid-7-O-glycosides
COLLISIONENERGY: 30
FORMULA: C21H20O11
RETENTIONTIME: 4.068067
IONMODE: Negative
Comment: registered in RIKEN PlaSMA
Num Peaks: 11
133.0293	6
195.05045	6
255.02847	18
256.0314	16
284.03204	525
285.03842	1000
286.03952	195
287.04483	37
327.05325	5
328.04996	5
447.07553	5

NAME: 3-Hydroxycinnamic acid
PRECURSORMZ: 163.04006764783
PRECURSORTYPE: [M-H]-
INSTRUMENTTYPE: LC-ESI-QTOF
SMILES: OC(=O)C=CC1=CC(O)=CC=C1
INCHIKEY: KKSDGJDHHZEWEP-UHFFFAOYSA-N
Ontology: Hydroxycinnamic acids
COLLISIONENERGY: 30
FORMULA: C9H8O3
RETENTIONTIME: 4.405233
IONMODE: Negative
Comment: registered in RIKEN PlaSMA
Num Peaks: 8
89.03887	103
91.05438	84
92.0545	73
92.05936	88
92.20487	84
93.03027	96
117.0312	103
119.05072	1000

NAME: Myricetin
PRECURSORMZ: 317.03029084783
PRECURSORTYPE: [M-H]-
INSTRUMENTTYPE: LC-ESI-QTOF
SMILES: OC1=CC(O)=C2C(OC(=C(O)C2=O)C2=CC(O)=C(O)C(O)=C2)=C1
INCHIKEY: IKMDFBPHZNJCSN-UHFFFAOYSA-N
Ontology: Flavonols
COLLISIONENERGY: 30
FORMULA: C15H10O8
RETENTIONTIME: 4.661467
IONMODE: Negative
Comment: registered in RIKEN PlaSMA
Num Peaks: 63
63.02234	157
65.00398	54
81.0332	35
83.01133	82
93.02959	31
107.01382	609
107.139	54
109.02901	307
109.99349	42
110.03143	54
115.05688	75
118.03342	51
124.01317	35
125.01885	103
125.03946	79
135.00674	84
137.02295	759
138.02238	37
139.00764	37
141.02728	47
144.04808	49
145.0294	42
146.02922	49
147.04865	37
149.02347	65
151.0018	1000
152.00026	31
153.00899	49
153.03821	52
158.03387	72
159.04692	92
160.05452	45
164.00458	58
165.01605	37
169.02901	37
171.04123	84
173.02841	40
175.03319	45
178.99844	98
183.05124	42
185.02757	124
187.03333	131
188.00943	31
190.02879	40
203.03746	110
204.03647	35
213.01068	79
214.01204	37
214.02699	47
216.03342	92
217.01309	37
219.03481	49
231.02078	37
241.01147	47
243.02695	35
243.04999	49
243.99297	47
244.03877	59
261.04919	51
271.01434	35
271.03342	98
287.01019	108
315.79568	31

NAME: Naringenin
PRECURSORMZ: 271.06119704783
PRECURSORTYPE: [M-H]-
INSTRUMENTTYPE: LC-ESI-QTOF
SMILES: OC1=CC=C(C=C1)C1CC(=O)C2=C(O)C=C(O)C=C2O1
INCHIKEY: FTVWIRXFELQLPI-UHFFFAOYNA-N
Ontology: Flavanones
COLLISIONENERGY: 30
FORMULA: C15H12O5
RETENTIONTIME: 5.957833
IONMODE: Negative
Comment: registered in RIKEN PlaSMA
Num Peaks: 42
63.02353	26
65.00121	38
65.00642	18
68.99669	7
79.02068	5
83.01235	55
83.19991	7
84.01662	7
93.03177	30
97.28269	7
107.01271	202
108.01711	25
109.03084	10
115.05515	13
117.03236	14
117.03838	6
118.03532	7
119.04917	1000
120.05309	67
121.02409	6
130.04031	7
133.02945	9
134.0289	6
136.01141	9
137.02191	8
143.04961	23
144.05243	5
145.02887	44
146.03619	7
149.0204	6
151.00276	175
152.00471	11
161.05432	5
161.06181	21
165.01521	17
165.02676	5
177.01381	15
177.03029	6
185.0616	5
187.04034	57
188.04724	8
209.05943	6

NAME: Kaempferol-3-O-robinoside-7-O-rhamnoside
PRECURSORMZ: 739.20910264783
PRECURSORTYPE: [M-H]-
INSTRUMENTTYPE: LC-ESI-QTOF
SMILES: CC1OC(OCC2OC(OC3=C(OC4=CC(OC5OC(C)C(O)C(O)C5O)=CC(O)=C4C3=O)C3=CC=C(O)C=C3)C(O)C(O)C2O)C(O)C(O)C1O
INCHIKEY: PEFASEPMJYRQBW-UHFFFAOYNA-N
Ontology: Flavonoid-7-O-glycosides
COLLISIONENERGY: 50
FORMULA: C33H40O19
RETENTIONTIME: 3.57605
IONMODE: Negative
Comment: registered in RIKEN PlaSMA
Num Peaks: 42
107.01322	7
151.00079	31
163.00507	6
170.06828	6
173.06541	8
175.03529	9
178.99379	14
197.05817	5
206.03551	7
213.05157	13
216.03983	5
217.04585	8
227.03407	29
227.0439	19
228.03558	8
229.05324	14
231.10487	9
240.03658	6
255.02777	288
255.0573	8
256.02829	22
256.03857	31
257.04129	35
257.07889	5
258.05341	10
267.0177	6
283.0242	954
284.03119	1000
284.06519	5
285.03894	667
286.04123	150
287.04214	15
291.38046	5
299.04727	5
299.06107	16
327.05072	20
430.06891	11
430.08829	53
431.08612	11
431.09857	17
447.09299	10
593.15814	7

NAME: Kaempferol-3-O-galactoside-7-O-rhamnoside
PRECURSORMZ: 593.15119384783
PRECURSORTYPE: [M-H]-
INSTRUMENTTYPE: LC-ESI-QTOF
SMILES: CC1OC(OC2=CC(O)=C3C(=O)C(OC4OC(CO)C(O)C(O)C4O)=C(OC3=C2)C2=CC=C(O)C=C2)C(O)C(O)C1O
INCHIKEY: JYXSWDCPHRTYGU-UHFFFAOYNA-N
Ontology: Flavonoid-7-O-glycosides
COLLISIONENERGY: 50
FORMULA: C27H30O15
RETENTIONTIME: 3.5989
IONMODE: Negative
Comment: registered in RIKEN PlaSMA
Num Peaks: 73
93.03201	5
93.03876	6
108.0128	6
120.99467	6
133.03041	5
142.24712	6
143.05537	8
145.03104	8
148.99017	7
149.5692	8
150.99654	7
151.00891	14
151.99879	5
152.00514	5
154.04361	10
155.04486	5
159.04486	15
161.02541	6
165.01671	11
165.06027	6
167.04834	31
169.03603	9
169.06174	23
169.07095	19
170.06551	5
171.05023	9
183.03745	19
183.17014	5
184.0479	9
185.05852	17
186.05138	5
187.03903	26
188.04262	11
189.05444	16
189.6409	6
195.04234	10
197.06371	8
200.05026	8
203.38217	10
204.40608	10
211.03334	20
211.04553	18
213.02161	8
213.05249	19
214.02643	14
215.03996	7
216.04356	6
217.04918	6
221.00349	5
227.03467	122
228.03508	13
229.0455	19
239.02428	6
241.04837	5
243.02025	8
243.02956	7
243.04056	8
255.02936	745
255.05377	21
256.02942	140
257.03995	33
257.40164	6
267.02426	6
274.52612	5
283.02435	1000
283.05438	10
284.0289	230
285.03818	307
286.03998	44
286.05743	16
287.04715	7
430.10641	6
593.14465	71

NAME: Luteolin-7-O-glucoside
PRECURSORMZ: 447.09328504783
PRECURSORTYPE: [M-H]-
INSTRUMENTTYPE: LC-ESI-QTOF
SMILES: OCC1OC(OC2=CC(O)=C3C(=O)C=C(OC3=C2)C2=CC(O)=C(O)C=C2)C(O)C(O)C1O
INCHIKEY: PEFNSGRTCBGNAN-UHFFFAOYNA-N
Ontology: Flavonoid-7-O-glycosides
COLLISIONENERGY: 50
FORMULA: C21H20O11
RETENTIONTIME: 4.068067
IONMODE: Negative
Comment: registered in RIKEN PlaSMA
Num Peaks: 110
63.0237	16
83.0104	63
83.01608	21
92.47773	21
105.03421	15
107.0125	467
117.0317	15
120.05216	35
121.02086	17
121.03222	53
121.99759	31
129.0387	29
132.02032	50
132.02673	20
133.02635	476
133.04478	26
134.03581	216
134.04567	15
135.04298	15
136.01175	16
137.04088	21
139.05525	20
143.04723	18
145.03003	39
145.04008	38
145.05806	21
145.06602	19
147.00859	39
148.00888	21
149.02023	19
149.02905	34
149.04013	28
149.05734	19
149.99576	26
151.00365	385
152.00121	21
160.01462	22
161.02408	26
163.00351	20
167.05124	27
169.02554	17
171.04524	18
172.04292	16
172.04959	22
173.02315	15
173.06039	17
174.02263	39
174.99469	16
175.02802	21
175.04077	38
176.01445	23
177.02165	24
183.04755	187
184.05023	15
185.02553	21
185.05928	42
186.0239	17
186.06232	33
187.04366	104
188.04677	75
188.0547	23
189.01761	21
190.41168	27
195.04121	68
197.06548	21
198.02887	19
198.03847	26
199.02716	19
199.03767	81
199.04726	34
200.04018	19
200.05171	91
201.01804	19
211.03174	47
211.04189	126
212.0407	39
212.05235	31
213.04715	32
214.02744	39
215.03302	42
217.04768	26
217.05377	63
218.05484	15
222.03444	21
226.03189	17
226.0448	17
227.02824	125
227.03604	238
228.03819	38
228.04712	45
239.03506	50
240.03064	38
243.02338	50
243.21652	16
254.91304	21
255.02119	92
255.03279	101
256.03699	327
257.03247	34
258.03488	20
283.02023	69
284.03055	1000
284.88971	20
285.03824	397
285.21564	15
286.03543	20
286.04648	18
287.03452	44
287.04614	21
445.44009	24

NAME: Myricetin
PRECURSORMZ: 317.03029084783
PRECURSORTYPE: [M-H]-
INSTRUMENTTYPE: LC-ESI-QTOF
SMILES: OC1=CC(O)=C2C(OC(=C(O)C2=O)C2=CC(O)=C(O)C(O)=C2)=C1
INCHIKEY: IKMDFBPHZNJCSN-UHFFFAOYSA-N
Ontology: Flavonols
COLLISIONENERGY: 50
FORMULA: C15H10O8
RETENTIONTIME: 4.661467
IONMODE: Negative
Comment: registered in RIKEN PlaSMA
Num Peaks: 19
63.02363	183
63.02952	105
81.03303	115
96.0213	126
104.05515	94
109.02838	1000
110.02812	220
114.04067	94
119.00967	319
124.0161	230
131.04811	209
134.02469	209
135.00905	105
137.03049	230
141.0327	120
148.01648	141
175.03476	110
179.02545	152
198.02896	283

NAME: Naringenin
PRECURSORMZ: 271.06119704783
PRECURSORTYPE: [M-H]-
INSTRUMENTTYPE: LC-ESI-QTOF
SMILES: OC1=CC=C(C=C1)C1CC(=O)C2=C(O)C=C(O)C=C2O1
INCHIKEY: FTVWIRXFELQLPI-UHFFFAOYNA-N
Ontology: Flavanones
COLLISIONENERGY: 50
FORMULA: C15H12O5
RETENTIONTIME: 5.957833
IONMODE: Negative
Comment: registered in RIKEN PlaSMA
Num Peaks: 19
64.02696	19
65.00446	45
66.00632	28
83.01041	30
83.01619	41
91.98857	27
93.03363	88
107.01142	69
107.01946	51
116.02153	19
117.03271	81
119.04914	1000
120.0506	19
122.03583	19
140.209	17
142.03708	17
143.05295	33
158.03419	34
186.02899	21

NAME: Malvidin-3-O-glucoside
PRECURSORMZ: 491.11895121576
PRECURSORTYPE: [M-2H]-
INSTRUMENTTYPE: LC-ESI-QTOF
SMILES: COC1=CC(=CC(OC)=C1O)C1=C(OC2OC(CO)C(O)C(O)C2O)C=C2C(O)=CC(O)=CC2=[O+]1
INCHIKEY: PXUQTDZNOHRWLI-UHFFFAOYNA-O
Ontology: Anthocyanidin-3-O-glycosides
COLLISIONENERGY: 10
FORMULA: C23H25O12
RETENTIONTIME: 3.213417
IONMODE: Negative
Comment: registered in RIKEN PlaSMA
Num Peaks: 39
147.01216	23
173.02295	19
187.03531	19
201.01326	17
215.02509	23
225.02124	43
226.02223	43
252.00749	28
255.02376	22
255.03276	37
260.59476	19
269.01453	21
270.00098	28
271.0155	31
273.07474	20
282.02841	26
285.03937	29
286.05362	21
295.9917	25
299.01013	37
300.02884	43
312.73459	21
313.017	18
313.03403	293
313.05017	59
313.06778	21
314.02081	22
314.0448	213
315.04608	25
315.05795	20
328.0571	368
328.07761	61
329.0654	1000
330.04187	17
330.07605	147
331.06931	66
339.08893	23
491.11563	344
491.14166	27

NAME: Kaempferol-3-O-robinoside-7-O-rhamnoside
PRECURSORMZ: 739.20910264783
PRECURSORTYPE: [M-H]-
INSTRUMENTTYPE: LC-ESI-QTOF
SMILES: CC1OC(OCC2OC(OC3=C(OC4=CC(OC5OC(C)C(O)C(O)C5O)=CC(O)=C4C3=O)C3=CC=C(O)C=C3)C(O)C(O)C2O)C(O)C(O)C1O
INCHIKEY: PEFASEPMJYRQBW-UHFFFAOYNA-N
Ontology: Flavonoid-7-O-glycosides
COLLISIONENERGY: 10
FORMULA: C33H40O19
RETENTIONTIME: 3.57605
IONMODE: Negative
Comment: registered in RIKEN PlaSMA
Num Peaks: 20
151.00099	7
283.0209	37
283.02951	11
284.03098	121
285.03946	144
286.03378	19
286.04663	8
287.04156	6
327.04083	5
327.05307	6
328.04657	6
430.08163	38
431.08829	14
431.10324	15
593.15063	616
594.15747	220
595.16138	37
596.15619	8
739.20715	1000
739.26941	6

NAME: Kaempferol-3-O-galactoside-7-O-rhamnoside
PRECURSORMZ: 593.15119384783
PRECURSORTYPE: [M-H]-
INSTRUMENTTYPE: LC-ESI-QTOF
SMILES: CC1OC(OC2=CC(O)=C3C(=O)C(OC4OC(CO)C(O)C(O)C4O)=C(OC3=C2)C2=CC=C(O)C=C2)C(O)C(O)C1O
INCHIKEY: JYXSWDCPHRTYGU-UHFFFAOYNA-N
Ontology: Flavonoid-7-O-glycosides
COLLISIONENERGY: 10
FORMULA: C27H30O15
RETENTIONTIME: 3.5989
IONMODE: Negative
Comment: registered in RIKEN PlaSMA
Num Peaks: 27
182.41267	6
211.04303	5
213.05093	14
239.04044	5
255.02788	35
256.02792	10
256.03979	8
269.03983	6
279.80893	6
283.02518	410
284.02911	159
285.03845	315
286.04019	11
286.04929	36
299.45071	5
316.06824	6
430.09192	258
431.09546	98
432.09024	13
432.10712	26
447.09308	603
448.09976	159
449.08145	13
449.1037	12
491.28925	5
582.11664	9
593.15082	1000

NAME: Luteolin-7-O-glucoside
PRECURSORMZ: 447.09328504783
PRECURSORTYPE: [M-H]-
INSTRUMENTTYPE: LC-ESI-QTOF
SMILES: OCC1OC(OC2=CC(O)=C3C(=O)C=C(OC3=C2)C2=CC(O)=C(O)C=C2)C(O)C(O)C1O
INCHIKEY: PEFNSGRTCBGNAN-UHFFFAOYNA-N
Ontology: Flavonoid-7-O-glycosides
COLLISIONENERGY: 10
FORMULA: C21H20O11
RETENTIONTIME: 4.068067
IONMODE: Negative
Comment: registered in RIKEN PlaSMA
Num Peaks: 30
133.02213	7
141.18042	5
149.02586	5
151.00073	38
175.02776	5
211.04034	18
212.05298	6
217.04942	20
226.01909	6
240.0312	6
242.06555	7
255.02457	26
256.03427	20
257.03345	5
267.04028	6
269.03525	5
283.02435	36
284.03265	429
284.05865	6
285.03888	868
286.04428	214
287.03864	12
288.05569	5
294.69955	6
298.03455	6
327.06406	10
328.03809	5
339.25153	7
447.09167	1000
447.15982	7

NAME: 3-Hydroxycinnamic acid
PRECURSORMZ: 163.04006764783
PRECURSORTYPE: [M-H]-
INSTRUMENTTYPE: LC-ESI-QTOF
SMILES: OC(=O)C=CC1=CC(O)=CC=C1
INCHIKEY: KKSDGJDHHZEWEP-UHFFFAOYSA-N
Ontology: Hydroxycinnamic acids
COLLISIONENERGY: 10
FORMULA: C9H8O3
RETENTIONTIME: 4.405233
IONMODE: Negative
Comment: registered in RIKEN PlaSMA
Num Peaks: 6
91.05387	24
119.04939	1000
119.30607	5
120.05017	73
120.05544	53
163.03922	373

NAME: Naringenin
PRECURSORMZ: 271.06119704783
PRECURSORTYPE: [M-H]-
INSTRUMENTTYPE: LC-ESI-QTOF
SMILES: OC1=CC=C(C=C1)C1CC(=O)C2=C(O)C=C(O)C=C2O1
INCHIKEY: FTVWIRXFELQLPI-UHFFFAOYNA-N
Ontology: Flavanones
COLLISIONENERGY: 10
FORMULA: C15H12O5
RETENTIONTIME: 5.957833
IONMODE: Negative
Comment: registered in RIKEN PlaSMA
Num Peaks: 29
65.0022	33
83.01064	21
83.01675	8
93.03374	84
107.01321	128
108.01435	9
117.03108	5
119.04841	538
120.05232	33
121.02635	6
125.02666	9
143.04787	9
145.02817	20
151.00194	850
152.00601	82
153.0063	17
161.06155	22
165.01733	55
177.01712	115
178.01967	11
185.05566	7
185.06271	20
186.06242	5
187.03773	20
187.04739	6
199.07353	6
227.06479	10
229.04735	5
271.05963	1000

NAME: Kaempferol-3-O-robinoside-7-O-rhamnoside
PRECURSORMZ: 739.20910264783
PRECURSORTYPE: [M-H]-
INSTRUMENTTYPE: LC-ESI-QTOF
SMILES: CC1OC(OCC2OC(OC3=C(OC4=CC(OC5OC(C)C(O)C(O)C5O)=CC(O)=C4C3=O)C3=CC=C(O)C=C3)C(O)C(O)C2O)C(O)C(O)C1O
INCHIKEY: PEFASEPMJYRQBW-UHFFFAOYNA-N
Ontology: Flavonoid-7-O-glycosides
COLLISIONENERGY: 10
FORMULA: C33H40O19
RETENTIONTIME: 3.57605
IONMODE: Negative
Comment: registered in RIKEN PlaSMA
Num Peaks: 3
593.15326	109
594.1582	31
739.20996	1000

NAME: Kaempferol-3-O-galactoside-7-O-rhamnoside
PRECURSORMZ: 593.15119384783
PRECURSORTYPE: [M-H]-
INSTRUMENTTYPE: LC-ESI-QTOF
SMILES: CC1OC(OC2=CC(O)=C3C(=O)C(OC4OC(CO)C(O)C(O)C4O)=C(OC3=C2)C2=CC=C(O)C=C2)C(O)C(O)C1O
INCHIKEY: JYXSWDCPHRTYGU-UHFFFAOYNA-N
Ontology: Flavonoid-7-O-glycosides
COLLISIONENERGY: 10
FORMULA: C27H30O15
RETENTIONTIME: 3.5989
IONMODE: Negative
Comment: registered in RIKEN PlaSMA
Num Peaks: 4
447.09274	106
448.09473	25
593.15131	1000
593.20026	8

NAME: Luteolin-7-O-glucoside
PRECURSORMZ: 447.09328504783
PRECURSORTYPE: [M-H]-
INSTRUMENTTYPE: LC-ESI-QTOF
SMILES: OCC1OC(OC2=CC(O)=C3C(=O)C=C(OC3=C2)C2=CC(O)=C(O)C=C2)C(O)C(O)C1O
INCHIKEY: PEFNSGRTCBGNAN-UHFFFAOYNA-N
Ontology: Flavonoid-7-O-glycosides
COLLISIONENERGY: 10
FORMULA: C21H20O11
RETENTIONTIME: 4.068067
IONMODE: Negative
Comment: registered in RIKEN PlaSMA
Num Peaks: 4
283.02982	8
285.04108	107
286.04648	7
447.09372	1000

NAME: 3-Hydroxycinnamic acid
PRECURSORMZ: 163.04006764783
PRECURSORTYPE: [M-H]-
INSTRUMENTTYPE: LC-ESI-QTOF
SMILES: OC(=O)C=CC1=CC(O)=CC=C1
INCHIKEY: KKSDGJDHHZEWEP-UHFFFAOYSA-N
Ontology: Hydroxycinnamic acids
COLLISIONENERGY: 10
FORMULA: C9H8O3
RETENTIONTIME: 4.405233
IONMODE: Negative
Comment: registered in RIKEN PlaSMA
Num Peaks: 5
106.53898	5
119.0488	1000
120.05193	90
120.06283	8
163.03908	608

NAME: Myricetin
PRECURSORMZ: 317.03029084783
PRECURSORTYPE: [M-H]-
INSTRUMENTTYPE: LC-ESI-QTOF
SMILES: OC1=CC(O)=C2C(OC(=C(O)C2=O)C2=CC(O)=C(O)C(O)=C2)=C1
INCHIKEY: IKMDFBPHZNJCSN-UHFFFAOYSA-N
Ontology: Flavonols
COLLISIONENERGY: 10
FORMULA: C15H10O8
RETENTIONTIME: 4.661467
IONMODE: Negative
Comment: registered in RIKEN PlaSMA
Num Peaks: 19
125.02875	6
137.01891	19
137.02829	11
151.0006	41
151.01109	7
152.00749	8
178.99821	130
180.00104	6
191.0022	6
195.81236	6
255.01971	5
271.02536	12
283.88843	8
287.01682	43
288.02036	31
289.02502	7
315.01596	132
316.01859	176
317.02927	1000

NAME: Naringenin
PRECURSORMZ: 271.06119704783
PRECURSORTYPE: [M-H]-
INSTRUMENTTYPE: LC-ESI-QTOF
SMILES: OC1=CC=C(C=C1)C1CC(=O)C2=C(O)C=C(O)C=C2O1
INCHIKEY: FTVWIRXFELQLPI-UHFFFAOYNA-N
Ontology: Flavanones
COLLISIONENERGY: 10
FORMULA: C15H12O5
RETENTIONTIME: 5.957833
IONMODE: Negative
Comment: registered in RIKEN PlaSMA
Num Peaks: 10
93.03368	14
107.01151	10
119.04898	42
125.02491	5
151.00227	322
152.0058	29
165.01955	12
165.02602	5
177.01881	53
271.06009	1000

NAME: Malvidin-3-O-glucoside
PRECURSORMZ: 491.11895121576
PRECURSORTYPE: [M-2H]-
INSTRUMENTTYPE: LC-ESI-QTOF
SMILES: COC1=CC(=CC(OC)=C1O)C1=C(OC2OC(CO)C(O)C(O)C2O)C=C2C(O)=CC(O)=CC2=[O+]1
INCHIKEY: PXUQTDZNOHRWLI-UHFFFAOYNA-O
Ontology: Anthocyanidin-3-O-glycosides
COLLISIONENERGY: 30
FORMULA: C23H25O12
RETENTIONTIME: 3.213417
IONMODE: Negative
Comment: registered in RIKEN PlaSMA
Num Peaks: 48
138.02895	25
147.00845	78
148.01691	22
169.03711	24
183.7681	26
189.00865	24
196.05322	20
197.01886	27
214.02309	33
223.04207	29
229.05666	20
242.01772	26
242.0269	21
243.02388	27
253.01593	27
254.02382	36
254.03261	24
254.98032	25
255.02939	80
257.01212	22
269.04984	43
271.01483	31
271.0267	25
271.04999	21
272.03043	33
280.99298	40
281.01263	20
282.02213	44
283.02237	49
285.06958	40
286.04239	21
286.0524	38
287.04172	24
298.04782	21
299.02472	31
300.02466	22
313.03793	1000
314.03894	318
315.0379	36
315.0506	36
316.05313	33
327.06836	24
328.05966	313
329.05997	219
329.07095	90
330.07324	63
331.07764	28
343.08276	34

NAME: Kaempferol-3-O-robinoside-7-O-rhamnoside
PRECURSORMZ: 739.20910264783
PRECURSORTYPE: [M-H]-
INSTRUMENTTYPE: LC-ESI-QTOF
SMILES: CC1OC(OCC2OC(OC3=C(OC4=CC(OC5OC(C)C(O)C(O)C5O)=CC(O)=C4C3=O)C3=CC=C(O)C=C3)C(O)C(O)C2O)C(O)C(O)C1O
INCHIKEY: PEFASEPMJYRQBW-UHFFFAOYNA-N
Ontology: Flavonoid-7-O-glycosides
COLLISIONENERGY: 30
FORMULA: C33H40O19
RETENTIONTIME: 3.57605
IONMODE: Negative
Comment: registered in RIKEN PlaSMA
Num Peaks: 18
151.0009	9
178.99695	6
283.0184	8
283.03815	6
284.03137	157
285.03821	171
286.03973	31
327.05383	15
430.08759	61
430.11453	8
431.08142	7
431.09915	25
593.14948	1000
593.20667	8
594.15411	342
595.15448	71
596.17322	16
739.20367	13

NAME: Kaempferol-3-O-galactoside-7-O-rhamnoside
PRECURSORMZ: 593.15119384783
PRECURSORTYPE: [M-H]-
INSTRUMENTTYPE: LC-ESI-QTOF
SMILES: CC1OC(OC2=CC(O)=C3C(=O)C(OC4OC(CO)C(O)C(O)C4O)=C(OC3=C2)C2=CC=C(O)C=C2)C(O)C(O)C1O
INCHIKEY: JYXSWDCPHRTYGU-UHFFFAOYNA-N
Ontology: Flavonoid-7-O-glycosides
COLLISIONENERGY: 30
FORMULA: C27H30O15
RETENTIONTIME: 3.5989
IONMODE: Negative
Comment: registered in RIKEN PlaSMA
Num Peaks: 67
72.00544	6
101.01708	7
125.01694	10
126.79575	12
151.00256	30
152.00591	6
156.22568	6
169.06398	10
175.04105	11
181.01344	6
199.03221	6
225.41405	6
228.76912	5
229.0363	9
239.07268	12
241.04842	10
255.02214	10
255.03957	6
255.05569	6
256.0307	14
257.03677	7
269.04959	14
272.05914	6
282.995	6
283.02359	1000
283.25238	6
283.47061	7
283.88855	6
284.01495	65
284.03018	491
285.0387	828
286.04254	157
286.05756	22
287.0329	7
287.04785	13
287.6377	6
288.11053	5
289.21164	7
295.07086	5
309.03909	7
313.68207	11
315.25443	6
326.62549	8
327.0386	6
327.05411	20
327.06778	6
328.0444	10
355.05893	6
357.05243	7
357.06903	6
367.22235	6
379.61099	6
413.16449	6
430.09055	988
430.72708	5
430.78973	6
431.09311	275
432.10376	55
433.09543	28
445.84225	5
447.091	724
448.09573	144
448.12347	23
449.09418	20
449.10904	19
449.12643	8
593.15497	11

NAME: Luteolin-7-O-glucoside
PRECURSORMZ: 447.09328504783
PRECURSORTYPE: [M-H]-
INSTRUMENTTYPE: LC-ESI-QTOF
SMILES: OCC1OC(OC2=CC(O)=C3C(=O)C=C(OC3=C2)C2=CC(O)=C(O)C=C2)C(O)C(O)C1O
INCHIKEY: PEFNSGRTCBGNAN-UHFFFAOYNA-N
Ontology: Flavonoid-7-O-glycosides
COLLISIONENERGY: 30
FORMULA: C21H20O11
RETENTIONTIME: 4.068067
IONMODE: Negative
Comment: registered in RIKEN PlaSMA
Num Peaks: 20
149.02422	6
150.36606	5
151.00017	9
151.00845	5
175.03746	6
184.05121	6
217.05493	8
255.02631	11
256.03424	9
269.04712	5
283.02557	5
284.03159	448
285.03818	1000
286.04349	169
287.04596	25
297.04092	9
327.04501	10
399.06601	6
447.0769	7
447.1069	15

NAME: 3-Hydroxycinnamic acid
PRECURSORMZ: 163.04006764783
PRECURSORTYPE: [M-H]-
INSTRUMENTTYPE: LC-ESI-QTOF
SMILES: OC(=O)C=CC1=CC(O)=CC=C1
INCHIKEY: KKSDGJDHHZEWEP-UHFFFAOYSA-N
Ontology: Hydroxycinnamic acids
COLLISIONENERGY: 30
FORMULA: C9H8O3
RETENTIONTIME: 4.405233
IONMODE: Negative
Comment: registered in RIKEN PlaSMA
Num Peaks: 7
65.03826	87
91.05424	146
91.05812	50
117.02966	77
117.70542	89
119.0498	1000
120.04691	74

NAME: Myricetin
PRECURSORMZ: 317.03029084783
PRECURSORTYPE: [M-H]-
INSTRUMENTTYPE: LC-ESI-QTOF
SMILES: OC1=CC(O)=C2C(OC(=C(O)C2=O)C2=CC(O)=C(O)C(O)=C2)=C1
INCHIKEY: IKMDFBPHZNJCSN-UHFFFAOYSA-N
Ontology: Flavonols
COLLISIONENERGY: 30
FORMULA: C15H10O8
RETENTIONTIME: 4.661467
IONMODE: Negative
Comment: registered in RIKEN PlaSMA
Num Peaks: 88
63.02149	28
63.02974	20
65.00005	26
66.00793	34
81.03169	71
83.01134	89
107.0114	350
108.01408	69
109.02816	310
110.02905	34
110.03482	21
119.00995	20
119.01481	35
119.05087	52
125.02428	151
126.02824	18
126.13724	24
129.0665	22
131.04265	32
132.05318	41
135.00406	38
135.03101	20
136.00613	21
136.02333	33
136.04588	27
137.02345	1000
138.03368	20
139.03255	21
143.04564	25
144.05397	54
146.03658	30
147.03889	24
148.01598	20
149.02039	61
150.021	102
151.00272	722
152.00673	81
153.01279	22
155.0127	24
158.03535	18
159.04266	24
163.00368	37
165.01776	50
169.02055	29
170.03348	21
170.0421	18
171.04065	24
174.03017	41
176.03621	20
178.01422	18
178.99948	111
179.02846	39
179.99748	47
181.00467	20
185.01707	25
186.02737	20
187.04684	57
190.01497	24
191.03024	67
192.00978	20
192.0318	18
198.0322	19
200.02621	30
203.02979	63
203.03561	25
204.03206	31
213.01636	54
213.02402	25
214.01392	45
216.02364	20
216.04022	25
217.00894	47
226.02443	18
227.04092	28
230.01904	47
231.01727	24
231.02652	21
232.03093	22
269.01001	24
270.02142	28
271.02628	30
287.0108	28
287.02625	18
288.02505	63
296.99176	31
299.01126	32
300.02496	29
311.2973	19

NAME: Naringenin
PRECURSORMZ: 271.06119704783
PRECURSORTYPE: [M-H]-
INSTRUMENTTYPE: LC-ESI-QTOF
SMILES: OC1=CC=C(C=C1)C1CC(=O)C2=C(O)C=C(O)C=C2O1
INCHIKEY: FTVWIRXFELQLPI-UHFFFAOYNA-N
Ontology: Flavanones
COLLISIONENERGY: 30
FORMULA: C15H12O5
RETENTIONTIME: 5.957833
IONMODE: Negative
Comment: registered in RIKEN PlaSMA
Num Peaks: 37
63.0232	47
64.99949	17
65.00293	50
83.01306	67
93.03375	49
107.01256	214
108.01592	14
108.9914	8
117.03387	24
117.04121	9
119.04859	1000
120.01888	8
120.05064	112
121.02498	9
121.03058	8
125.02093	7
137.02422	29
143.04811	43
144.05188	5
145.02362	10
145.03117	29
146.03777	7
151.0029	139
152.004	13
156.05641	10
157.06161	10
161.05937	20
164.00978	12
165.01826	13
177.0181	31
184.05287	5
185.05713	19
185.06734	6
187.0378	54
187.05215	5
198.06689	5
225.05115	5

NAME: Malvidin-3-O-glucoside
PRECURSORMZ: 491.11895121576
PRECURSORTYPE: [M-2H]-
INSTRUMENTTYPE: LC-ESI-QTOF
SMILES: COC1=CC(=CC(OC)=C1O)C1=C(OC2OC(CO)C(O)C(O)C2O)C=C2C(O)=CC(O)=CC2=[O+]1
INCHIKEY: PXUQTDZNOHRWLI-UHFFFAOYNA-O
Ontology: Anthocyanidin-3-O-glycosides
COLLISIONENERGY: 50
FORMULA: C23H25O12
RETENTIONTIME: 3.213417
IONMODE: Negative
Comment: registered in RIKEN PlaSMA
Num Peaks: 39
122.4198	57
141.037	80
144.01923	57
145.73773	100
148.01393	60
152.05948	57
153.02728	57
158.03152	94
159.0085	97
183.04153	51
185.01859	60
185.03036	54
186.03175	228
198.03281	128
199.04703	103
211.03696	77
214.02061	194
214.03052	74
214.03859	51
226.03114	214
227.02522	57
238.02058	100
242.0264	276
243.00674	51
243.0242	51
243.04094	71
244.04164	71
253.02	68
254.00989	63
254.02165	108
270.01733	365
271.02164	1000
272.02518	83
282.01178	162
285.03287	71
297.9985	57
300.01828	66
313.03192	51
315.05499	71

NAME: Kaempferol-3-O-robinoside-7-O-rhamnoside
PRECURSORMZ: 739.20910264783
PRECURSORTYPE: [M-H]-
INSTRUMENTTYPE: LC-ESI-QTOF
SMILES: CC1OC(OCC2OC(OC3=C(OC4=CC(OC5OC(C)C(O)C(O)C5O)=CC(O)=C4C3=O)C3=CC=C(O)C=C3)C(O)C(O)C2O)C(O)C(O)C1O
INCHIKEY: PEFASEPMJYRQBW-UHFFFAOYNA-N
Ontology: Flavonoid-7-O-glycosides
COLLISIONENERGY: 50
FORMULA: C33H40O19
RETENTIONTIME: 3.57605
IONMODE: Negative
Comment: registered in RIKEN PlaSMA
Num Peaks: 28
83.01948	6
151.00069	41
163.00412	10
164.01064	8
165.01999	6
166.02309	5
171.04788	6
199.03609	5
213.04843	7
227.03249	50
230.05788	6
239.03722	5
255.02855	267
256.02942	33
256.03989	29
257.03995	22
257.04868	33
258.05045	10
283.02301	829
284.03061	1000
285.03778	683
286.03979	101
287.03983	7
327.04489	10
430.07953	36
430.09824	47
431.08908	12
593.1532	12

NAME: Kaempferol-3-O-galactoside-7-O-rhamnoside
PRECURSORMZ: 593.15119384783
PRECURSORTYPE: [M-H]-
INSTRUMENTTYPE: LC-ESI-QTOF
SMILES: CC1OC(OC2=CC(O)=C3C(=O)C(OC4OC(CO)C(O)C(O)C4O)=C(OC3=C2)C2=CC=C(O)C=C2)C(O)C(O)C1O
INCHIKEY: JYXSWDCPHRTYGU-UHFFFAOYNA-N
Ontology: Flavonoid-7-O-glycosides
COLLISIONENERGY: 50
FORMULA: C27H30O15
RETENTIONTIME: 3.5989
IONMODE: Negative
Comment: registered in RIKEN PlaSMA
Num Peaks: 62
65.0042	7
85.02872	9
93.03215	6
107.01225	22
109.30087	5
131.04767	11
137.02647	5
139.96538	9
147.94798	8
151.00067	15
151.00658	11
155.04723	13
159.04065	6
159.04793	6
162.00392	6
163.00275	11
164.98131	5
167.54843	7
169.0592	16
170.06595	7
173.02982	14
178.99466	12
182.03526	5
183.04469	39
185.01839	8
185.0591	19
189.05475	9
197.05008	6
199.03557	11
199.04893	5
201.05592	15
210.03046	10
211.04233	19
212.31288	6
213.04872	33
214.02425	19
215.03812	5
215.058	6
216.27986	6
226.02957	7
227.01419	6
227.03088	119
228.03072	10
228.04124	12
229.04875	23
239.03073	10
243.02985	10
244.03024	5
244.04471	6
247.35724	6
255.02899	699
256.03189	107
256.50058	6
257.03674	28
257.05026	13
258.04135	6
281.61136	6
283.02396	1000
284.02887	194
284.04691	5
285.0405	321
286.04352	77

NAME: Luteolin-7-O-glucoside
PRECURSORMZ: 447.09328504783
PRECURSORTYPE: [M-H]-
INSTRUMENTTYPE: LC-ESI-QTOF
SMILES: OCC1OC(OC2=CC(O)=C3C(=O)C=C(OC3=C2)C2=CC(O)=C(O)C=C2)C(O)C(O)C1O
INCHIKEY: PEFNSGRTCBGNAN-UHFFFAOYNA-N
Ontology: Flavonoid-7-O-glycosides
COLLISIONENERGY: 50
FORMULA: C21H20O11
RETENTIONTIME: 4.068067
IONMODE: Negative
Comment: registered in RIKEN PlaSMA
Num Peaks: 107
63.32976	18
80.02447	21
82.24894	29
83.01175	84
94.00512	61
105.03099	15
107.00992	82
107.01458	168
109.03312	40
110.03232	16
115.01357	15
119.01797	27
121.02659	20
121.03152	15
122.00034	27
123.04769	17
126.05112	19
131.61879	16
133.02966	341
134.03494	137
143.0453	17
145.03818	21
145.06541	27
146.04272	22
148.01628	22
149.01694	17
149.02673	65
149.99538	79
150.02214	24
150.02902	19
151.00293	377
152.01265	20
154.04988	23
157.06613	36
159.0403	88
160.01495	22
160.0511	18
163.00589	54
167.05176	28
168.0497	17
171.04292	40
172.0517	31
174.02608	37
175.03474	63
175.04521	39
176.04396	27
176.05031	29
177.01068	39
177.0295	19
182.03641	27
183.04575	134
184.04977	58
185.0307	33
186.02356	19
186.03314	17
187.03885	22
188.05157	32
189.05025	28
191.72223	20
193.03105	25
195.0466	63
196.05029	19
197.06079	27
199.03166	41
199.03925	50
199.05197	21
200.04973	95
201.00726	20
201.02103	15
210.02292	18
211.03339	69
211.0433	181
212.04292	41
212.2251	17
214.06528	36
215.03207	17
216.03938	20
217.04674	68
226.02286	19
226.05048	17
227.02374	46
227.03563	208
227.04834	49
228.03351	41
228.04547	35
229.05101	21
237.02066	18
239.03442	124
239.0481	34
240.04796	21
241.05867	24
243.02211	23
250.02271	19
254.02321	15
255.00186	15
255.03224	120
256.02121	60
256.03711	137
257.056	17
266.02441	18
266.86066	16
267.02753	16
283.00818	20
283.02612	95
284.03232	1000
285.03275	384
286.0416	102

NAME: Naringenin
PRECURSORMZ: 271.06119704783
PRECURSORTYPE: [M-H]-
INSTRUMENTTYPE: LC-ESI-QTOF
SMILES: OC1=CC=C(C=C1)C1CC(=O)C2=C(O)C=C(O)C=C2O1
INCHIKEY: FTVWIRXFELQLPI-UHFFFAOYNA-N
Ontology: Flavanones
COLLISIONENERGY: 50
FORMULA: C15H12O5
RETENTIONTIME: 5.957833
IONMODE: Negative
Comment: registered in RIKEN PlaSMA
Num Peaks: 16
63.01767	22
63.02673	42
65.00137	121
93.03175	161
107.00874	24
107.01609	49
108.01302	28
115.05348	82
117.03314	282
119.04906	1000
120.04605	31
120.05094	109
141.03491	26
144.04909	33
161.06644	38
162.99745	22

NAME: Quercetin-3-O-rhamnoside
PRECURSORMZ: 447.09328504783
PRECURSORTYPE: [M-H]-
INSTRUMENTTYPE: LC-ESI-QTOF
SMILES: CC1OC(OC2=C(OC3=CC(O)=CC(O)=C3C2=O)C2=CC(O)=C(O)C=C2)C(O)C(O)C1O
INCHIKEY: OXGUCUVFOIWWQJ-UHFFFAOYNA-N
Ontology: Flavonoid-3-O-glycosides
COLLISIONENERGY: 10
FORMULA: C21H20O11
RETENTIONTIME: 4.3614
IONMODE: Negative
Comment: registered in RIKEN PlaSMA
Num Peaks: 51
107.01644	10
109.02605	7
135.00853	6
148.00966	8
151.00302	93
152.00769	7
163.00148	10
178.99561	64
185.05473	5
187.03262	6
187.0511	5
192.00386	7
193.0137	8
199.03969	8
203.03116	6
206.0504	5
211.03989	14
226.03065	12
227.03242	14
227.03908	6
231.02541	6
239.03183	13
242.02963	6
243.02663	28
243.03394	15
244.02577	12
245.04396	22
254.02829	7
254.04105	6
255.02885	170
256.03455	6
256.0441	6
257.0405	9
266.01605	6
271.02469	314
272.00967	5
272.02731	35
273.03464	8
273.04776	6
274.04337	8
283.02243	23
285.04053	5
299.01068	6
300.02591	648
300.05096	8
300.22824	6
301.03391	792
302.03687	120
303.034	28
446.07837	8
447.09418	1000

NAME: Quercetin-3-O-glucosyl-6''-acetate
PRECURSORMZ: 505.09876434783
PRECURSORTYPE: [M-H]-
INSTRUMENTTYPE: LC-ESI-QTOF
SMILES: CC(=O)OCC1OC(OC2=C(OC3=CC(O)=CC(O)=C3C2=O)C2=CC(O)=C(O)C=C2)C(O)C(O)C1O
INCHIKEY: IGLUNMMNDNWZOA-UHFFFAOYNA-N
Ontology: Flavonoid-3-O-glycosides
COLLISIONENERGY: 10
FORMULA: C23H22O13
RETENTIONTIME: 4.4452
IONMODE: Negative
Comment: registered in RIKEN PlaSMA
Num Peaks: 32
108.01832	7
151.00482	24
151.01077	8
163.00449	11
178.99858	22
227.03467	8
242.0304	5
243.02277	27
243.03636	6
244.03995	9
245.04231	7
254.01985	15
255.02902	162
256.03183	15
270.0213	8
271.02328	328
272.02499	53
272.04138	14
283.01868	5
299.0148	20
300.02557	718
301.03162	447
302.02921	24
302.04077	42
343.0452	8
463.08038	15
463.10373	11
464.08466	13
503.06717	7
503.10031	5
504.07303	6
505.09692	1000

NAME: 2',6'-Dihydroxy-4-methoxychalcone-4'-O-neohesperid
PRECURSORMZ: 593.18757934783
PRECURSORTYPE: [M-H]-
INSTRUMENTTYPE: LC-ESI-QTOF
SMILES: COC1=CC=C(C=CC(=O)C2=C(O)C=C(OC3OC(CO)C(O)C(O)C3OC3OC(C)C(O)C(O)C3O)C=C2O)C=C1
INCHIKEY: HWRDCYOHJBCWGW-UHFFFAOYNA-N
Ontology: Flavonoid O-glycosides
COLLISIONENERGY: 10
FORMULA: C28H34O14
RETENTIONTIME: 5.44105
IONMODE: Negative
Comment: registered in RIKEN PlaSMA
Num Peaks: 20
150.99666	7
164.00819	25
201.04396	6
241.07875	6
241.09276	7
270.05051	27
271.05984	5
284.07269	7
285.07529	900
286.0799	175
287.07227	7
287.0845	22
309.06589	18
309.08234	6
327.08365	68
327.09415	21
338.08563	8
387.10248	10
473.14444	39
593.18695	1000

NAME: 2',6'-Dihydroxy-4-methoxychalcone-4'-O-neohesperid
PRECURSORMZ: 639.19305865183
PRECURSORTYPE: [M+FA-H]-
INSTRUMENTTYPE: LC-ESI-QTOF
SMILES: COC1=CC=C(C=CC(=O)C2=C(O)C=C(OC3OC(CO)C(O)C(O)C3OC3OC(C)C(O)C(O)C3O)C=C2O)C=C1
INCHIKEY: HWRDCYOHJBCWGW-UHFFFAOYNA-N
Ontology: Flavonoid O-glycosides
COLLISIONENERGY: 10
FORMULA: C28H34O14
RETENTIONTIME: 5.44105
IONMODE: Negative
Comment: registered in RIKEN PlaSMA
Num Peaks: 25
151.00034	11
164.00766	11
164.0719	6
202.06456	6
217.086	6
270.05228	14
285.07507	478
286.07971	87
287.07358	6
287.08328	19
309.07648	7
309.19397	5
327.08029	9
327.091	10
328.08505	7
369.09128	9
391.77032	8
473.13312	11
473.14859	9
474.15704	9
593.18787	1000
594.18915	365
595.19879	126
596.19757	22
639.19586	64

NAME: Biochanin A
PRECURSORMZ: 283.06119704783
PRECURSORTYPE: [M-H]-
INSTRUMENTTYPE: LC-ESI-QTOF
SMILES: COC1=CC=C(C=C1)C1=COC2=CC(O)=CC(O)=C2C1=O
INCHIKEY: WUADCCWRTIWANL-UHFFFAOYSA-N
Ontology: 4'-O-methylisoflavones
COLLISIONENERGY: 10
FORMULA: C16H12O5
RETENTIONTIME: 7.614033
IONMODE: Negative
Comment: registered in RIKEN PlaSMA
Num Peaks: 26
104.02243	8
104.02713	9
132.02057	71
135.00676	9
167.05019	33
179.04904	10
183.04398	20
184.04962	19
195.04387	44
196.04921	18
198.03659	8
210.03055	12
211.03838	130
212.03816	23
212.04829	31
223.03572	43
224.04352	39
226.02522	22
239.0336	138
240.03931	53
267.02805	166
268.03552	843
269.0408	136
270.04407	14
283.05887	1000
283.10477	10

NAME: Quercetin-3-O-rhamnoside
PRECURSORMZ: 447.09328504783
PRECURSORTYPE: [M-H]-
INSTRUMENTTYPE: LC-ESI-QTOF
SMILES: CC1OC(OC2=C(OC3=CC(O)=CC(O)=C3C2=O)C2=CC(O)=C(O)C=C2)C(O)C(O)C1O
INCHIKEY: OXGUCUVFOIWWQJ-UHFFFAOYNA-N
Ontology: Flavonoid-3-O-glycosides
COLLISIONENERGY: 10
FORMULA: C21H20O11
RETENTIONTIME: 4.3614
IONMODE: Negative
Comment: registered in RIKEN PlaSMA
Num Peaks: 6
300.02576	77
301.03357	176
302.0386	32
445.07138	7
446.07925	13
447.09113	1000

NAME: Quercetin-3-O-glucosyl-6''-acetate
PRECURSORMZ: 505.09876434783
PRECURSORTYPE: [M-H]-
INSTRUMENTTYPE: LC-ESI-QTOF
SMILES: CC(=O)OCC1OC(OC2=C(OC3=CC(O)=CC(O)=C3C2=O)C2=CC(O)=C(O)C=C2)C(O)C(O)C1O
INCHIKEY: IGLUNMMNDNWZOA-UHFFFAOYNA-N
Ontology: Flavonoid-3-O-glycosides
COLLISIONENERGY: 10
FORMULA: C23H22O13
RETENTIONTIME: 4.4452
IONMODE: Negative
Comment: registered in RIKEN PlaSMA
Num Peaks: 10
299.00861	6
300.0249	40
301.03076	40
301.04144	26
302.03445	7
463.08167	9
503.07986	21
504.08582	18
504.10098	6
505.09705	1000

NAME: 2',6'-Dihydroxy-4-methoxychalcone-4'-O-neohesperid
PRECURSORMZ: 593.18757934783
PRECURSORTYPE: [M-H]-
INSTRUMENTTYPE: LC-ESI-QTOF
SMILES: COC1=CC=C(C=CC(=O)C2=C(O)C=C(OC3OC(CO)C(O)C(O)C3OC3OC(C)C(O)C(O)C3O)C=C2O)C=C1
INCHIKEY: HWRDCYOHJBCWGW-UHFFFAOYNA-N
Ontology: Flavonoid O-glycosides
COLLISIONENERGY: 10
FORMULA: C28H34O14
RETENTIONTIME: 5.44105
IONMODE: Negative
Comment: registered in RIKEN PlaSMA
Num Peaks: 2
285.07599	13
593.18622	1000

NAME: 2',6'-Dihydroxy-4-methoxychalcone-4'-O-neohesperid
PRECURSORMZ: 639.19305865183
PRECURSORTYPE: [M+FA-H]-
INSTRUMENTTYPE: LC-ESI-QTOF
SMILES: COC1=CC=C(C=CC(=O)C2=C(O)C=C(OC3OC(CO)C(O)C(O)C3OC3OC(C)C(O)C(O)C3O)C=C2O)C=C1
INCHIKEY: HWRDCYOHJBCWGW-UHFFFAOYNA-N
Ontology: Flavonoid O-glycosides
COLLISIONENERGY: 10
FORMULA: C28H34O14
RETENTIONTIME: 5.44105
IONMODE: Negative
Comment: registered in RIKEN PlaSMA
Num Peaks: 7
593.18634	1000
594.19037	324
595.16742	12
595.19641	66
596.17566	8
596.19727	11
639.19434	131

NAME: Biochanin A
PRECURSORMZ: 283.06119704783
PRECURSORTYPE: [M-H]-
INSTRUMENTTYPE: LC-ESI-QTOF
SMILES: COC1=CC=C(C=C1)C1=COC2=CC(O)=CC(O)=C2C1=O
INCHIKEY: WUADCCWRTIWANL-UHFFFAOYSA-N
Ontology: 4'-O-methylisoflavones
COLLISIONENERGY: 10
FORMULA: C16H12O5
RETENTIONTIME: 7.614033
IONMODE: Negative
Comment: registered in RIKEN PlaSMA
Num Peaks: 4
268.03653	164
269.04034	31
283.06024	1000
283.10684	13

NAME: Quercetin-3-O-rhamnoside
PRECURSORMZ: 447.09328504783
PRECURSORTYPE: [M-H]-
INSTRUMENTTYPE: LC-ESI-QTOF
SMILES: CC1OC(OC2=C(OC3=CC(O)=CC(O)=C3C2=O)C2=CC(O)=C(O)C=C2)C(O)C(O)C1O
INCHIKEY: OXGUCUVFOIWWQJ-UHFFFAOYNA-N
Ontology: Flavonoid-3-O-glycosides
COLLISIONENERGY: 30
FORMULA: C21H20O11
RETENTIONTIME: 4.3614
IONMODE: Negative
Comment: registered in RIKEN PlaSMA
Num Peaks: 50
108.02031	5
109.03078	8
121.02737	23
135.00833	10
151.00177	209
152.00389	16
163.00087	66
164.00797	10
165.01622	5
178.99637	127
179.99889	7
193.00641	9
193.01526	7
200.04657	7
201.05563	8
203.03369	6
211.03925	24
226.0249	11
227.03854	28
229.04385	16
229.05453	11
239.03357	18
241.01305	7
243.03081	61
244.02068	7
244.03502	11
245.04628	20
246.0461	5
246.05496	7
254.00951	7
254.02167	26
255.02902	293
256.02789	64
257.04913	6
271.02438	524
272.02972	115
273.03137	34
273.04895	8
274.03278	5
274.04919	7
283.01239	8
283.02551	14
284.03818	11
299.01321	8
299.02466	7
300.02649	1000
301.03192	576
302.03711	87
302.06284	6
303.04095	6

NAME: Quercetin-3-O-glucosyl-6''-acetate
PRECURSORMZ: 505.09876434783
PRECURSORTYPE: [M-H]-
INSTRUMENTTYPE: LC-ESI-QTOF
SMILES: CC(=O)OCC1OC(OC2=C(OC3=CC(O)=CC(O)=C3C2=O)C2=CC(O)=C(O)C=C2)C(O)C(O)C1O
INCHIKEY: IGLUNMMNDNWZOA-UHFFFAOYNA-N
Ontology: Flavonoid-3-O-glycosides
COLLISIONENERGY: 30
FORMULA: C23H22O13
RETENTIONTIME: 4.4452
IONMODE: Negative
Comment: registered in RIKEN PlaSMA
Num Peaks: 27
107.0094	5
121.0313	8
125.02216	9
151.00269	60
152.00258	15
162.99931	5
178.99583	64
211.03883	6
226.02991	10
227.02945	15
243.02681	36
244.05049	6
254.02121	35
255.02936	114
256.03339	24
257.03271	8
270.01141	19
271.02322	374
272.02719	88
283.01971	10
283.03363	11
299.01685	18
300.0257	1000
301.03137	369
302.02676	23
302.03726	45
505.09775	9

NAME: 2',6'-Dihydroxy-4-methoxychalcone-4'-O-neohesperid
PRECURSORMZ: 593.18757934783
PRECURSORTYPE: [M-H]-
INSTRUMENTTYPE: LC-ESI-QTOF
SMILES: COC1=CC=C(C=CC(=O)C2=C(O)C=C(OC3OC(CO)C(O)C(O)C3OC3OC(C)C(O)C(O)C3O)C=C2O)C=C1
INCHIKEY: HWRDCYOHJBCWGW-UHFFFAOYNA-N
Ontology: Flavonoid O-glycosides
COLLISIONENERGY: 30
FORMULA: C28H34O14
RETENTIONTIME: 5.44105
IONMODE: Negative
Comment: registered in RIKEN PlaSMA
Num Peaks: 20
151.0043	12
164.00793	6
241.08803	8
243.07132	5
270.04639	14
285.07593	1000
286.07977	185
287.07278	5
287.08502	12
309.07367	16
309.08679	6
327.08148	34
327.0972	18
328.09103	15
328.10062	6
338.08087	8
387.11765	7
473.14981	9
474.138	7
593.18835	44

NAME: 2',6'-Dihydroxy-4-methoxychalcone-4'-O-neohesperid
PRECURSORMZ: 639.19305865183
PRECURSORTYPE: [M+FA-H]-
INSTRUMENTTYPE: LC-ESI-QTOF
SMILES: COC1=CC=C(C=CC(=O)C2=C(O)C=C(OC3OC(CO)C(O)C(O)C3OC3OC(C)C(O)C(O)C3O)C=C2O)C=C1
INCHIKEY: HWRDCYOHJBCWGW-UHFFFAOYNA-N
Ontology: Flavonoid O-glycosides
COLLISIONENERGY: 30
FORMULA: C28H34O14
RETENTIONTIME: 5.44105
IONMODE: Negative
Comment: registered in RIKEN PlaSMA
Num Peaks: 23
143.0312	5
285.07645	1000
286.07928	190
287.07291	35
290.53357	8
309.07297	12
327.07693	25
327.09308	70
328.09848	12
329.09882	5
357.51074	6
369.09555	11
387.11374	20
429.13333	11
431.14316	8
473.14017	50
474.15155	7
593.18707	440
594.18372	115
594.20221	83
595.18201	10
595.21252	15
596.18982	10

NAME: Biochanin A
PRECURSORMZ: 283.06119704783
PRECURSORTYPE: [M-H]-
INSTRUMENTTYPE: LC-ESI-QTOF
SMILES: COC1=CC=C(C=C1)C1=COC2=CC(O)=CC(O)=C2C1=O
INCHIKEY: WUADCCWRTIWANL-UHFFFAOYSA-N
Ontology: 4'-O-methylisoflavones
COLLISIONENERGY: 30
FORMULA: C16H12O5
RETENTIONTIME: 7.614033
IONMODE: Negative
Comment: registered in RIKEN PlaSMA
Num Peaks: 79
83.01274	13
91.01623	19
91.02055	7
104.02418	58
107.01221	27
116.02474	7
130.04018	11
132.01973	379
132.03387	5
133.02061	16
133.02661	21
134.00143	5
134.03479	45
135.0071	99
136.01279	7
137.00951	8
141.0316	6
142.04053	17
143.04648	13
144.04999	16
147.00972	5
148.00974	9
151.00166	33
151.05685	9
154.03546	11
154.04274	40
155.04121	11
155.04869	16
156.01939	8
156.05711	21
166.03641	10
167.0489	115
168.04782	23
168.06587	7
171.04538	7
172.04953	14
173.06348	5
178.05057	7
179.0484	24
180.05513	25
181.06435	7
182.03575	7
183.0433	76
184.04083	13
184.05208	94
185.0553	8
187.05937	5
194.04279	8
195.04326	272
196.05014	110
197.05736	18
198.02528	5
198.03574	14
199.03035	11
199.04105	8
200.04468	7
210.01976	6
211.03777	747
212.04346	225
213.04193	25
213.04967	7
222.03268	13
223.03738	291
223.05847	6
224.04494	136
225.04633	22
226.02348	128
227.02429	15
228.64223	6
239.03209	893
239.05815	8
240.03882	293
241.04286	45
250.02708	12
251.03596	9
267.02704	1000
268.03568	840
269.03668	156
270.03778	23

NAME: Quercetin-3-O-rhamnoside
PRECURSORMZ: 447.09328504783
PRECURSORTYPE: [M-H]-
INSTRUMENTTYPE: LC-ESI-QTOF
SMILES: CC1OC(OC2=C(OC3=CC(O)=CC(O)=C3C2=O)C2=CC(O)=C(O)C=C2)C(O)C(O)C1O
INCHIKEY: OXGUCUVFOIWWQJ-UHFFFAOYNA-N
Ontology: Flavonoid-3-O-glycosides
COLLISIONENERGY: 50
FORMULA: C21H20O11
RETENTIONTIME: 4.3614
IONMODE: Negative
Comment: registered in RIKEN PlaSMA
Num Peaks: 191
59.38136	8
64.0274	8
65.0016	9
65.03636	7
69.62717	9
79.02103	7
83.01108	35
92.0256	6
93.0341	21
94.00651	13
95.01343	15
96.01912	18
107.00455	15
107.01165	70
107.01931	7
108.00982	31
108.01894	66
108.02524	45
109.02849	70
112.00712	6
114.04433	11
119.01281	19
120.01776	30
120.02506	7
121.02616	61
122.65376	6
124.00972	10
127.0553	9
130.0466	12
131.04874	9
132.01797	6
134.02907	9
134.99931	10
135.0079	55
135.03859	8
136.01375	30
137.01903	9
138.02487	6
143.0435	14
144.12451	12
145.02838	26
145.06783	7
146.03751	8
147.00313	23
147.03352	6
147.04166	27
147.04691	9
148.0139	142
148.04652	10
148.054	14
149.02441	16
150.03421	7
151.00359	144
152.00108	15
152.01024	16
153.0352	11
154.03792	21
155.04778	34
157.02602	32
157.05341	29
157.06561	7
159.03543	12
159.04262	25
161.0211	17
163.00035	87
163.03612	17
164.00955	41
165.01244	6
167.0446	7
168.0578	7
169.03076	7
170.03232	16
171.04395	76
172.00797	9
172.01677	6
172.04533	7
172.59282	7
173.02103	50
173.03032	9
173.05727	15
173.06526	9
174.0226	8
174.06746	8
175.03099	14
175.03708	39
176.04192	9
177.04651	9
177.05687	11
179.00175	17
182.03104	13
183.04523	55
183.06285	9
184.04729	8
185.01962	49
185.03496	7
185.05377	7
187.02931	9
187.03908	41
187.04657	23
188.04039	29
188.95282	10
189.04262	16
189.05504	8
190.99461	6
191.03204	8
193.02844	7
197.01872	30
198.02887	39
198.05052	15
199.03575	175
200.01064	7
200.0181	8
200.03442	19
200.05341	9
200.86343	7
201.00719	7
201.02182	42
201.05443	20
202.0262	6
202.03587	7
203.03136	43
203.03908	23
204.02823	12
204.03717	8
204.0455	10
209.01889	17
210.03052	25
210.03725	13
211.03934	98
211.51866	19
212.04037	13
213.01825	40
213.02745	28
213.03653	14
214.02347	16
214.18538	10
214.55882	7
215.02899	80
215.04005	42
215.91148	6
216.03525	23
216.04738	12
217.05147	7
226.0231	87
226.03427	17
227.03329	225
227.16988	8
228.00404	7
228.03392	21
228.52066	8
228.94107	11
228.9575	7
229.00703	62
229.04697	11
230.04594	6
231.02158	11
235.04045	9
237.4119	11
241.01265	14
242.01825	54
242.03632	9
242.50673	6
243.02856	344
243.0565	7
243.07236	8
244.02809	79
244.04932	8
244.60812	9
245.02396	8
245.041	66
245.05635	18
254.02971	6
255.0284	413
255.05275	17
256.02289	23
256.03207	33
270.85788	7
270.97723	9
271.02396	1000
272.02805	120
273.02444	44
283.01852	7
283.57898	8
284.02176	9
285.03885	7
299.00745	13
299.02402	14
300.02396	7
315.82782	13
366.90408	7
427.59781	8

NAME: Quercetin-3-O-glucosyl-6''-acetate
PRECURSORMZ: 505.09876434783
PRECURSORTYPE: [M-H]-
INSTRUMENTTYPE: LC-ESI-QTOF
SMILES: CC(=O)OCC1OC(OC2=C(OC3=CC(O)=CC(O)=C3C2=O)C2=CC(O)=C(O)C=C2)C(O)C(O)C1O
INCHIKEY: IGLUNMMNDNWZOA-UHFFFAOYNA-N
Ontology: Flavonoid-3-O-glycosides
COLLISIONENERGY: 50
FORMULA: C23H22O13
RETENTIONTIME: 4.4452
IONMODE: Negative
Comment: registered in RIKEN PlaSMA
Num Peaks: 72
107.01257	35
108.01614	15
108.02409	18
109.02595	10
119.01018	10
121.02723	31
135.00638	26
136.01573	10
143.05081	7
148.01598	77
149.01923	7
149.02985	7
151.00328	90
152.00986	7
153.01526	8
154.04047	6
156.05293	10
161.01917	5
163.00305	49
163.03412	5
164.00735	44
165.0152	5
171.04395	30
174.02841	17
175.03734	8
179.00166	12
182.03064	6
183.0473	16
183.05325	8
187.03401	6
187.04401	12
197.01826	9
199.0388	77
201.01749	49
201.05759	6
203.04021	8
211.03593	28
211.04239	17
212.04051	6
214.02013	8
215.03384	53
215.93282	10
216.03862	9
226.02081	13
226.03008	31
227.03479	141
228.03583	20
229.00793	11
229.01442	24
239.02695	6
240.04167	8
241.00526	10
241.01364	18
242.01384	36
243.02847	357
244.03256	80
245.04294	17
253.02208	5
254.02112	24
255.02892	435
256.01755	7
256.02863	42
257.26205	6
271.02341	1000
272.02734	115
273.02875	23
273.03848	18
283.03238	7
299.0123	11
299.02576	21
300.02438	38
301.03192	14

NAME: 2',6'-Dihydroxy-4-methoxychalcone-4'-O-neohesperid
PRECURSORMZ: 593.18757934783
PRECURSORTYPE: [M-H]-
INSTRUMENTTYPE: LC-ESI-QTOF
SMILES: COC1=CC=C(C=CC(=O)C2=C(O)C=C(OC3OC(CO)C(O)C(O)C3OC3OC(C)C(O)C(O)C3O)C=C2O)C=C1
INCHIKEY: HWRDCYOHJBCWGW-UHFFFAOYNA-N
Ontology: Flavonoid O-glycosides
COLLISIONENERGY: 50
FORMULA: C28H34O14
RETENTIONTIME: 5.44105
IONMODE: Negative
Comment: registered in RIKEN PlaSMA
Num Peaks: 142
58.04099	9
65.00282	6
83.01224	39
83.01967	17
86.00056	14
94.00588	14
105.69161	6
107.0119	58
108.01933	17
108.34557	7
119.01575	11
119.04481	6
119.05106	17
121.9899	9
121.99901	31
124.00627	15
125.02477	7
126.03389	6
130.04237	12
132.01837	8
132.06075	7
133.02504	23
134.02888	6
136.01509	60
136.02376	28
137.02704	8
144.04559	7
145.03464	13
145.06273	7
146.03394	11
150.89485	8
151.00191	533
152.00908	56
152.82146	8
153.01425	7
157.06583	8
159.04187	13
160.00955	8
160.05678	29
160.25565	6
164.01126	594
165.01456	117
169.0648	15
169.07324	6
170.06921	9
171.03716	11
172.01895	9
172.04956	15
174.99358	6
175.04034	9
175.07201	44
175.07921	78
176.07358	9
176.07997	7
177.01845	36
177.05295	6
178.01764	6
179.05243	6
181.06975	22
183.04344	26
184.05428	10
186.02802	94
187.03903	68
187.80402	7
188.00708	8
188.03465	6
189.00768	9
190.02406	11
195.70691	9
196.10341	8
197.02713	6
197.06189	48
198.05309	8
198.06761	99
199.04526	7
199.07408	89
200.03648	12
200.04832	18
200.07974	19
201.05428	161
201.07028	11
202.05852	57
202.85283	6
206.01642	6
208.05193	13
210.03165	9
213.05518	10
214.06413	14
215.07486	29
217.07758	22
217.08832	69
218.089	17
222.07193	7
223.06659	6
224.04655	14
225.05383	18
226.06323	147
227.05959	8
227.07214	13
228.036	16
238.07254	6
239.07796	7
240.07651	13
241.0513	39
241.07698	25
241.08975	186
242.05547	6
242.09494	35
243.06506	171
244.06691	22
244.08035	10
253.04662	14
255.0621	6
256.07065	6
257.07608	18
257.08414	7
258.08951	9
261.0564	6
268.03604	20
268.05945	9
269.04037	57
270.05423	431
271.05954	57
271.07648	7
271.10043	6
272.05832	15
273.07098	7
283.065	19
283.46936	8
284.06668	7
284.92734	11
285.07669	1000
286.08148	181
287.0737	10
287.08768	18
294.06125	12
325.07767	6
327.09735	16
328.0968	8
352.08838	6
426.03467	7
593.18195	129

NAME: 2',6'-Dihydroxy-4-methoxychalcone-4'-O-neohesperid
PRECURSORMZ: 639.19305865183
PRECURSORTYPE: [M+FA-H]-
INSTRUMENTTYPE: LC-ESI-QTOF
SMILES: COC1=CC=C(C=CC(=O)C2=C(O)C=C(OC3OC(CO)C(O)C(O)C3OC3OC(C)C(O)C(O)C3O)C=C2O)C=C1
INCHIKEY: HWRDCYOHJBCWGW-UHFFFAOYNA-N
Ontology: Flavonoid O-glycosides
COLLISIONENERGY: 50
FORMULA: C28H34O14
RETENTIONTIME: 5.44105
IONMODE: Negative
Comment: registered in RIKEN PlaSMA
Num Peaks: 95
59.01283	20
68.99657	6
83.00935	7
83.01384	7
93.03193	7
94.00803	10
107.01138	28
113.01955	6
118.04071	6
119.04903	9
125.02249	19
131.31175	8
133.0276	13
135.00995	6
136.00729	6
136.01378	5
136.04327	8
145.04819	8
147.04236	7
149.01707	5
151.00201	214
152.00227	21
157.06227	7
163.95615	5
164.00993	263
164.02435	5
165.00363	6
167.0498	6
170.06822	7
171.05014	8
172.04761	15
175.07399	30
175.08922	6
177.01756	14
184.05754	11
186.0291	13
186.03636	9
187.04723	8
187.07266	8
194.74429	6
197.06363	14
198.06909	12
198.33902	11
199.07666	33
200.04823	6
200.08141	5
202.06705	5
214.06995	8
214.83806	8
215.0788	15
217.08868	31
218.01817	7
218.08653	8
218.10193	17
225.0535	7
225.0648	6
226.06303	47
228.03941	12
240.07983	7
241.08029	28
241.09613	36
242.08664	24
243.06673	66
244.06662	10
251.07196	7
255.06531	14
255.4633	6
256.06714	6
256.08307	6
259.09659	7
265.61502	5
269.03748	20
269.0499	13
269.07138	5
270.05121	140
270.07916	10
270.7688	5
271.04755	24
271.06268	17
272.06	7
280.07626	6
284.09424	5
285.07477	1000
285.10648	8
286.08081	168
286.10602	12
287.0788	30
299.09842	11
307.06473	5
308.06345	7
309.06042	9
309.08328	31
327.07468	13
327.09061	12
633.41541	5

NAME: Biochanin A
PRECURSORMZ: 283.06119704783
PRECURSORTYPE: [M-H]-
INSTRUMENTTYPE: LC-ESI-QTOF
SMILES: COC1=CC=C(C=C1)C1=COC2=CC(O)=CC(O)=C2C1=O
INCHIKEY: WUADCCWRTIWANL-UHFFFAOYSA-N
Ontology: 4'-O-methylisoflavones
COLLISIONENERGY: 50
FORMULA: C16H12O5
RETENTIONTIME: 7.614033
IONMODE: Negative
Comment: registered in RIKEN PlaSMA
Num Peaks: 89
61.397	18
63.02433	93
64.99972	21
84.72118	22
88.9985	50
89.03752	20
91.021	20
92.02315	57
93.02628	20
96.08093	18
100.03353	24
102.0481	33
104.02753	269
105.02989	54
105.0365	32
106.0043	27
106.04067	36
107.01303	62
112.88477	21
116.0164	30
116.0249	33
117.0302	70
118.00932	34
119.04777	18
121.02868	26
121.0342	34
126.04647	35
127.05433	67
128.02794	26
129.03134	25
129.03871	39
130.04088	24
132.02025	419
133.02409	71
133.03018	32
134.03699	18
139.05075	66
140.05647	21
141.03459	296
142.0406	69
143.04361	38
144.05214	20
145.02899	31
146.99887	25
148.01277	22
151.0043	39
153.02975	19
154.03577	53
154.04494	50
155.04997	348
156.05113	56
166.0442	41
166.98088	18
167.05032	892
168.04341	36
168.05524	30
169.02539	150
172.05318	29
179.60416	22
181.03725	42
182.02864	35
182.03781	214
182.04416	72
183.04236	619
184.03136	34
184.04056	137
189.0145	18
195.03734	23
195.04907	200
196.04842	55
197.02673	52
210.02197	107
210.03349	246
211.03918	1000
211.06198	20
212.03992	91
212.04716	32
213.041	44
214.02242	26
216.42455	18
223.03024	22
223.03743	43
239.02454	22
239.03737	20
240.02946	20
240.04422	25
266.01315	20
267.0275	75
268.01871	49

NAME: Quercetin-3-O-rhamnoside
PRECURSORMZ: 447.09328504783
PRECURSORTYPE: [M-H]-
INSTRUMENTTYPE: LC-ESI-QTOF
SMILES: CC1OC(OC2=C(OC3=CC(O)=CC(O)=C3C2=O)C2=CC(O)=C(O)C=C2)C(O)C(O)C1O
INCHIKEY: OXGUCUVFOIWWQJ-UHFFFAOYNA-N
Ontology: Flavonoid-3-O-glycosides
COLLISIONENERGY: 10
FORMULA: C21H20O11
RETENTIONTIME: 4.3614
IONMODE: Negative
Comment: registered in RIKEN PlaSMA
Num Peaks: 46
83.01632	6
107.01382	13
109.02757	10
135.00864	10
141.03033	8
150.99985	67
151.00682	49
152.00612	16
153.00818	6
154.8457	10
163.00491	28
163.03464	6
164.00577	8
178.9994	30
179.9986	10
185.05087	7
187.0383	13
193.01675	5
200.04292	6
201.05171	7
211.03505	9
211.04424	7
212.03836	8
216.04387	9
226.02422	9
227.03641	23
229.05557	10
237.01239	5
243.02484	48
243.03752	12
245.03926	12
246.04466	6
254.0199	14
255.02858	204
256.02673	14
256.03638	27
271.02438	361
272.02023	15
272.03207	51
281.25925	7
283.02557	14
300.02695	766
301.03513	782
302.03647	123
303.04309	10
447.09314	1000

NAME: Quercetin-3-O-glucosyl-6''-acetate
PRECURSORMZ: 505.09876434783
PRECURSORTYPE: [M-H]-
INSTRUMENTTYPE: LC-ESI-QTOF
SMILES: CC(=O)OCC1OC(OC2=C(OC3=CC(O)=CC(O)=C3C2=O)C2=CC(O)=C(O)C=C2)C(O)C(O)C1O
INCHIKEY: IGLUNMMNDNWZOA-UHFFFAOYNA-N
Ontology: Flavonoid-3-O-glycosides
COLLISIONENERGY: 10
FORMULA: C23H22O13
RETENTIONTIME: 4.4452
IONMODE: Negative
Comment: registered in RIKEN PlaSMA
Num Peaks: 29
107.01133	6
151.00185	74
178.9971	39
226.01701	9
227.03375	5
229.01324	6
242.02266	14
243.0287	50
244.02753	6
246.04794	6
254.01506	8
255.02869	143
256.03409	19
270.01114	5
271.02383	299
272.026	66
273.03085	7
283.02878	19
299.00198	6
299.01703	14
300.02777	782
301.03275	481
302.03152	65
463.08289	13
464.09146	5
503.08273	21
504.11111	6
505.09769	1000
505.15253	5

NAME: 2',6'-Dihydroxy-4-methoxychalcone-4'-O-neohesperid
PRECURSORMZ: 593.18757934783
PRECURSORTYPE: [M-H]-
INSTRUMENTTYPE: LC-ESI-QTOF
SMILES: COC1=CC=C(C=CC(=O)C2=C(O)C=C(OC3OC(CO)C(O)C(O)C3OC3OC(C)C(O)C(O)C3O)C=C2O)C=C1
INCHIKEY: HWRDCYOHJBCWGW-UHFFFAOYNA-N
Ontology: Flavonoid O-glycosides
COLLISIONENERGY: 10
FORMULA: C28H34O14
RETENTIONTIME: 5.44105
IONMODE: Negative
Comment: registered in RIKEN PlaSMA
Num Peaks: 28
150.99516	7
164.00858	21
175.0713	5
217.08694	10
223.06302	5
226.06395	8
241.082	10
241.09225	13
242.09026	8
243.0625	9
269.06976	6
270.04074	21
270.05234	31
271.06058	11
285.0751	840
286.07935	150
287.08633	27
299.09479	9
309.08121	8
327.08527	44
328.08975	13
369.10043	10
387.10605	9
429.11411	5
431.14368	7
473.14709	17
474.15295	13
593.18701	1000

NAME: Biochanin A
PRECURSORMZ: 283.06119704783
PRECURSORTYPE: [M-H]-
INSTRUMENTTYPE: LC-ESI-QTOF
SMILES: COC1=CC=C(C=C1)C1=COC2=CC(O)=CC(O)=C2C1=O
INCHIKEY: WUADCCWRTIWANL-UHFFFAOYSA-N
Ontology: 4'-O-methylisoflavones
COLLISIONENERGY: 10
FORMULA: C16H12O5
RETENTIONTIME: 7.614033
IONMODE: Negative
Comment: registered in RIKEN PlaSMA
Num Peaks: 33
104.02506	19
132.02113	46
134.03284	8
135.00816	13
151.0036	13
154.04015	9
167.0493	39
179.04572	8
183.04472	17
184.04759	12
184.05656	9
194.04056	5
195.04465	45
196.05254	26
197.05565	5
198.03142	6
210.03113	12
211.03922	123
212.03967	12
212.0545	12
223.03877	33
224.04814	46
226.02559	19
239.03525	102
240.03856	58
240.04622	19
241.0379	6
267.02979	170
268.03671	767
269.04089	162
270.04276	15
283.06	1000
283.1066	6

NAME: Quercetin-3-O-rhamnoside
PRECURSORMZ: 447.09328504783
PRECURSORTYPE: [M-H]-
INSTRUMENTTYPE: LC-ESI-QTOF
SMILES: CC1OC(OC2=C(OC3=CC(O)=CC(O)=C3C2=O)C2=CC(O)=C(O)C=C2)C(O)C(O)C1O
INCHIKEY: OXGUCUVFOIWWQJ-UHFFFAOYNA-N
Ontology: Flavonoid-3-O-glycosides
COLLISIONENERGY: 10
FORMULA: C21H20O11
RETENTIONTIME: 4.3614
IONMODE: Negative
Comment: registered in RIKEN PlaSMA
Num Peaks: 6
300.02731	75
301.034	180
302.03735	41
446.08069	20
447.09198	1000
447.13986	8

NAME: Quercetin-3-O-glucosyl-6''-acetate
PRECURSORMZ: 505.09876434783
PRECURSORTYPE: [M-H]-
INSTRUMENTTYPE: LC-ESI-QTOF
SMILES: CC(=O)OCC1OC(OC2=C(OC3=CC(O)=CC(O)=C3C2=O)C2=CC(O)=C(O)C=C2)C(O)C(O)C1O
INCHIKEY: IGLUNMMNDNWZOA-UHFFFAOYNA-N
Ontology: Flavonoid-3-O-glycosides
COLLISIONENERGY: 10
FORMULA: C23H22O13
RETENTIONTIME: 4.4452
IONMODE: Negative
Comment: registered in RIKEN PlaSMA
Num Peaks: 9
299.02283	7
300.02695	34
301.02997	62
302.03677	12
463.08008	5
503.09021	13
504.07413	7
504.09409	13
505.09729	1000

NAME: 2',6'-Dihydroxy-4-methoxychalcone-4'-O-neohesperid
PRECURSORMZ: 593.18757934783
PRECURSORTYPE: [M-H]-
INSTRUMENTTYPE: LC-ESI-QTOF
SMILES: COC1=CC=C(C=CC(=O)C2=C(O)C=C(OC3OC(CO)C(O)C(O)C3OC3OC(C)C(O)C(O)C3O)C=C2O)C=C1
INCHIKEY: HWRDCYOHJBCWGW-UHFFFAOYNA-N
Ontology: Flavonoid O-glycosides
COLLISIONENERGY: 10
FORMULA: C28H34O14
RETENTIONTIME: 5.44105
IONMODE: Negative
Comment: registered in RIKEN PlaSMA
Num Peaks: 3
285.08035	12
593.18665	1000
593.24243	5

NAME: 2',6'-Dihydroxy-4-methoxychalcone-4'-O-neohesperid
PRECURSORMZ: 639.19305865183
PRECURSORTYPE: [M+FA-H]-
INSTRUMENTTYPE: LC-ESI-QTOF
SMILES: COC1=CC=C(C=CC(=O)C2=C(O)C=C(OC3OC(CO)C(O)C(O)C3OC3OC(C)C(O)C(O)C3O)C=C2O)C=C1
INCHIKEY: HWRDCYOHJBCWGW-UHFFFAOYNA-N
Ontology: Flavonoid O-glycosides
COLLISIONENERGY: 10
FORMULA: C28H34O14
RETENTIONTIME: 5.44105
IONMODE: Negative
Comment: registered in RIKEN PlaSMA
Num Peaks: 7
151.74467	6
593.18616	1000
593.23206	10
594.19287	355
595.19482	66
596.20837	10
639.19171	155

NAME: Biochanin A
PRECURSORMZ: 283.06119704783
PRECURSORTYPE: [M-H]-
INSTRUMENTTYPE: LC-ESI-QTOF
SMILES: COC1=CC=C(C=C1)C1=COC2=CC(O)=CC(O)=C2C1=O
INCHIKEY: WUADCCWRTIWANL-UHFFFAOYSA-N
Ontology: 4'-O-methylisoflavones
COLLISIONENERGY: 10
FORMULA: C16H12O5
RETENTIONTIME: 7.614033
IONMODE: Negative
Comment: registered in RIKEN PlaSMA
Num Peaks: 4
268.0368	160
269.04041	29
283.05972	1000
283.10693	13

NAME: Quercetin-3-O-rhamnoside
PRECURSORMZ: 447.09328504783
PRECURSORTYPE: [M-H]-
INSTRUMENTTYPE: LC-ESI-QTOF
SMILES: CC1OC(OC2=C(OC3=CC(O)=CC(O)=C3C2=O)C2=CC(O)=C(O)C=C2)C(O)C(O)C1O
INCHIKEY: OXGUCUVFOIWWQJ-UHFFFAOYNA-N
Ontology: Flavonoid-3-O-glycosides
COLLISIONENERGY: 30
FORMULA: C21H20O11
RETENTIONTIME: 4.3614
IONMODE: Negative
Comment: registered in RIKEN PlaSMA
Num Peaks: 66
107.01154	24
109.03032	7
121.02602	8
122.03412	7
135.00517	11
149.02	16
151.0038	278
152.0009	11
152.00877	6
153.00233	10
161.02454	5
163.00424	55
167.04532	8
178.99895	131
180.00343	19
185.05927	6
187.04199	7
189.01242	7
190.99921	15
193.01451	7
199.05353	7
205.052	7
211.03702	15
211.05281	6
212.03886	10
215.02008	5
226.02121	9
227.02921	6
227.04004	16
228.04189	12
229.05368	20
239.02794	12
239.0416	10
240.04149	6
242.01572	6
243.01643	6
243.03032	22
244.0323	17
244.04913	8
245.03729	29
245.05147	10
254.01895	10
254.03049	7
255.03026	333
256.02579	22
256.03888	38
257.03723	15
271.02493	596
272.02911	84
273.01752	10
273.03278	38
273.04501	24
274.02884	6
274.0401	9
283.02405	22
283.03647	9
284.02939	9
285.04333	6
299.01648	31
300.02615	1000
301.03326	568
301.06485	6
302.02597	28
302.03909	71
303.03604	17
326.314	8

NAME: Quercetin-3-O-glucosyl-6''-acetate
PRECURSORMZ: 505.09876434783
PRECURSORTYPE: [M-H]-
INSTRUMENTTYPE: LC-ESI-QTOF
SMILES: CC(=O)OCC1OC(OC2=C(OC3=CC(O)=CC(O)=C3C2=O)C2=CC(O)=C(O)C=C2)C(O)C(O)C1O
INCHIKEY: IGLUNMMNDNWZOA-UHFFFAOYNA-N
Ontology: Flavonoid-3-O-glycosides
COLLISIONENERGY: 30
FORMULA: C23H22O13
RETENTIONTIME: 4.4452
IONMODE: Negative
Comment: registered in RIKEN PlaSMA
Num Peaks: 30
121.03104	5
151.0029	69
152.00764	8
163.00104	12
178.99745	60
199.0405	5
226.02861	6
227.03635	9
229.04741	8
242.01962	9
243.02557	26
245.03868	5
254.02527	20
255.02818	148
256.02203	6
256.03458	29
257.03561	8
270.01486	12
271.02432	298
272.02655	68
273.02722	14
273.04559	9
283.02536	14
298.00354	6
299.01776	16
300.02698	1000
301.03198	327
302.01978	14
302.0369	56
303.04333	15

NAME: 2',6'-Dihydroxy-4-methoxychalcone-4'-O-neohesperid
PRECURSORMZ: 593.18757934783
PRECURSORTYPE: [M-H]-
INSTRUMENTTYPE: LC-ESI-QTOF
SMILES: COC1=CC=C(C=CC(=O)C2=C(O)C=C(OC3OC(CO)C(O)C(O)C3OC3OC(C)C(O)C(O)C3O)C=C2O)C=C1
INCHIKEY: HWRDCYOHJBCWGW-UHFFFAOYNA-N
Ontology: Flavonoid O-glycosides
COLLISIONENERGY: 30
FORMULA: C28H34O14
RETENTIONTIME: 5.44105
IONMODE: Negative
Comment: registered in RIKEN PlaSMA
Num Peaks: 18
151.00212	7
217.0928	6
241.07339	7
241.0864	11
270.05182	17
285.07516	1000
286.0795	201
287.08194	27
309.07889	13
327.08295	61
328.08771	9
339.0896	9
387.10574	9
429.11563	8
473.14499	25
474.14383	6
593.18494	24
593.21222	7

NAME: Biochanin A
PRECURSORMZ: 283.06119704783
PRECURSORTYPE: [M-H]-
INSTRUMENTTYPE: LC-ESI-QTOF
SMILES: COC1=CC=C(C=C1)C1=COC2=CC(O)=CC(O)=C2C1=O
INCHIKEY: WUADCCWRTIWANL-UHFFFAOYSA-N
Ontology: 4'-O-methylisoflavones
COLLISIONENERGY: 30
FORMULA: C16H12O5
RETENTIONTIME: 7.614033
IONMODE: Negative
Comment: registered in RIKEN PlaSMA
Num Peaks: 76
76.03555	6
91.0188	39
104.02579	60
107.01503	16
108.0172	9
120.02167	14
121.03241	6
132.02025	410
133.02219	29
134.03809	40
135.00906	103
136.0199	6
141.02882	6
142.04051	12
142.0468	12
143.0435	6
143.05197	8
147.01123	26
151.00125	40
151.00777	20
154.04178	43
155.05293	10
156.05878	24
158.03923	10
166.04018	6
167.01509	5
167.04887	135
168.04285	6
168.05336	28
169.02579	17
170.0329	13
171.03845	8
171.0462	10
178.03555	12
178.04517	5
179.04747	37
180.05522	37
182.03511	22
183.04718	51
184.0508	100
194.0352	6
194.80559	6
195.03848	103
195.04509	268
195.11169	6
196.05005	138
197.05765	15
198.03081	23
198.04187	12
199.03812	23
199.0508	7
211.03871	758
212.04437	265
213.05687	7
214.05107	6
222.02936	22
223.03836	299
224.04463	149
225.04823	11
225.05913	8
226.02005	70
226.0307	61
227.02841	8
239.03401	969
240.03984	287
241.03296	7
241.04466	35
243.05235	5
250.0307	15
251.02954	11
261.97421	6
267.02905	1000
268.03592	811
269.03772	148
270.03952	11
283.06714	10

NAME: Quercetin-3-O-rhamnoside
PRECURSORMZ: 447.09328504783
PRECURSORTYPE: [M-H]-
INSTRUMENTTYPE: LC-ESI-QTOF
SMILES: CC1OC(OC2=C(OC3=CC(O)=CC(O)=C3C2=O)C2=CC(O)=C(O)C=C2)C(O)C(O)C1O
INCHIKEY: OXGUCUVFOIWWQJ-UHFFFAOYNA-N
Ontology: Flavonoid-3-O-glycosides
COLLISIONENERGY: 50
FORMULA: C21H20O11
RETENTIONTIME: 4.3614
IONMODE: Negative
Comment: registered in RIKEN PlaSMA
Num Peaks: 165
83.01425	17
91.01719	5
94.00442	6
95.01406	10
96.01698	6
107.01431	100
108.02233	71
109.02042	9
109.02665	39
110.03246	12
119.01256	33
120.01269	14
120.02695	12
120.0502	10
121.02157	19
121.02844	95
122.0247	5
124.01582	26
125.01789	7
125.04662	8
127.05171	22
129.03452	5
129.0773	6
130.04539	10
131.05513	7
133.02737	6
133.9989	8
135.00383	18
135.04793	9
135.96127	6
136.0123	25
137.02191	5
142.04486	9
143.04765	46
144.04782	6
145.02826	23
146.03505	6
147.00787	12
147.0407	8
148.01428	89
149.01688	7
149.02406	22
149.99939	5
150.02379	7
151.00191	132
152.00809	20
153.0318	9
154.04878	5
155.04419	21
156.04672	17
158.03255	12
159.0417	28
161.01489	8
163.00313	73
163.03935	7
164.00844	6
164.01718	16
165.02287	9
167.05247	16
169.02496	6
170.02905	16
171.03773	40
171.04483	28
172.01575	7
172.04538	12
173.02034	8
173.02762	11
173.05331	12
174.02911	10
175.0359	49
176.03821	6
178.99393	12
179.00052	9
182.03348	35
183.03693	28
183.04706	55
183.84766	8
184.05074	7
185.02145	13
186.02847	12
186.99921	18
187.03807	78
188.06944	8
190.99646	11
193.00467	8
195.0424	5
197.02707	14
199.03752	190
199.06136	7
200.03117	7
200.45468	8
201.0074	6
201.01778	21
201.04799	5
201.05768	11
202.01065	7
202.02539	17
203.02774	29
203.03734	30
204.03108	5
209.02443	6
210.02666	22
210.04895	11
211.03314	32
211.05151	17
212.02765	8
212.04358	55
213.01604	34
214.02089	28
214.08115	6
215.01854	9
215.03532	89
215.69279	6
215.98413	5
216.00652	5
225.01036	6
226.02913	42
227.03297	133
228.03761	37
228.05278	15
228.23166	8
229.00861	22
229.01733	25
229.03448	10
229.05762	8
230.01201	7
235.70401	8
241.01173	17
242.00026	7
242.01884	56
243.006	7
243.02786	393
244.0303	49
244.04778	15
245.0238	19
245.04268	14
246.05424	17
246.06381	11
247.05663	8
253.01097	6
253.09781	8
254.00885	6
255.02838	309
256.01331	7
256.03119	86
257.02359	7
257.03525	9
261.82797	8
269.01028	8
270.00668	5
270.66003	5
271.02362	1000
272.02106	83
272.03619	26
273.02621	9
273.03937	10
283.75217	7
284.02866	6
299.01471	36
300.02814	9
301.01395	6
301.0239	7
328.98386	10
357.55566	7
387.76981	11

NAME: Quercetin-3-O-glucosyl-6''-acetate
PRECURSORMZ: 505.09876434783
PRECURSORTYPE: [M-H]-
INSTRUMENTTYPE: LC-ESI-QTOF
SMILES: CC(=O)OCC1OC(OC2=C(OC3=CC(O)=CC(O)=C3C2=O)C2=CC(O)=C(O)C=C2)C(O)C(O)C1O
INCHIKEY: IGLUNMMNDNWZOA-UHFFFAOYNA-N
Ontology: Flavonoid-3-O-glycosides
COLLISIONENERGY: 50
FORMULA: C23H22O13
RETENTIONTIME: 4.4452
IONMODE: Negative
Comment: registered in RIKEN PlaSMA
Num Peaks: 79
65.00651	8
93.03191	9
94.00827	6
107.01261	39
108.01898	53
109.0237	8
109.03072	16
119.01191	10
121.02993	20
132.05954	5
135.00624	41
136.0052	7
139.05165	10
143.05083	7
146.0452	5
148.00969	14
148.01764	29
151.00366	78
157.03191	9
159.0433	23
163.00249	36
164.00935	37
164.55194	6
170.03731	11
171.03932	7
175.03732	8
178.98895	7
183.04131	25
183.05974	6
187.03934	6
191.00009	10
192.00813	12
195.04257	7
197.02505	11
198.02402	9
198.03265	24
199.03864	113
200.04056	21
201.01582	23
201.02864	10
201.05478	26
202.026	13
203.03412	10
211.04222	35
212.04382	8
213.01952	16
214.03609	6
215.03256	33
215.04025	15
226.0226	20
226.03326	17
227.03365	117
227.04964	14
228.04195	14
228.05518	7
241.01465	10
242.02245	45
243.02753	320
244.03049	64
245.02673	8
245.03517	8
253.01503	5
254.01598	40
254.02904	6
255.03009	382
256.02722	40
256.03851	19
257.02963	10
257.04373	15
271.0246	1000
271.07581	14
272.02567	167
273.02289	7
273.03815	13
298.008	5
299.0242	20
300.01956	25
300.03436	39
301.03146	10

NAME: 2',6'-Dihydroxy-4-methoxychalcone-4'-O-neohesperid
PRECURSORMZ: 593.18757934783
PRECURSORTYPE: [M-H]-
INSTRUMENTTYPE: LC-ESI-QTOF
SMILES: COC1=CC=C(C=CC(=O)C2=C(O)C=C(OC3OC(CO)C(O)C(O)C3OC3OC(C)C(O)C(O)C3O)C=C2O)C=C1
INCHIKEY: HWRDCYOHJBCWGW-UHFFFAOYNA-N
Ontology: Flavonoid O-glycosides
COLLISIONENERGY: 50
FORMULA: C28H34O14
RETENTIONTIME: 5.44105
IONMODE: Negative
Comment: registered in RIKEN PlaSMA
Num Peaks: 146
65.00655	14
77.61074	7
80.02558	6
83.01216	20
84.01648	7
85.02692	7
87.01042	14
97.02517	12
107.01228	92
108.02079	59
119.04988	33
120.02565	7
120.5492	7
121.99819	7
122.9995	15
123.00431	37
125.01936	13
125.02566	12
131.00995	9
131.03174	7
132.05785	9
135.99484	9
136.01637	156
137.02255	10
142.01984	8
144.06343	13
145.02838	6
145.06285	12
145.09926	9
147.0435	10
148.01566	10
150.03273	7
151.00203	645
152.00082	14
152.00848	59
153.0054	13
155.05496	11
158.07265	10
159.05095	9
160.0526	30
164.00987	743
164.02533	24
165.01248	138
166.01144	18
166.01778	26
167.04474	6
170.06976	7
171.0423	13
171.07314	7
175.00194	9
175.01093	7
175.07153	71
175.0788	60
176.00391	8
177.01537	40
177.02719	6
178.02263	7
179.71434	6
180.05551	10
183.0446	29
184.04126	10
184.04848	13
184.05846	9
185.01765	7
185.05231	7
186.03313	82
187.0302	7
187.04681	29
187.07356	8
188.00647	7
188.0486	11
189.01874	7
190.0928	7
190.33347	7
190.98967	7
192.00294	7
193.02264	8
194.85883	7
197.0558	8
197.06544	16
198.06833	130
199.05559	17
199.07549	65
200.08205	18
201.05522	229
202.06142	57
203.05249	8
203.06744	9
207.19731	8
208.04361	17
211.03349	8
211.06879	18
213.04248	8
213.06499	10
215.06082	9
215.07498	25
217.08502	94
219.0036	6
222.0697	6
223.08087	8
225.05507	58
226.02997	8
226.0618	95
226.07362	13
227.02846	7
227.06207	32
228.03412	30
228.04727	9
228.5345	12
240.07117	6
241.04681	43
241.08298	179
241.09221	61
241.16327	7
242.05716	27
242.06702	10
242.08565	37
242.09752	8
243.06354	166
244.06837	9
250.06789	6
253.08295	7
254.43381	10
255.06567	15
256.07904	19
257.08334	27
266.05115	7
268.08585	7
269.04172	35
269.0517	36
270.05045	447
271.05814	64
283.06424	22
283.08069	7
284.02399	8
284.06348	19
285.07489	1000
286.07986	162
287.0798	18
293.03973	13
297.04059	6
298.07751	8
299.09048	6
306.04623	11
309.07977	20
311.09784	8

NAME: 2',6'-Dihydroxy-4-methoxychalcone-4'-O-neohesperid
PRECURSORMZ: 639.19305865183
PRECURSORTYPE: [M+FA-H]-
INSTRUMENTTYPE: LC-ESI-QTOF
SMILES: COC1=CC=C(C=CC(=O)C2=C(O)C=C(OC3OC(CO)C(O)C(O)C3OC3OC(C)C(O)C(O)C3O)C=C2O)C=C1
INCHIKEY: HWRDCYOHJBCWGW-UHFFFAOYNA-N
Ontology: Flavonoid O-glycosides
COLLISIONENERGY: 50
FORMULA: C28H34O14
RETENTIONTIME: 5.44105
IONMODE: Negative
Comment: registered in RIKEN PlaSMA
Num Peaks: 75
69.035	7
94.81552	8
95.008	6
105.01981	6
107.0124	21
120.02787	17
121.02278	7
121.21339	7
122.00257	11
133.02171	5
133.02708	8
136.00981	7
145.02652	7
149.02945	10
151.00055	107
151.01645	8
156.05704	11
164.00987	188
165.01028	6
165.53793	6
175.07697	39
177.05765	6
186.02892	26
187.03214	14
189.0549	12
192.00462	5
198.05995	9
198.06886	18
199.07951	18
200.04274	7
201.05246	32
206.02376	6
208.05049	5
217.08731	38
225.05659	8
226.06299	26
227.17874	7
228.04123	8
236.03856	5
241.05428	5
241.08771	98
242.07436	6
242.08965	14
243.06482	47
244.06555	11
247.05751	7
249.75754	11
253.48364	7
255.06628	5
268.07272	6
269.04074	23
269.08536	6
270.05463	221
271.04913	16
271.05881	32
272.0592	14
273.0654	9
280.55292	7
283.04996	8
284.06012	18
285.07529	1000
286.07593	198
287.07962	21
288.07932	7
296.06204	5
299.08041	6
326.0665	6
327.06799	13
327.08408	6
354.10913	6
355.07852	7
371.2739	11
429.11404	7
429.13132	11
469.03253	5

NAME: Biochanin A
PRECURSORMZ: 283.06119704783
PRECURSORTYPE: [M-H]-
INSTRUMENTTYPE: LC-ESI-QTOF
SMILES: COC1=CC=C(C=C1)C1=COC2=CC(O)=CC(O)=C2C1=O
INCHIKEY: WUADCCWRTIWANL-UHFFFAOYSA-N
Ontology: 4'-O-methylisoflavones
COLLISIONENERGY: 50
FORMULA: C16H12O5
RETENTIONTIME: 7.614033
IONMODE: Negative
Comment: registered in RIKEN PlaSMA
Num Peaks: 78
62.01239	20
63.02073	20
64.99862	23
77.03709	23
77.04124	26
91.01764	88
92.02452	31
93.0323	23
93.03698	23
104.02489	160
104.02888	64
105.03216	41
114.04508	47
117.03604	26
118.03828	34
120.01871	22
121.11995	20
125.03748	20
127.05509	29
128.05724	20
129.03012	34
129.03818	57
131.04614	23
132.01993	405
132.02982	29
133.01587	47
133.0247	39
134.03015	31
137.0224	26
139.05203	38
140.03052	20
141.03525	317
142.03651	21
143.0489	28
143.05637	44
145.02208	36
150.01729	22
150.99854	27
153.0347	20
153.0451	43
154.03734	92
154.04414	20
155.02325	22
155.04909	142
158.03235	23
165.03746	27
166.03445	23
166.0417	36
167.04955	1000
168.04251	22
168.05557	153
169.02905	58
178.04031	22
179.04922	85
182.03268	44
182.0405	61
183.04434	751
184.05495	62
195.04599	465
196.04553	53
197.02043	27
209.02017	22
210.03114	407
211.03487	832
211.05054	29
211.33615	26
212.04568	87
213.0428	22
213.04971	23
222.95596	37
223.03525	22
223.04785	21
226.02853	36
227.02975	22
239.04002	43
240.03813	49
240.05367	26
241.02876	22

NAME: Quercetin-3-O-rhamnoside
PRECURSORMZ: 447.09328504783
PRECURSORTYPE: [M-H]-
INSTRUMENTTYPE: LC-ESI-QTOF
SMILES: CC1OC(OC2=C(OC3=CC(O)=CC(O)=C3C2=O)C2=CC(O)=C(O)C=C2)C(O)C(O)C1O
INCHIKEY: OXGUCUVFOIWWQJ-UHFFFAOYNA-N
Ontology: Flavonoid-3-O-glycosides
COLLISIONENERGY: 10
FORMULA: C21H20O11
RETENTIONTIME: 4.3614
IONMODE: Negative
Comment: registered in RIKEN PlaSMA
Num Peaks: 37
107.00587	6
107.01472	8
111.03331	5
121.02598	16
149.02034	6
151.00235	96
163.00211	19
171.04787	9
178.99622	53
179.00316	28
203.03139	11
211.03931	25
227.03793	20
230.05379	5
243.02344	20
243.03546	16
245.04596	10
247.44847	5
254.01955	18
255.02866	211
256.02899	37
256.0444	8
257.03809	9
271.02383	316
272.0303	26
273.02423	13
273.04425	14
283.01724	5
285.03741	8
298.01553	6
299.02057	9
300.02713	771
301.03366	724
302.03778	164
303.04544	13
313.03745	6
447.09357	1000

NAME: Quercetin-3-O-glucosyl-6''-acetate
PRECURSORMZ: 505.09876434783
PRECURSORTYPE: [M-H]-
INSTRUMENTTYPE: LC-ESI-QTOF
SMILES: CC(=O)OCC1OC(OC2=C(OC3=CC(O)=CC(O)=C3C2=O)C2=CC(O)=C(O)C=C2)C(O)C(O)C1O
INCHIKEY: IGLUNMMNDNWZOA-UHFFFAOYNA-N
Ontology: Flavonoid-3-O-glycosides
COLLISIONENERGY: 10
FORMULA: C23H22O13
RETENTIONTIME: 4.4452
IONMODE: Negative
Comment: registered in RIKEN PlaSMA
Num Peaks: 38
150.99771	31
151.00357	25
164.00119	7
178.99026	13
179.00377	13
180.0024	8
189.01727	7
211.03578	16
216.04674	10
227.03059	12
228.03903	7
242.0231	12
243.02286	13
243.03429	31
254.01833	22
255.019	29
255.03023	95
256.03162	16
256.0437	13
271.02347	333
272.01764	15
272.02881	46
273.03293	20
283.02289	14
300.02643	728
301.0329	441
302.02481	16
302.04105	60
303.03333	15
353.08191	5
402.48337	5
463.07416	9
463.09244	10
464.0921	9
503.08517	8
504.08835	9
505.09949	1000
505.14221	9

NAME: 2',6'-Dihydroxy-4-methoxychalcone-4'-O-neohesperid
PRECURSORMZ: 593.18757934783
PRECURSORTYPE: [M-H]-
INSTRUMENTTYPE: LC-ESI-QTOF
SMILES: COC1=CC=C(C=CC(=O)C2=C(O)C=C(OC3OC(CO)C(O)C(O)C3OC3OC(C)C(O)C(O)C3O)C=C2O)C=C1
INCHIKEY: HWRDCYOHJBCWGW-UHFFFAOYNA-N
Ontology: Flavonoid O-glycosides
COLLISIONENERGY: 10
FORMULA: C28H34O14
RETENTIONTIME: 5.44105
IONMODE: Negative
Comment: registered in RIKEN PlaSMA
Num Peaks: 21
151.0047	7
164.01035	40
175.07439	6
199.07686	7
201.06262	10
217.08568	10
241.08205	12
242.08972	5
243.06947	6
270.05518	44
285.07605	699
286.07819	173
309.07996	7
327.08746	36
328.09222	7
329.09512	6
387.09351	9
387.10385	5
431.138	9
473.14569	37
593.18671	1000

NAME: 2',6'-Dihydroxy-4-methoxychalcone-4'-O-neohesperid
PRECURSORMZ: 639.19305865183
PRECURSORTYPE: [M+FA-H]-
INSTRUMENTTYPE: LC-ESI-QTOF
SMILES: COC1=CC=C(C=CC(=O)C2=C(O)C=C(OC3OC(CO)C(O)C(O)C3OC3OC(C)C(O)C(O)C3O)C=C2O)C=C1
INCHIKEY: HWRDCYOHJBCWGW-UHFFFAOYNA-N
Ontology: Flavonoid O-glycosides
COLLISIONENERGY: 10
FORMULA: C28H34O14
RETENTIONTIME: 5.44105
IONMODE: Negative
Comment: registered in RIKEN PlaSMA
Num Peaks: 19
87.04723	8
101.2933	5
151.00168	8
285.0759	463
286.07803	106
287.07825	30
327.08206	58
328.08823	17
329.09531	8
413.10696	5
414.29553	6
473.14279	17
474.13974	13
593.18707	1000
593.76837	5
594.19214	326
595.18396	28
595.20966	27
639.2005	53

NAME: Biochanin A
PRECURSORMZ: 283.06119704783
PRECURSORTYPE: [M-H]-
INSTRUMENTTYPE: LC-ESI-QTOF
SMILES: COC1=CC=C(C=C1)C1=COC2=CC(O)=CC(O)=C2C1=O
INCHIKEY: WUADCCWRTIWANL-UHFFFAOYSA-N
Ontology: 4'-O-methylisoflavones
COLLISIONENERGY: 10
FORMULA: C16H12O5
RETENTIONTIME: 7.614033
IONMODE: Negative
Comment: registered in RIKEN PlaSMA
Num Peaks: 29
104.02443	6
107.01096	5
132.01924	32
135.00613	20
154.0421	7
155.04602	7
167.04736	33
171.04214	7
179.04836	7
183.04587	20
184.05101	14
194.04083	5
195.04213	39
196.04916	21
210.03517	7
211.03738	121
212.04581	34
223.03979	33
224.04468	25
226.02463	17
239.03253	113
240.04028	73
241.04514	7
267.02823	144
268.03516	755
269.03928	123
270.04099	10
283.05917	1000
283.10739	14

NAME: Quercetin-3-O-rhamnoside
PRECURSORMZ: 447.09328504783
PRECURSORTYPE: [M-H]-
INSTRUMENTTYPE: LC-ESI-QTOF
SMILES: CC1OC(OC2=C(OC3=CC(O)=CC(O)=C3C2=O)C2=CC(O)=C(O)C=C2)C(O)C(O)C1O
INCHIKEY: OXGUCUVFOIWWQJ-UHFFFAOYNA-N
Ontology: Flavonoid-3-O-glycosides
COLLISIONENERGY: 10
FORMULA: C21H20O11
RETENTIONTIME: 4.3614
IONMODE: Negative
Comment: registered in RIKEN PlaSMA
Num Peaks: 4
300.02649	83
301.03506	198
302.03769	33
447.0936	1000

NAME: Quercetin-3-O-glucosyl-6''-acetate
PRECURSORMZ: 505.09876434783
PRECURSORTYPE: [M-H]-
INSTRUMENTTYPE: LC-ESI-QTOF
SMILES: CC(=O)OCC1OC(OC2=C(OC3=CC(O)=CC(O)=C3C2=O)C2=CC(O)=C(O)C=C2)C(O)C(O)C1O
INCHIKEY: IGLUNMMNDNWZOA-UHFFFAOYNA-N
Ontology: Flavonoid-3-O-glycosides
COLLISIONENERGY: 10
FORMULA: C23H22O13
RETENTIONTIME: 4.4452
IONMODE: Negative
Comment: registered in RIKEN PlaSMA
Num Peaks: 6
300.02518	37
301.03476	53
302.04004	11
503.09045	12
504.08972	19
505.0968	1000

NAME: 2',6'-Dihydroxy-4-methoxychalcone-4'-O-neohesperid
PRECURSORMZ: 593.18757934783
PRECURSORTYPE: [M-H]-
INSTRUMENTTYPE: LC-ESI-QTOF
SMILES: COC1=CC=C(C=CC(=O)C2=C(O)C=C(OC3OC(CO)C(O)C(O)C3OC3OC(C)C(O)C(O)C3O)C=C2O)C=C1
INCHIKEY: HWRDCYOHJBCWGW-UHFFFAOYNA-N
Ontology: Flavonoid O-glycosides
COLLISIONENERGY: 10
FORMULA: C28H34O14
RETENTIONTIME: 5.44105
IONMODE: Negative
Comment: registered in RIKEN PlaSMA
Num Peaks: 2
285.07367	8
593.18683	1000

NAME: 2',6'-Dihydroxy-4-methoxychalcone-4'-O-neohesperid
PRECURSORMZ: 639.19305865183
PRECURSORTYPE: [M+FA-H]-
INSTRUMENTTYPE: LC-ESI-QTOF
SMILES: COC1=CC=C(C=CC(=O)C2=C(O)C=C(OC3OC(CO)C(O)C(O)C3OC3OC(C)C(O)C(O)C3O)C=C2O)C=C1
INCHIKEY: HWRDCYOHJBCWGW-UHFFFAOYNA-N
Ontology: Flavonoid O-glycosides
COLLISIONENERGY: 10
FORMULA: C28H34O14
RETENTIONTIME: 5.44105
IONMODE: Negative
Comment: registered in RIKEN PlaSMA
Num Peaks: 8
371.39209	5
593.18622	1000
594.19165	334
595.16669	15
595.19183	56
595.2276	6
596.2085	9
639.19525	129

NAME: Biochanin A
PRECURSORMZ: 283.06119704783
PRECURSORTYPE: [M-H]-
INSTRUMENTTYPE: LC-ESI-QTOF
SMILES: COC1=CC=C(C=C1)C1=COC2=CC(O)=CC(O)=C2C1=O
INCHIKEY: WUADCCWRTIWANL-UHFFFAOYSA-N
Ontology: 4'-O-methylisoflavones
COLLISIONENERGY: 10
FORMULA: C16H12O5
RETENTIONTIME: 7.614033
IONMODE: Negative
Comment: registered in RIKEN PlaSMA
Num Peaks: 5
268.03708	147
269.0412	27
270.04364	6
283.06033	1000
283.10696	12

NAME: Quercetin-3-O-rhamnoside
PRECURSORMZ: 447.09328504783
PRECURSORTYPE: [M-H]-
INSTRUMENTTYPE: LC-ESI-QTOF
SMILES: CC1OC(OC2=C(OC3=CC(O)=CC(O)=C3C2=O)C2=CC(O)=C(O)C=C2)C(O)C(O)C1O
INCHIKEY: OXGUCUVFOIWWQJ-UHFFFAOYNA-N
Ontology: Flavonoid-3-O-glycosides
COLLISIONENERGY: 30
FORMULA: C21H20O11
RETENTIONTIME: 4.3614
IONMODE: Negative
Comment: registered in RIKEN PlaSMA
Num Peaks: 59
107.01278	24
109.02579	11
109.03137	6
117.07935	5
121.02609	26
148.02422	9
151.00235	292
152.01314	17
163.00095	41
163.04663	5
164.01241	9
178.99771	160
179.9984	15
181.0056	10
183.04913	6
186.02664	6
186.06685	6
189.05672	7
192.00371	7
193.01471	9
199.0376	5
201.05583	9
202.02193	7
203.02951	8
211.03467	25
211.0455	12
212.03908	6
219.18454	7
227.03435	22
229.04527	12
229.05225	6
239.02795	9
243.02637	33
243.03864	15
244.0359	19
245.03236	9
245.04659	28
246.05441	9
254.01801	10
254.02731	10
255.02824	327
256.03082	85
257.03085	19
257.04788	6
258.03989	10
266.01895	6
271.02539	569
272.02951	80
273.04013	56
274.04025	6
283.02505	56
284.0293	7
299.00504	7
299.01764	11
300.02582	1000
301.03287	523
302.03851	125
303.03271	12
303.04504	10

NAME: Quercetin-3-O-glucosyl-6''-acetate
PRECURSORMZ: 505.09876434783
PRECURSORTYPE: [M-H]-
INSTRUMENTTYPE: LC-ESI-QTOF
SMILES: CC(=O)OCC1OC(OC2=C(OC3=CC(O)=CC(O)=C3C2=O)C2=CC(O)=C(O)C=C2)C(O)C(O)C1O
INCHIKEY: IGLUNMMNDNWZOA-UHFFFAOYNA-N
Ontology: Flavonoid-3-O-glycosides
COLLISIONENERGY: 30
FORMULA: C23H22O13
RETENTIONTIME: 4.4452
IONMODE: Negative
Comment: registered in RIKEN PlaSMA
Num Peaks: 32
107.0112	7
121.02776	6
151.00177	91
163.00327	6
178.9978	49
179.99963	8
211.0361	6
226.02142	8
226.03078	10
227.03583	7
242.01733	15
243.02925	20
245.03986	6
254.02321	16
255.02765	148
256.03036	22
256.04272	6
257.03677	6
270.00836	16
271.02356	318
272.00906	8
272.02911	55
273.03284	15
283.02258	9
299.01758	12
300.02548	1000
301.03201	339
302.03217	77
303.03516	11
353.09036	6
463.08887	6
505.09033	20

NAME: 2',6'-Dihydroxy-4-methoxychalcone-4'-O-neohesperid
PRECURSORMZ: 593.18757934783
PRECURSORTYPE: [M-H]-
INSTRUMENTTYPE: LC-ESI-QTOF
SMILES: COC1=CC=C(C=CC(=O)C2=C(O)C=C(OC3OC(CO)C(O)C(O)C3OC3OC(C)C(O)C(O)C3O)C=C2O)C=C1
INCHIKEY: HWRDCYOHJBCWGW-UHFFFAOYNA-N
Ontology: Flavonoid O-glycosides
COLLISIONENERGY: 30
FORMULA: C28H34O14
RETENTIONTIME: 5.44105
IONMODE: Negative
Comment: registered in RIKEN PlaSMA
Num Peaks: 17
217.08855	6
218.09123	6
241.08192	10
241.0941	10
270.05438	8
285.07626	1000
286.07956	195
287.08212	19
309.07846	19
327.08258	47
327.0986	11
328.08151	10
429.12036	7
473.13873	29
474.14871	10
475.15991	5
593.18713	52

NAME: Biochanin A
PRECURSORMZ: 283.06119704783
PRECURSORTYPE: [M-H]-
INSTRUMENTTYPE: LC-ESI-QTOF
SMILES: COC1=CC=C(C=C1)C1=COC2=CC(O)=CC(O)=C2C1=O
INCHIKEY: WUADCCWRTIWANL-UHFFFAOYSA-N
Ontology: 4'-O-methylisoflavones
COLLISIONENERGY: 30
FORMULA: C16H12O5
RETENTIONTIME: 7.614033
IONMODE: Negative
Comment: registered in RIKEN PlaSMA
Num Peaks: 76
83.01138	11
91.01859	31
104.02731	21
107.01001	26
117.03162	8
120.01802	5
130.03268	6
132.02061	345
133.02417	28
134.02156	9
134.03569	32
135.00838	97
141.03409	6
142.04024	36
143.04842	10
147.00464	9
147.01253	7
150.99445	7
151.00313	12
152.00403	5
154.03932	44
155.04736	33
156.05391	12
158.03786	12
165.04039	5
166.0417	12
167.04898	105
168.0544	35
170.03964	15
171.04274	11
172.04817	10
178.0378	18
179.03651	8
179.04887	19
180.05357	27
183.04358	63
184.04286	19
184.0506	80
185.05618	9
194.04085	7
195.04462	216
196.05029	105
197.02875	5
198.03094	40
199.03824	12
199.04732	5
200.04095	18
207.1044	6
211.03908	765
212.0172	8
212.03693	76
212.04544	138
213.05086	20
214.05969	6
222.03981	6
223.03979	289
224.04521	186
225.0192	11
225.04567	9
225.05759	7
226.02315	56
226.03143	65
226.05086	7
227.02724	29
239.03412	972
240.0396	287
241.04477	54
243.0453	7
250.0295	10
251.0408	7
267.02933	1000
268.0351	908
269.03241	67
269.04535	51
270.03903	22
270.04849	8

NAME: Quercetin-3-O-rhamnoside
PRECURSORMZ: 447.09328504783
PRECURSORTYPE: [M-H]-
INSTRUMENTTYPE: LC-ESI-QTOF
SMILES: CC1OC(OC2=C(OC3=CC(O)=CC(O)=C3C2=O)C2=CC(O)=C(O)C=C2)C(O)C(O)C1O
INCHIKEY: OXGUCUVFOIWWQJ-UHFFFAOYNA-N
Ontology: Flavonoid-3-O-glycosides
COLLISIONENERGY: 50
FORMULA: C21H20O11
RETENTIONTIME: 4.3614
IONMODE: Negative
Comment: registered in RIKEN PlaSMA
Num Peaks: 167
63.02497	17
64.02645	13
69.99991	10
77.04284	10
79.01602	8
80.02147	14
81.03622	12
83.00935	8
83.01562	22
84.01701	10
91.00867	10
93.03645	22
107.01117	112
108.02026	119
109.02872	110
110.02523	10
115.05253	7
116.33234	14
117.03596	11
119.01009	25
119.01711	29
120.02736	11
121.02824	67
122.02374	9
122.03516	7
124.01102	10
127.05943	12
129.03125	34
129.84062	19
131.04594	7
131.31268	8
134.04028	8
135.00218	14
135.01021	42
136.02042	8
137.02324	17
139.04713	11
139.05634	22
143.04878	73
145.02574	63
146.033	9
147.01289	16
148.01392	126
149.02255	8
151.0011	128
151.12267	10
152.00682	10
152.01619	8
154.04396	8
154.54013	8
155.04243	13
155.05383	34
157.02682	45
158.0312	17
159.0462	48
160.0128	8
160.0486	10
161.05005	9
162.02312	14
163.00322	68
164.00688	17
164.0186	27
165.028	12
166.02507	12
167.04552	12
167.25067	14
168.05214	7
169.02745	18
171.04115	40
172.05347	7
173.01776	14
173.03291	12
174.0229	9
175.04068	38
176.01277	8
176.03773	19
176.04771	13
178.04984	9
179.00244	9
182.03195	16
182.04131	51
183.03932	71
183.05556	7
184.03465	10
184.04715	7
185.02231	55
185.05161	9
187.03946	131
188.04169	16
190.033	8
191.00009	10
191.9899	9
193.01297	12
195.03618	14
195.20215	7
197.02354	20
198.02747	35
198.0385	6
199.04059	167
199.06421	9
200.04077	34
200.93011	12
201.02101	87
201.05634	30
202.02599	36
202.03568	14
203.0386	90
207.77191	8
210.02672	63
211.04021	102
211.05278	15
212.02037	10
212.04932	26
212.50905	10
213.01234	16
215.03415	130
216.03549	44
217.04877	8
225.03641	11
226.02165	57
226.03049	17
227.01331	8
227.03407	327
228.03133	27
228.04431	22
229.01726	52
229.05342	7
230.01137	16
230.02679	8
231.53908	8
232.03285	14
237.38718	12
237.39725	8
241.02333	12
242.01723	36
242.02994	18
243.02959	491
243.53461	10
244.0307	98
245.0417	31
246.03271	8
248.43501	10
253.01625	18
253.81453	8
254.0238	26
254.03276	16
255.02882	381
255.047	38
256.03372	126
257.03348	34
258.59891	9
268.4935	7
270.00366	11
270.0134	10
271.02393	1000
272.01578	38
272.02509	109
272.03757	44
273.021	12
273.03125	19
274.03162	10
282.01318	18
283.02405	8
298.99902	7
299.0126	36
347.8223	10
420.28488	8

NAME: Quercetin-3-O-glucosyl-6''-acetate
PRECURSORMZ: 505.09876434783
PRECURSORTYPE: [M-H]-
INSTRUMENTTYPE: LC-ESI-QTOF
SMILES: CC(=O)OCC1OC(OC2=C(OC3=CC(O)=CC(O)=C3C2=O)C2=CC(O)=C(O)C=C2)C(O)C(O)C1O
INCHIKEY: IGLUNMMNDNWZOA-UHFFFAOYNA-N
Ontology: Flavonoid-3-O-glycosides
COLLISIONENERGY: 50
FORMULA: C23H22O13
RETENTIONTIME: 4.4452
IONMODE: Negative
Comment: registered in RIKEN PlaSMA
Num Peaks: 75
63.02394	14
83.01151	6
91.02335	7
107.01192	32
108.01828	11
109.02652	10
119.01674	7
121.02641	8
121.03163	8
135.00568	27
136.01505	7
143.04948	6
148.01349	17
149.0089	6
149.02405	17
149.99583	5
151.00281	80
151.99956	10
155.05109	13
159.04654	7
161.01888	8
162.0284	7
163.00261	10
164.00975	15
165.01688	9
167.0506	8
171.04381	30
173.05981	14
175.03677	10
179.00134	15
182.03233	5
183.04256	22
184.05573	10
187.03767	17
188.04042	8
197.02498	9
198.03073	39
199.03761	54
199.79199	5
200.04541	11
201.02005	12
202.01485	8
202.02159	8
203.03465	12
203.04199	5
210.03093	13
211.04192	43
212.04425	7
213.01201	7
213.02025	6
215.03084	28
215.04247	9
225.00966	6
226.02007	29
227.02264	15
227.03284	81
228.0361	20
228.04912	6
229.01064	23
229.02637	6
241.01399	28
242.00603	5
243.02824	307
243.45915	6
244.0327	66
245.03812	21
254.02197	13
255.02866	415
256.02856	55
271.02383	1000
272.0289	165
273.02502	24
299.01294	8
300.02713	27
301.03223	6

NAME: 2',6'-Dihydroxy-4-methoxychalcone-4'-O-neohesperid
PRECURSORMZ: 593.18757934783
PRECURSORTYPE: [M-H]-
INSTRUMENTTYPE: LC-ESI-QTOF
SMILES: COC1=CC=C(C=CC(=O)C2=C(O)C=C(OC3OC(CO)C(O)C(O)C3OC3OC(C)C(O)C(O)C3O)C=C2O)C=C1
INCHIKEY: HWRDCYOHJBCWGW-UHFFFAOYNA-N
Ontology: Flavonoid O-glycosides
COLLISIONENERGY: 50
FORMULA: C28H34O14
RETENTIONTIME: 5.44105
IONMODE: Negative
Comment: registered in RIKEN PlaSMA
Num Peaks: 138
65.00157	14
67.01669	6
79.01752	6
83.00852	12
83.01318	16
83.01866	26
87.04424	10
88.34859	7
94.00415	7
96.02139	6
105.72834	7
107.01168	110
108.01832	21
108.02569	47
109.02222	7
110.00393	7
110.8687	6
119.04746	47
122.00055	41
123.08688	7
124.01087	18
125.02504	21
125.03576	8
126.02911	6
133.02419	20
133.06274	8
136.01665	116
147.03809	10
151.00244	672
152.00755	30
153.4843	7
160.62128	7
164.01045	763
165.01514	127
170.07579	20
171.04053	8
171.07768	9
173.2674	7
174.07422	18
175.0036	7
175.07428	102
176.07968	16
177.01065	7
177.02118	21
177.72772	8
178.01611	17
182.06044	7
183.03998	10
184.05547	7
185.05562	17
186.03302	104
186.07103	7
187.03444	14
187.07962	6
188.00493	9
189.01054	7
189.99084	8
197.05524	61
198.06876	101
199.04008	11
199.063	7
199.07655	55
200.04272	15
200.05569	10
200.79874	6
201.05597	167
201.07184	7
201.34779	7
202.0573	30
202.06931	7
203.00172	19
203.07144	7
213.03964	8
213.08974	11
215.05171	12
215.07692	9
215.08557	7
217.08464	60
218.08714	15
218.10126	8
223.07713	9
225.0463	20
225.06194	16
226.05583	24
226.0658	77
227.03026	7
227.06812	63
228.04092	28
228.07269	27
228.58054	11
229.04456	7
241.03911	15
241.05185	39
241.08009	83
241.09154	155
242.05331	6
242.06488	14
242.08684	23
243.06163	59
243.07231	28
244.07123	18
245.06631	9
251.01842	11
253.04312	9
255.07166	15
256.06863	25
257.07358	16
265.09454	9
266.0589	12
269.04343	58
269.93729	7
270.05383	477
271.05719	48
272.05145	8
272.0643	7
277.91141	14
280.04626	8
283.05035	11
283.061	32
283.073	8
284.03714	9
284.0733	6
284.73328	8
284.90146	6
285.00226	9
285.07614	1000
285.47049	6
286.06464	13
286.08243	168
286.09827	25
287.07059	13
287.08987	26
288.0816	7
291.38925	6
298.07153	10
319.04999	10
328.09796	12
331.18073	6

NAME: Biochanin A
PRECURSORMZ: 283.06119704783
PRECURSORTYPE: [M-H]-
INSTRUMENTTYPE: LC-ESI-QTOF
SMILES: COC1=CC=C(C=C1)C1=COC2=CC(O)=CC(O)=C2C1=O
INCHIKEY: WUADCCWRTIWANL-UHFFFAOYSA-N
Ontology: 4'-O-methylisoflavones
COLLISIONENERGY: 50
FORMULA: C16H12O5
RETENTIONTIME: 7.614033
IONMODE: Negative
Comment: registered in RIKEN PlaSMA
Num Peaks: 87
63.02415	42
78.04041	20
79.02069	19
79.88261	20
81.26894	20
83.01004	24
91.01403	27
91.02113	28
92.0249	24
92.03138	35
103.02058	19
104.02583	338
104.15041	19
105.03227	52
107.01289	20
115.06364	35
117.0364	55
119.01429	20
121.02843	28
126.05392	38
127.05522	24
127.06063	36
129.06152	20
130.04382	22
132.0197	457
133.02274	34
133.0343	39
134.03583	21
134.04163	27
138.04613	21
139.052	72
139.05937	64
140.04179	35
141.03477	283
142.03487	18
143.04875	115
151.00369	31
152.02599	20
153.02704	95
154.0383	105
155.05008	227
157.02919	42
158.0282	25
166.04529	97
167.04951	1000
167.06543	25
167.17662	19
168.04907	150
169.02296	35
169.03102	86
170.04129	34
171.0069	19
171.0502	27
176.08217	39
178.04463	25
179.04584	53
181.03296	18
182.03845	422
183.02983	40
183.04317	397
183.19676	24
183.86259	27
184.04233	59
184.05698	83
185.05185	24
193.03299	22
195.03081	16
195.0428	194
195.04993	177
196.05273	33
196.06111	19
210.03227	254
210.46565	28
211.03963	840
212.04341	100
212.14178	61
222.03574	29
223.03517	23
223.04437	45
239.02823	50
239.03847	66
240.0262	18
240.03807	21
251.03046	45
267.02603	42
268.01898	20
268.04291	35

NAME: Syringetin-3-O-galactoside
PRECURSORMZ: 507.11441434783
PRECURSORTYPE: [M-H]-
INSTRUMENTTYPE: LC-ESI-QTOF
SMILES: COC1=CC(=CC(OC)=C1O)C1=C(OC2OC(CO)C(O)C(O)C2O)C(=O)C2=C(O)C=C(O)C=C2O1
INCHIKEY: JMFWYRWPJVEZPV-UHFFFAOYNA-N
Ontology: Flavonoid-3-O-glycosides
COLLISIONENERGY: 10
FORMULA: C23H24O13
RETENTIONTIME: 4.328283
IONMODE: Negative
Comment: registered in RIKEN PlaSMA
Num Peaks: 35
151.00108	28
153.01828	28
164.01353	32
214.01204	34
233.00081	35
241.00595	29
242.02168	26
243.02315	62
258.02353	97
269.00516	28
272.02725	38
273.02771	50
273.04276	156
274.0101	30
274.04587	30
286.01303	72
287.05179	30
288.06973	41
289.04739	29
301.0293	76
301.03885	30
301.08051	30
302.04419	57
315.04639	35
316.04709	26
316.05884	50
317.02307	26
330.00446	24
330.03513	26
344.04129	225
344.05557	237
345.05792	269
359.08612	54
479.13342	34
507.11612	1000

NAME: Luteolin-4'-O-glucoside
PRECURSORMZ: 447.09328504783
PRECURSORTYPE: [M-H]-
INSTRUMENTTYPE: LC-ESI-QTOF
SMILES: OCC1OC(OC2=C(O)C=C(C=C2)C2=CC(=O)C3=C(O)C=C(O)C=C3O2)C(O)C(O)C1O
INCHIKEY: UHNXUSWGOJMEFO-UHFFFAOYNA-N
Ontology: Flavonoid O-glycosides
COLLISIONENERGY: 10
FORMULA: C21H20O11
RETENTIONTIME: 4.467
IONMODE: Negative
Comment: registered in RIKEN PlaSMA
Num Peaks: 12
133.02777	22
150.99545	13
151.00806	9
175.03514	6
175.04335	11
199.0349	12
199.04468	6
241.0497	8
285.0387	1000
286.04202	177
287.04483	28
447.09167	148

NAME: Rosmarinic acid
PRECURSORMZ: 359.07724104783
PRECURSORTYPE: [M-H]-
INSTRUMENTTYPE: LC-ESI-QTOF
SMILES: OC(=O)C(CC1=CC(O)=C(O)C=C1)OC(=O)C=CC1=CC(O)=C(O)C=C1
INCHIKEY: DOUMFZQKYFQNTF-UHFFFAOYNA-N
Ontology: Coumaric acids and derivatives
COLLISIONENERGY: 10
FORMULA: C18H16O8
RETENTIONTIME: 4.6334
IONMODE: Negative
Comment: registered in RIKEN PlaSMA
Num Peaks: 23
77.03806	5
105.03082	8
115.25636	6
123.04233	42
133.02838	146
133.88724	6
135.02977	6
135.04446	91
135.05586	8
151.04095	13
159.05124	5
161.02284	1000
162.02579	85
163.02589	13
178.02466	9
179.03305	119
180.03793	20
197.04384	297
198.05106	21
223.02094	13
223.36389	5
357.08435	6
359.07562	155

NAME: isosakuranetin-7-O-neohesperidoside
PRECURSORMZ: 593.18757934783
PRECURSORTYPE: [M-H]-
INSTRUMENTTYPE: LC-ESI-QTOF
SMILES: COC1=CC=C(C=C1)C1CC(=O)C2=C(O)C=C(OC3OC(CO)C(O)C(O)C3OC3OC(C)C(O)C(O)C3O)C=C2O1
INCHIKEY: NLAWPKPYBMEWIR-UHFFFAOYNA-N
Ontology: Flavonoid-7-O-glycosides
COLLISIONENERGY: 10
FORMULA: C28H34O14
RETENTIONTIME: 5.421867
IONMODE: Negative
Comment: registered in RIKEN PlaSMA
Num Peaks: 23
151.00284	21
164.01111	12
175.07951	6
217.08449	13
241.04301	5
241.0818	30
256.07498	6
270.04529	14
270.05359	42
271.0611	10
285.07578	971
286.07947	183
287.07468	11
309.07773	18
310.07224	6
327.08102	22
327.0968	28
328.08066	6
387.09848	5
430.09836	5
473.12451	5
473.15082	27
593.18768	1000

NAME: isosakuranetin-7-O-neohesperidoside
PRECURSORMZ: 639.19305865183
PRECURSORTYPE: [M+FA-H]-
INSTRUMENTTYPE: LC-ESI-QTOF
SMILES: COC1=CC=C(C=C1)C1CC(=O)C2=C(O)C=C(OC3OC(CO)C(O)C(O)C3OC3OC(C)C(O)C(O)C3O)C=C2O1
INCHIKEY: NLAWPKPYBMEWIR-UHFFFAOYNA-N
Ontology: Flavonoid-7-O-glycosides
COLLISIONENERGY: 10
FORMULA: C28H34O14
RETENTIONTIME: 5.421867
IONMODE: Negative
Comment: registered in RIKEN PlaSMA
Num Peaks: 21
117.70683	6
163.05353	7
201.04628	5
241.08	15
272.83087	5
285.07623	431
286.07306	46
286.08365	59
287.07925	9
309.07526	10
327.086	37
473.13315	9
473.1478	19
474.14359	11
593.18738	1000
593.23383	7
594.19086	325
595.19794	71
596.19232	8
639.17578	9
639.20117	46

NAME: 4-Methoxycinnamic acid
PRECURSORMZ: 177.05571774783
PRECURSORTYPE: [M-H]-
INSTRUMENTTYPE: LC-ESI-QTOF
SMILES: COC1=CC=C(C=CC(O)=O)C=C1
INCHIKEY: AFDXODALSZRGIH-UHFFFAOYSA-N
Ontology: Cinnamic acids
COLLISIONENERGY: 10
FORMULA: C10H10O3
RETENTIONTIME: 5.855383
IONMODE: Negative
Comment: registered in RIKEN PlaSMA
Num Peaks: 9
117.03935	94
118.04337	101
119.04229	225
121.40156	94
133.06476	1000
134.06595	101
135.04306	94
177.05748	326
177.06448	86

NAME: Acacetin
PRECURSORMZ: 283.06119704783
PRECURSORTYPE: [M-H]-
INSTRUMENTTYPE: LC-ESI-QTOF
SMILES: COC1=CC=C(C=C1)C1=CC(=O)C2=C(O)C=C(O)C=C2O1
INCHIKEY: DANYIYRPLHHOCZ-UHFFFAOYSA-N
Ontology: 4'-O-methylated flavonoids
COLLISIONENERGY: 10
FORMULA: C16H12O5
RETENTIONTIME: 7.367567
IONMODE: Negative
Comment: registered in RIKEN PlaSMA
Num Peaks: 31
65.00103	5
94.00173	5
107.01241	17
107.01787	9
117.03681	9
148.01988	6
149.99226	6
151.00221	41
152.00526	7
167.05647	10
168.0507	6
171.04185	19
172.04973	10
183.0403	12
184.04729	8
195.04031	11
200.04761	12
210.03946	7
211.03944	50
211.04678	13
212.04276	11
239.03416	46
240.03963	63
241.04201	10
267.02213	10
267.03183	12
268.03674	1000
269.03848	155
270.03503	15
270.0466	11
283.05969	958

NAME: Syringetin-3-O-galactoside
PRECURSORMZ: 507.11441434783
PRECURSORTYPE: [M-H]-
INSTRUMENTTYPE: LC-ESI-QTOF
SMILES: COC1=CC(=CC(OC)=C1O)C1=C(OC2OC(CO)C(O)C(O)C2O)C(=O)C2=C(O)C=C(O)C=C2O1
INCHIKEY: JMFWYRWPJVEZPV-UHFFFAOYNA-N
Ontology: Flavonoid-3-O-glycosides
COLLISIONENERGY: 10
FORMULA: C23H24O13
RETENTIONTIME: 4.328283
IONMODE: Negative
Comment: registered in RIKEN PlaSMA
Num Peaks: 5
326.68314	15
345.05527	20
346.05875	11
507.1131	1000
507.14874	22

NAME: Luteolin-4'-O-glucoside
PRECURSORMZ: 447.09328504783
PRECURSORTYPE: [M-H]-
INSTRUMENTTYPE: LC-ESI-QTOF
SMILES: OCC1OC(OC2=C(O)C=C(C=C2)C2=CC(=O)C3=C(O)C=C(O)C=C3O2)C(O)C(O)C1O
INCHIKEY: UHNXUSWGOJMEFO-UHFFFAOYNA-N
Ontology: Flavonoid O-glycosides
COLLISIONENERGY: 10
FORMULA: C21H20O11
RETENTIONTIME: 4.467
IONMODE: Negative
Comment: registered in RIKEN PlaSMA
Num Peaks: 5
285.03882	1000
286.04187	178
287.03146	7
287.04169	26
447.0925	682

NAME: Rosmarinic acid
PRECURSORMZ: 359.07724104783
PRECURSORTYPE: [M-H]-
INSTRUMENTTYPE: LC-ESI-QTOF
SMILES: OC(=O)C(CC1=CC(O)=C(O)C=C1)OC(=O)C=CC1=CC(O)=C(O)C=C1
INCHIKEY: DOUMFZQKYFQNTF-UHFFFAOYNA-N
Ontology: Coumaric acids and derivatives
COLLISIONENERGY: 10
FORMULA: C18H16O8
RETENTIONTIME: 4.6334
IONMODE: Negative
Comment: registered in RIKEN PlaSMA
Num Peaks: 16
135.04552	9
161.02278	1000
162.02426	86
163.02711	14
178.0202	8
179.03212	54
179.03831	34
197.04449	281
198.04543	36
198.05159	14
199.04196	6
223.02295	14
224.02448	18
271.09976	5
318.06924	7
359.07703	666

NAME: isosakuranetin-7-O-neohesperidoside
PRECURSORMZ: 593.18757934783
PRECURSORTYPE: [M-H]-
INSTRUMENTTYPE: LC-ESI-QTOF
SMILES: COC1=CC=C(C=C1)C1CC(=O)C2=C(O)C=C(OC3OC(CO)C(O)C(O)C3OC3OC(C)C(O)C(O)C3O)C=C2O1
INCHIKEY: NLAWPKPYBMEWIR-UHFFFAOYNA-N
Ontology: Flavonoid-7-O-glycosides
COLLISIONENERGY: 10
FORMULA: C28H34O14
RETENTIONTIME: 5.421867
IONMODE: Negative
Comment: registered in RIKEN PlaSMA
Num Peaks: 2
285.07678	15
593.18866	1000

NAME: isosakuranetin-7-O-neohesperidoside
PRECURSORMZ: 639.19305865183
PRECURSORTYPE: [M+FA-H]-
INSTRUMENTTYPE: LC-ESI-QTOF
SMILES: COC1=CC=C(C=C1)C1CC(=O)C2=C(O)C=C(OC3OC(CO)C(O)C(O)C3OC3OC(C)C(O)C(O)C3O)C=C2O1
INCHIKEY: NLAWPKPYBMEWIR-UHFFFAOYNA-N
Ontology: Flavonoid-7-O-glycosides
COLLISIONENERGY: 10
FORMULA: C28H34O14
RETENTIONTIME: 5.421867
IONMODE: Negative
Comment: registered in RIKEN PlaSMA
Num Peaks: 9
305.60489	5
593.18805	1000
594.19031	317
595.16986	11
595.19635	79
596.18927	6
596.20453	7
597.18787	5
639.19775	148

NAME: 4-Methoxycinnamic acid
PRECURSORMZ: 177.05571774783
PRECURSORTYPE: [M-H]-
INSTRUMENTTYPE: LC-ESI-QTOF
SMILES: COC1=CC=C(C=CC(O)=O)C=C1
INCHIKEY: AFDXODALSZRGIH-UHFFFAOYSA-N
Ontology: Cinnamic acids
COLLISIONENERGY: 10
FORMULA: C10H10O3
RETENTIONTIME: 5.855383
IONMODE: Negative
Comment: registered in RIKEN PlaSMA
Num Peaks: 10
77.03671	26
117.03448	46
118.03674	26
133.06319	1000
134.06201	20
134.06943	93
135.07118	28
176.838	69
176.84717	34
177.05386	166

NAME: Acacetin
PRECURSORMZ: 283.06119704783
PRECURSORTYPE: [M-H]-
INSTRUMENTTYPE: LC-ESI-QTOF
SMILES: COC1=CC=C(C=C1)C1=CC(=O)C2=C(O)C=C(O)C=C2O1
INCHIKEY: DANYIYRPLHHOCZ-UHFFFAOYSA-N
Ontology: 4'-O-methylated flavonoids
COLLISIONENERGY: 10
FORMULA: C16H12O5
RETENTIONTIME: 7.367567
IONMODE: Negative
Comment: registered in RIKEN PlaSMA
Num Peaks: 3
268.03705	164
269.03952	27
283.05975	1000

NAME: Syringetin-3-O-galactoside
PRECURSORMZ: 507.11441434783
PRECURSORTYPE: [M-H]-
INSTRUMENTTYPE: LC-ESI-QTOF
SMILES: COC1=CC(=CC(OC)=C1O)C1=C(OC2OC(CO)C(O)C(O)C2O)C(=O)C2=C(O)C=C(O)C=C2O1
INCHIKEY: JMFWYRWPJVEZPV-UHFFFAOYNA-N
Ontology: Flavonoid-3-O-glycosides
COLLISIONENERGY: 30
FORMULA: C23H24O13
RETENTIONTIME: 4.328283
IONMODE: Negative
Comment: registered in RIKEN PlaSMA
Num Peaks: 36
137.02487	42
151.03241	66
152.20436	50
169.01921	54
194.0154	47
219.03284	90
234.04543	45
242.02684	139
243.02953	101
258.01306	47
258.02502	66
259.95074	45
269.00836	101
269.03314	75
270.01099	64
270.02386	64
271.02368	47
273.04166	642
274.04245	59
286.01471	130
287.04953	99
287.06662	47
288.05139	57
301.02634	531
314.01917	130
315.05643	120
316.02737	47
316.06497	179
317.06436	59
329.02997	200
330.01385	42
330.03989	123
343.03311	47
344.05402	1000
344.07352	54
345.06323	231

NAME: Luteolin-4'-O-glucoside
PRECURSORMZ: 447.09328504783
PRECURSORTYPE: [M-H]-
INSTRUMENTTYPE: LC-ESI-QTOF
SMILES: OCC1OC(OC2=C(O)C=C(C=C2)C2=CC(=O)C3=C(O)C=C(O)C=C3O2)C(O)C(O)C1O
INCHIKEY: UHNXUSWGOJMEFO-UHFFFAOYNA-N
Ontology: Flavonoid O-glycosides
COLLISIONENERGY: 30
FORMULA: C21H20O11
RETENTIONTIME: 4.467
IONMODE: Negative
Comment: registered in RIKEN PlaSMA
Num Peaks: 12
133.02386	16
133.0313	8
149.02177	8
151.00323	24
153.00848	5
175.03793	27
199.03525	10
217.04854	15
239.03099	5
285.03885	1000
286.04178	175
287.04517	30

NAME: Rosmarinic acid
PRECURSORMZ: 359.07724104783
PRECURSORTYPE: [M-H]-
INSTRUMENTTYPE: LC-ESI-QTOF
SMILES: OC(=O)C(CC1=CC(O)=C(O)C=C1)OC(=O)C=CC1=CC(O)=C(O)C=C1
INCHIKEY: DOUMFZQKYFQNTF-UHFFFAOYNA-N
Ontology: Coumaric acids and derivatives
COLLISIONENERGY: 30
FORMULA: C18H16O8
RETENTIONTIME: 4.6334
IONMODE: Negative
Comment: registered in RIKEN PlaSMA
Num Peaks: 47
62.89938	5
72.99168	47
72.9996	9
77.55309	11
82.0376	7
89.03502	5
95.05097	6
96.99276	9
106.03154	7
108.02008	7
109.02894	17
115.59412	6
121.02962	5
123.04354	151
124.04359	27
125.04687	6
131.05925	6
131.40189	6
132.01744	26
133.0269	482
134.03398	65
135.04373	416
135.06113	5
136.04758	71
138.03369	8
150.03159	9
151.03828	6
152.04622	5
153.05264	13
161.02252	1000
162.02498	105
162.03615	6
163.02686	18
163.0414	6
178.02475	9
179.03348	261
179.05968	5
179.06987	5
180.03484	49
181.03522	21
197.04527	55
198.05339	8
251.82614	5
254.05992	6
257.00778	5
269.00476	6
307.26816	11

NAME: isosakuranetin-7-O-neohesperidoside
PRECURSORMZ: 593.18757934783
PRECURSORTYPE: [M-H]-
INSTRUMENTTYPE: LC-ESI-QTOF
SMILES: COC1=CC=C(C=C1)C1CC(=O)C2=C(O)C=C(OC3OC(CO)C(O)C(O)C3OC3OC(C)C(O)C(O)C3O)C=C2O1
INCHIKEY: NLAWPKPYBMEWIR-UHFFFAOYNA-N
Ontology: Flavonoid-7-O-glycosides
COLLISIONENERGY: 30
FORMULA: C28H34O14
RETENTIONTIME: 5.421867
IONMODE: Negative
Comment: registered in RIKEN PlaSMA
Num Peaks: 19
115.03864	7
164.01022	9
217.09286	13
241.08704	23
270.04846	27
270.06012	9
281.07407	5
285.07562	1000
286.07809	213
287.0838	14
309.06512	6
309.07791	8
327.08441	44
339.08585	11
369.09247	6
473.13919	10
473.15973	6
593.18811	34
593.23016	5

NAME: isosakuranetin-7-O-neohesperidoside
PRECURSORMZ: 639.19305865183
PRECURSORTYPE: [M+FA-H]-
INSTRUMENTTYPE: LC-ESI-QTOF
SMILES: COC1=CC=C(C=C1)C1CC(=O)C2=C(O)C=C(OC3OC(CO)C(O)C(O)C3OC3OC(C)C(O)C(O)C3O)C=C2O1
INCHIKEY: NLAWPKPYBMEWIR-UHFFFAOYNA-N
Ontology: Flavonoid-7-O-glycosides
COLLISIONENERGY: 30
FORMULA: C28H34O14
RETENTIONTIME: 5.421867
IONMODE: Negative
Comment: registered in RIKEN PlaSMA
Num Peaks: 33
73.03142	5
101.02425	6
165.0195	5
209.5518	6
226.06145	10
244.07901	5
285.01578	8
285.07568	1000
286.07831	143
287.06992	14
287.08304	19
309.07062	18
309.08401	5
313.06482	5
327.08719	74
328.09143	21
330.09451	6
339.08408	5
340.08249	6
369.10486	5
381.09286	6
387.10056	12
387.11176	34
431.13321	5
448.14066	8
473.14026	70
474.15854	6
487.01895	8
526.15027	9
593.18829	439
594.19159	159
595.19592	41
597.18866	6

NAME: 4-Methoxycinnamic acid
PRECURSORMZ: 177.05571774783
PRECURSORTYPE: [M-H]-
INSTRUMENTTYPE: LC-ESI-QTOF
SMILES: COC1=CC=C(C=CC(O)=O)C=C1
INCHIKEY: AFDXODALSZRGIH-UHFFFAOYSA-N
Ontology: Cinnamic acids
COLLISIONENERGY: 30
FORMULA: C10H10O3
RETENTIONTIME: 5.855383
IONMODE: Negative
Comment: registered in RIKEN PlaSMA
Num Peaks: 2
117.03312	1000
177.05173	230

NAME: Acacetin
PRECURSORMZ: 283.06119704783
PRECURSORTYPE: [M-H]-
INSTRUMENTTYPE: LC-ESI-QTOF
SMILES: COC1=CC=C(C=C1)C1=CC(=O)C2=C(O)C=C(O)C=C2O1
INCHIKEY: DANYIYRPLHHOCZ-UHFFFAOYSA-N
Ontology: 4'-O-methylated flavonoids
COLLISIONENERGY: 30
FORMULA: C16H12O5
RETENTIONTIME: 7.367567
IONMODE: Negative
Comment: registered in RIKEN PlaSMA
Num Peaks: 54
63.02255	28
65.0055	7
83.01233	38
94.00354	6
107.01247	131
108.0134	13
108.01998	5
117.03251	7
120.02187	21
121.99694	10
147.00809	6
148.01199	9
148.01958	11
149.99396	36
151.00084	161
152.0015	11
156.0583	9
158.03328	14
158.04169	8
167.04312	11
167.05092	11
168.04729	6
168.05533	21
169.02588	6
169.0564	12
170.04115	6
171.04073	31
171.04826	20
172.04907	28
173.05147	12
183.04559	9
184.05113	40
195.04359	12
195.05113	10
196.04861	40
199.03452	12
199.04269	16
200.04532	38
201.04848	10
211.03889	199
212.03636	10
212.0491	53
213.05667	5
223.03885	11
239.03275	168
240.04167	221
241.03773	7
241.04778	18
267.0282	102
268.03632	1000
269.03925	160
270.02969	6
270.04391	17
283.06232	8

NAME: Syringetin-3-O-galactoside
PRECURSORMZ: 507.11441434783
PRECURSORTYPE: [M-H]-
INSTRUMENTTYPE: LC-ESI-QTOF
SMILES: COC1=CC(=CC(OC)=C1O)C1=C(OC2OC(CO)C(O)C(O)C2O)C(=O)C2=C(O)C=C(O)C=C2O1
INCHIKEY: JMFWYRWPJVEZPV-UHFFFAOYNA-N
Ontology: Flavonoid-3-O-glycosides
COLLISIONENERGY: 50
FORMULA: C23H24O13
RETENTIONTIME: 4.328283
IONMODE: Negative
Comment: registered in RIKEN PlaSMA
Num Peaks: 35
131.78754	66
147.01309	66
174.0174	84
174.032	146
186.9959	70
202.02362	157
202.03175	143
213.02792	63
217.0421	87
230.01151	98
230.03041	84
232.03081	84
240.98851	94
241.01601	321
242.02237	1000
243.02307	237
243.04208	63
257.0043	150
257.99948	73
258.01562	453
258.0314	66
259.01108	111
259.02115	73
270.00906	192
270.02652	63
272.03644	63
273.04156	115
279.31339	70
286.00272	150
286.01559	261
287.01059	125
287.03629	70
300.03064	118
301.0419	66
313.99493	73

NAME: Luteolin-4'-O-glucoside
PRECURSORMZ: 447.09328504783
PRECURSORTYPE: [M-H]-
INSTRUMENTTYPE: LC-ESI-QTOF
SMILES: OCC1OC(OC2=C(O)C=C(C=C2)C2=CC(=O)C3=C(O)C=C(O)C=C3O2)C(O)C(O)C1O
INCHIKEY: UHNXUSWGOJMEFO-UHFFFAOYNA-N
Ontology: Flavonoid O-glycosides
COLLISIONENERGY: 50
FORMULA: C21H20O11
RETENTIONTIME: 4.467
IONMODE: Negative
Comment: registered in RIKEN PlaSMA
Num Peaks: 96
65.00145	25
65.00631	6
81.0326	8
81.55293	6
83.01384	29
90.04692	6
105.03426	9
106.04485	7
107.01257	222
115.01641	9
121.02137	9
121.0276	26
121.03536	9
122.03536	11
127.05252	8
129.07159	8
131.04851	9
132.02005	64
133.02849	1000
134.0322	114
137.02104	6
142.04099	8
143.04163	9
143.05069	29
143.06367	9
145.02806	23
145.0656	14
147.04575	24
149.02454	133
150.02287	7
151.00218	334
152.00722	18
154.05276	8
157.79352	7
158.03554	9
159.05	9
169.01367	6
169.05984	20
170.04095	8
171.03389	15
171.04462	42
173.02408	9
174.01993	6
175.03616	109
175.04309	37
176.03593	7
176.04878	11
179.05731	13
182.03008	12
183.05086	7
187.04379	13
188.03421	7
189.04942	13
195.04123	6
197.02525	6
197.0526	11
197.06302	13
198.02872	25
198.03642	15
198.05667	9
198.07178	11
199.03136	38
199.03867	53
199.04741	55
200.00421	6
200.04176	33
200.05728	12
201.01709	99
213.0515	15
214.02472	11
214.05899	15
215.04085	19
217.0153	9
217.04996	74
223.02972	7
223.04654	21
226.02275	17
228.03082	7
228.04341	9
229.04047	6
230.022	13
231.07254	10
240.037	7
241.0526	30
243.0312	10
256.03595	7
257.03394	8
257.04349	8
267.0253	36
268.04434	6
284.03003	18
285.04025	303
286.03827	17
286.05212	6
286.58386	6
287.05688	7

NAME: Rosmarinic acid
PRECURSORMZ: 359.07724104783
PRECURSORTYPE: [M-H]-
INSTRUMENTTYPE: LC-ESI-QTOF
SMILES: OC(=O)C(CC1=CC(O)=C(O)C=C1)OC(=O)C=CC1=CC(O)=C(O)C=C1
INCHIKEY: DOUMFZQKYFQNTF-UHFFFAOYNA-N
Ontology: Coumaric acids and derivatives
COLLISIONENERGY: 50
FORMULA: C18H16O8
RETENTIONTIME: 4.6334
IONMODE: Negative
Comment: registered in RIKEN PlaSMA
Num Peaks: 34
63.02674	33
72.98653	20
74.00066	30
77.03669	31
77.04266	26
82.48656	20
89.0005	24
89.03522	21
91.04897	22
95.04946	43
105.03158	23
105.04334	20
105.05055	20
106.04005	21
117.02716	22
122.03291	22
122.04083	28
123.04243	219
123.05341	24
132.01772	138
132.02313	109
133.02823	1000
134.00299	20
134.03271	334
135.03751	130
135.04538	364
136.04948	22
143.01291	30
150.03354	28
151.03123	29
151.0386	53
161.01373	33
161.02467	209
221.05685	20

NAME: isosakuranetin-7-O-neohesperidoside
PRECURSORMZ: 593.18757934783
PRECURSORTYPE: [M-H]-
INSTRUMENTTYPE: LC-ESI-QTOF
SMILES: COC1=CC=C(C=C1)C1CC(=O)C2=C(O)C=C(OC3OC(CO)C(O)C(O)C3OC3OC(C)C(O)C(O)C3O)C=C2O1
INCHIKEY: NLAWPKPYBMEWIR-UHFFFAOYNA-N
Ontology: Flavonoid-7-O-glycosides
COLLISIONENERGY: 50
FORMULA: C28H34O14
RETENTIONTIME: 5.421867
IONMODE: Negative
Comment: registered in RIKEN PlaSMA
Num Peaks: 151
63.02208	12
64.99703	10
65.00465	8
66.00523	8
83.00913	28
87.0433	10
106.04423	8
107.01189	121
108.0151	7
108.02024	13
108.98811	13
109.0215	7
119.04426	10
119.04977	10
119.05678	14
120.02293	8
121.99688	8
122.00587	10
125.01793	48
125.3309	7
133.02777	8
135.00832	21
136.01395	78
137.01755	20
142.04791	7
145.03337	11
149.02385	17
150.00563	10
151.00224	675
151.02095	11
151.99863	21
152.00658	59
152.99409	7
160.01744	13
160.05391	8
162.993	8
162.99898	10
163.00752	8
163.03889	10
164.01068	709
165.00902	65
165.01944	31
165.35146	8
165.35995	7
166.01407	10
169.06738	10
172.05278	9
172.0592	10
173.05846	7
175.00398	7
175.06892	37
175.07597	105
176.01346	8
176.08501	12
177.00713	20
177.01505	63
181.06566	7
182.07117	9
182.07915	10
183.0435	19
183.0634	8
185.04681	10
186.03348	69
186.06166	11
187.03262	8
187.04089	16
189.40735	8
193.00989	8
197.05954	59
197.09787	19
198.03259	7
198.06674	106
199.04219	8
199.07439	57
200.04225	13
200.07935	8
201.036	7
201.05626	104
202.04851	8
202.05841	36
203.02824	9
203.06328	16
205.0181	9
211.03789	28
213.08694	14
213.09659	8
213.33105	9
214.06253	10
215.0327	8
217.08403	59
217.09555	26
218.017	10
218.07677	10
218.08884	16
218.46289	8
219.02403	11
219.08821	12
224.04616	8
225.04335	12
225.05994	10
226.05376	44
226.06151	143
226.18169	14
227.02467	12
227.0605	8
227.07083	32
227.845	8
228.03912	23
228.04765	16
237.05862	9
239.02931	8
241.04971	95
241.06798	32
241.08458	215
242.06009	8
242.08305	36
242.09479	18
243.0563	120
243.06865	93
243.08661	7
245.05315	7
253.04845	7
255.05721	21
255.07031	8
257.07742	8
257.08923	8
269.04105	34
269.07556	18
270.05219	391
271.04303	8
271.05997	58
272.06363	8
277.15533	10
280.04095	12
283.04984	19
283.06311	11
284.06204	10
284.19687	9
285.07477	1000
286.07855	176
286.1041	12
287.06674	14
287.08142	35
294.06024	13
296.05884	9
309.08231	8
310.086	8
312.06247	13
327.08231	8
411.98712	14
565.09589	8

NAME: isosakuranetin-7-O-neohesperidoside
PRECURSORMZ: 639.19305865183
PRECURSORTYPE: [M+FA-H]-
INSTRUMENTTYPE: LC-ESI-QTOF
SMILES: COC1=CC=C(C=C1)C1CC(=O)C2=C(O)C=C(OC3OC(CO)C(O)C(O)C3OC3OC(C)C(O)C(O)C3O)C=C2O1
INCHIKEY: NLAWPKPYBMEWIR-UHFFFAOYNA-N
Ontology: Flavonoid-7-O-glycosides
COLLISIONENERGY: 50
FORMULA: C28H34O14
RETENTIONTIME: 5.421867
IONMODE: Negative
Comment: registered in RIKEN PlaSMA
Num Peaks: 90
71.00992	9
81.02943	9
83.01561	7
89.01778	14
104.94524	13
107.00832	7
107.01356	9
124.01558	7
125.01996	19
130.03833	10
133.02942	13
134.02963	7
136.01527	21
136.02257	7
149.02495	23
151.00128	101
151.00883	27
152.00439	33
153.01942	7
164.00975	208
165.0078	7
165.01671	25
166.01465	11
170.0753	8
171.04343	8
173.05452	10
175.07167	17
175.50139	8
176.08128	10
178.01363	7
182.0726	8
182.07794	20
184.04385	9
184.05138	29
186.02255	8
186.03264	28
186.07419	12
193.00906	11
197.85976	7
198.06404	16
198.07292	7
199.07182	24
199.08391	7
200.06804	8
201.04327	7
201.05592	29
202.05281	9
202.07217	7
203.078	19
208.04361	13
215.06549	11
215.38773	11
217.01376	8
217.08327	9
217.09453	12
223.07208	9
225.06113	16
226.06033	49
227.02557	13
227.06784	14
229.01233	10
229.0403	7
241.04529	8
241.08571	56
242.08099	9
243.06557	41
244.062	17
254.05914	26
255.10295	7
256.07202	12
257.07471	9
267.17853	9
269.02994	9
269.03885	9
270.05032	130
270.05817	50
271.05417	34
271.07397	14
281.06653	11
283.0498	9
283.05948	21
285.07507	1000
286.07086	83
286.08206	119
287.08051	16
288.08411	7
294.05313	8
309.07675	8
312.85489	7
327.08649	21

NAME: 4-Methoxycinnamic acid
PRECURSORMZ: 177.05571774783
PRECURSORTYPE: [M-H]-
INSTRUMENTTYPE: LC-ESI-QTOF
SMILES: COC1=CC=C(C=CC(O)=O)C=C1
INCHIKEY: AFDXODALSZRGIH-UHFFFAOYSA-N
Ontology: Cinnamic acids
COLLISIONENERGY: 50
FORMULA: C10H10O3
RETENTIONTIME: 5.855383
IONMODE: Negative
Comment: registered in RIKEN PlaSMA
Num Peaks: 2
92.03304	633
117.03542	1000

NAME: Acacetin
PRECURSORMZ: 283.06119704783
PRECURSORTYPE: [M-H]-
INSTRUMENTTYPE: LC-ESI-QTOF
SMILES: COC1=CC=C(C=C1)C1=CC(=O)C2=C(O)C=C(O)C=C2O1
INCHIKEY: DANYIYRPLHHOCZ-UHFFFAOYSA-N
Ontology: 4'-O-methylated flavonoids
COLLISIONENERGY: 50
FORMULA: C16H12O5
RETENTIONTIME: 7.367567
IONMODE: Negative
Comment: registered in RIKEN PlaSMA
Num Peaks: 52
63.02234	465
65.00413	201
83.01192	68
84.01922	84
91.0192	84
94.00174	125
99.52747	71
102.75432	60
106.00156	49
107.012	168
116.0259	291
117.03296	848
117.04158	220
119.01435	68
127.05471	52
130.03915	54
131.04948	49
132.01382	57
135.01122	62
138.04837	90
139.05199	68
141.02499	71
141.03612	65
143.04163	54
150.99651	49
151.00334	65
154.03632	73
154.04066	185
155.04224	188
155.05687	49
156.05534	65
157.0377	54
165.03505	130
166.04105	79
167.0412	160
167.05095	323
168.04884	49
168.05751	57
172.04938	98
182.02702	52
182.04161	473
183.04303	851
184.04759	198
186.04001	49
198.0309	62
200.04472	68
210.02716	79
211.04105	1000
212.04451	117
212.05708	60
239.02742	114
268.03452	95

NAME: Syringetin-3-O-galactoside
PRECURSORMZ: 507.11441434783
PRECURSORTYPE: [M-H]-
INSTRUMENTTYPE: LC-ESI-QTOF
SMILES: COC1=CC(=CC(OC)=C1O)C1=C(OC2OC(CO)C(O)C(O)C2O)C(=O)C2=C(O)C=C(O)C=C2O1
INCHIKEY: JMFWYRWPJVEZPV-UHFFFAOYNA-N
Ontology: Flavonoid-3-O-glycosides
COLLISIONENERGY: 10
FORMULA: C23H24O13
RETENTIONTIME: 4.328283
IONMODE: Negative
Comment: registered in RIKEN PlaSMA
Num Peaks: 42
125.02258	28
222.08426	20
240.07263	24
241.01778	27
242.01891	25
242.03877	27
258.00296	25
258.02252	86
269.00055	24
269.01407	20
270.00018	23
271.02499	50
273.03134	28
273.04752	23
275.04507	34
277.07101	20
278.9198	32
285.99942	32
286.01074	85
287.00803	46
287.05402	28
301.02451	58
301.03363	123
301.05167	23
301.77713	28
302.03394	22
314.01559	25
315.05667	49
330.03223	49
330.04279	57
343.05194	24
344.02817	23
344.05301	539
345.03909	26
345.0636	108
346.04822	22
346.07123	32
347.04691	24
359.07895	20
388.08179	23
507.11499	1000
507.16058	30

NAME: Luteolin-4'-O-glucoside
PRECURSORMZ: 447.09328504783
PRECURSORTYPE: [M-H]-
INSTRUMENTTYPE: LC-ESI-QTOF
SMILES: OCC1OC(OC2=C(O)C=C(C=C2)C2=CC(=O)C3=C(O)C=C(O)C=C3O2)C(O)C(O)C1O
INCHIKEY: UHNXUSWGOJMEFO-UHFFFAOYNA-N
Ontology: Flavonoid O-glycosides
COLLISIONENERGY: 10
FORMULA: C21H20O11
RETENTIONTIME: 4.467
IONMODE: Negative
Comment: registered in RIKEN PlaSMA
Num Peaks: 10
133.03047	9
151.00542	11
175.03918	10
199.03485	13
200.03973	7
241.048	11
285.03925	1000
286.04169	206
287.04224	38
447.0914	111

NAME: Rosmarinic acid
PRECURSORMZ: 359.07724104783
PRECURSORTYPE: [M-H]-
INSTRUMENTTYPE: LC-ESI-QTOF
SMILES: OC(=O)C(CC1=CC(O)=C(O)C=C1)OC(=O)C=CC1=CC(O)=C(O)C=C1
INCHIKEY: DOUMFZQKYFQNTF-UHFFFAOYNA-N
Ontology: Coumaric acids and derivatives
COLLISIONENERGY: 10
FORMULA: C18H16O8
RETENTIONTIME: 4.6334
IONMODE: Negative
Comment: registered in RIKEN PlaSMA
Num Peaks: 21
72.98974	22
108.02027	9
123.04415	59
124.04554	9
133.02907	71
135.04285	126
136.04962	9
136.0567	6
151.03889	6
161.02307	1000
162.02455	66
163.02675	18
179.03252	129
180.04073	17
197.04399	308
198.04286	10
223.02477	14
236.02573	5
333.05234	8
358.04889	5
359.07446	147

NAME: isosakuranetin-7-O-neohesperidoside
PRECURSORMZ: 593.18757934783
PRECURSORTYPE: [M-H]-
INSTRUMENTTYPE: LC-ESI-QTOF
SMILES: COC1=CC=C(C=C1)C1CC(=O)C2=C(O)C=C(OC3OC(CO)C(O)C(O)C3OC3OC(C)C(O)C(O)C3O)C=C2O1
INCHIKEY: NLAWPKPYBMEWIR-UHFFFAOYNA-N
Ontology: Flavonoid-7-O-glycosides
COLLISIONENERGY: 10
FORMULA: C28H34O14
RETENTIONTIME: 5.421867
IONMODE: Negative
Comment: registered in RIKEN PlaSMA
Num Peaks: 27
150.99132	7
151.00092	6
164.01146	43
202.05997	13
217.08221	17
227.06601	5
241.08994	24
243.06267	11
243.07295	8
244.09435	6
255.05865	6
255.06749	6
270.04037	6
270.05484	31
285.07541	827
286.07941	200
287.08548	13
309.07272	8
327.09045	38
327.10809	6
328.08585	8
369.09521	5
387.11801	6
429.10986	7
473.14142	42
474.14813	8
593.18781	1000

NAME: isosakuranetin-7-O-neohesperidoside
PRECURSORMZ: 639.19305865183
PRECURSORTYPE: [M+FA-H]-
INSTRUMENTTYPE: LC-ESI-QTOF
SMILES: COC1=CC=C(C=C1)C1CC(=O)C2=C(O)C=C(OC3OC(CO)C(O)C(O)C3OC3OC(C)C(O)C(O)C3O)C=C2O1
INCHIKEY: NLAWPKPYBMEWIR-UHFFFAOYNA-N
Ontology: Flavonoid-7-O-glycosides
COLLISIONENERGY: 10
FORMULA: C28H34O14
RETENTIONTIME: 5.421867
IONMODE: Negative
Comment: registered in RIKEN PlaSMA
Num Peaks: 36
151.00478	6
176.07431	6
213.05629	6
225.61067	5
226.07059	5
241.08798	10
243.07187	6
269.03815	6
270.04794	27
285.07629	576
285.28909	6
286.08087	109
286.09897	7
287.07709	7
327.0769	22
327.22485	6
328.08371	7
339.08551	6
340.10059	5
362.34161	7
372.08469	5
387.10367	16
473.14685	27
475.14386	8
478.66574	7
593.10236	5
593.18628	1000
593.23785	9
594.18939	355
595.16956	5
595.19653	52
596.18268	14
597.19568	11
639.17523	15
639.19611	22
639.21313	14

NAME: 4-Methoxycinnamic acid
PRECURSORMZ: 177.05571774783
PRECURSORTYPE: [M-H]-
INSTRUMENTTYPE: LC-ESI-QTOF
SMILES: COC1=CC=C(C=CC(O)=O)C=C1
INCHIKEY: AFDXODALSZRGIH-UHFFFAOYSA-N
Ontology: Cinnamic acids
COLLISIONENERGY: 10
FORMULA: C10H10O3
RETENTIONTIME: 5.855383
IONMODE: Negative
Comment: registered in RIKEN PlaSMA
Num Peaks: 7
108.04899	71
117.03421	325
117.93323	66
117.9967	55
133.06476	1000
176.83725	121
177.05338	309

NAME: Acacetin
PRECURSORMZ: 283.06119704783
PRECURSORTYPE: [M-H]-
INSTRUMENTTYPE: LC-ESI-QTOF
SMILES: COC1=CC=C(C=C1)C1=CC(=O)C2=C(O)C=C(O)C=C2O1
INCHIKEY: DANYIYRPLHHOCZ-UHFFFAOYSA-N
Ontology: 4'-O-methylated flavonoids
COLLISIONENERGY: 10
FORMULA: C16H12O5
RETENTIONTIME: 7.367567
IONMODE: Negative
Comment: registered in RIKEN PlaSMA
Num Peaks: 33
63.023	7
65.00209	8
83.01379	6
107.01163	20
117.0346	8
148.01324	5
149.99352	9
151.00108	47
167.05356	9
168.05476	13
171.04173	16
172.05006	16
183.04512	18
195.03902	9
195.05052	13
196.05833	9
199.03461	6
200.04382	9
210.03188	5
211.03902	62
212.04276	27
224.04987	5
239.03258	41
240.03337	22
240.0435	45
241.04012	12
267.02908	18
268.03641	1000
268.06003	5
269.03973	196
270.03156	6
270.04568	23
283.05936	813

NAME: Syringetin-3-O-galactoside
PRECURSORMZ: 507.11441434783
PRECURSORTYPE: [M-H]-
INSTRUMENTTYPE: LC-ESI-QTOF
SMILES: COC1=CC(=CC(OC)=C1O)C1=C(OC2OC(CO)C(O)C(O)C2O)C(=O)C2=C(O)C=C(O)C=C2O1
INCHIKEY: JMFWYRWPJVEZPV-UHFFFAOYNA-N
Ontology: Flavonoid-3-O-glycosides
COLLISIONENERGY: 10
FORMULA: C23H24O13
RETENTIONTIME: 4.328283
IONMODE: Negative
Comment: registered in RIKEN PlaSMA
Num Peaks: 9
127.82155	11
150.99657	10
151.5817	10
240.36787	16
270.26611	11
344.0564	13
345.05338	27
507.11383	1000
507.15396	17

NAME: Luteolin-4'-O-glucoside
PRECURSORMZ: 447.09328504783
PRECURSORTYPE: [M-H]-
INSTRUMENTTYPE: LC-ESI-QTOF
SMILES: OCC1OC(OC2=C(O)C=C(C=C2)C2=CC(=O)C3=C(O)C=C(O)C=C3O2)C(O)C(O)C1O
INCHIKEY: UHNXUSWGOJMEFO-UHFFFAOYNA-N
Ontology: Flavonoid O-glycosides
COLLISIONENERGY: 10
FORMULA: C21H20O11
RETENTIONTIME: 4.467
IONMODE: Negative
Comment: registered in RIKEN PlaSMA
Num Peaks: 5
195.93051	5
285.0387	1000
286.04291	174
287.04672	18
447.09094	611

NAME: Rosmarinic acid
PRECURSORMZ: 359.07724104783
PRECURSORTYPE: [M-H]-
INSTRUMENTTYPE: LC-ESI-QTOF
SMILES: OC(=O)C(CC1=CC(O)=C(O)C=C1)OC(=O)C=CC1=CC(O)=C(O)C=C1
INCHIKEY: DOUMFZQKYFQNTF-UHFFFAOYNA-N
Ontology: Coumaric acids and derivatives
COLLISIONENERGY: 10
FORMULA: C18H16O8
RETENTIONTIME: 4.6334
IONMODE: Negative
Comment: registered in RIKEN PlaSMA
Num Peaks: 17
135.04372	7
144.97418	10
152.04013	9
161.02188	1000
162.02663	93
163.03172	10
179.03258	89
197.0433	316
198.04233	14
198.05125	19
199.04729	7
223.02176	14
298.08478	8
314.07388	9
357.06223	8
358.0658	6
359.07608	689

NAME: isosakuranetin-7-O-neohesperidoside
PRECURSORMZ: 593.18757934783
PRECURSORTYPE: [M-H]-
INSTRUMENTTYPE: LC-ESI-QTOF
SMILES: COC1=CC=C(C=C1)C1CC(=O)C2=C(O)C=C(OC3OC(CO)C(O)C(O)C3OC3OC(C)C(O)C(O)C3O)C=C2O1
INCHIKEY: NLAWPKPYBMEWIR-UHFFFAOYNA-N
Ontology: Flavonoid-7-O-glycosides
COLLISIONENERGY: 10
FORMULA: C28H34O14
RETENTIONTIME: 5.421867
IONMODE: Negative
Comment: registered in RIKEN PlaSMA
Num Peaks: 2
285.07663	13
593.18646	1000

NAME: 4-Methoxycinnamic acid
PRECURSORMZ: 177.05571774783
PRECURSORTYPE: [M-H]-
INSTRUMENTTYPE: LC-ESI-QTOF
SMILES: COC1=CC=C(C=CC(O)=O)C=C1
INCHIKEY: AFDXODALSZRGIH-UHFFFAOYSA-N
Ontology: Cinnamic acids
COLLISIONENERGY: 10
FORMULA: C10H10O3
RETENTIONTIME: 5.855383
IONMODE: Negative
Comment: registered in RIKEN PlaSMA
Num Peaks: 8
115.05637	15
117.03601	36
118.03783	13
118.04358	17
119.0464	21
133.06409	1000
134.06897	15
177.05426	353

NAME: Acacetin
PRECURSORMZ: 283.06119704783
PRECURSORTYPE: [M-H]-
INSTRUMENTTYPE: LC-ESI-QTOF
SMILES: COC1=CC=C(C=C1)C1=CC(=O)C2=C(O)C=C(O)C=C2O1
INCHIKEY: DANYIYRPLHHOCZ-UHFFFAOYSA-N
Ontology: 4'-O-methylated flavonoids
COLLISIONENERGY: 10
FORMULA: C16H12O5
RETENTIONTIME: 7.367567
IONMODE: Negative
Comment: registered in RIKEN PlaSMA
Num Peaks: 3
268.03491	166
269.03928	32
283.05914	1000

NAME: Syringetin-3-O-galactoside
PRECURSORMZ: 507.11441434783
PRECURSORTYPE: [M-H]-
INSTRUMENTTYPE: LC-ESI-QTOF
SMILES: COC1=CC(=CC(OC)=C1O)C1=C(OC2OC(CO)C(O)C(O)C2O)C(=O)C2=C(O)C=C(O)C=C2O1
INCHIKEY: JMFWYRWPJVEZPV-UHFFFAOYNA-N
Ontology: Flavonoid-3-O-glycosides
COLLISIONENERGY: 30
FORMULA: C23H24O13
RETENTIONTIME: 4.328283
IONMODE: Negative
Comment: registered in RIKEN PlaSMA
Num Peaks: 32
150.99353	39
152.00194	52
179.19725	35
180.00955	46
242.02191	104
257.04007	44
258.00604	37
258.01865	176
268.00671	44
269.00259	100
270.01367	80
273.0343	402
274.04001	72
274.04855	83
286.01208	61
286.04431	43
287.05573	89
301.02771	176
301.04053	156
301.05106	59
302.03607	70
315.06122	33
316.02628	72
316.05722	259
317.05017	35
328.06152	50
329.03769	104
329.05008	61
330.0296	91
344.05286	1000
345.05383	124
507.1044	61

NAME: Luteolin-4'-O-glucoside
PRECURSORMZ: 447.09328504783
PRECURSORTYPE: [M-H]-
INSTRUMENTTYPE: LC-ESI-QTOF
SMILES: OCC1OC(OC2=C(O)C=C(C=C2)C2=CC(=O)C3=C(O)C=C(O)C=C3O2)C(O)C(O)C1O
INCHIKEY: UHNXUSWGOJMEFO-UHFFFAOYNA-N
Ontology: Flavonoid O-glycosides
COLLISIONENERGY: 30
FORMULA: C21H20O11
RETENTIONTIME: 4.467
IONMODE: Negative
Comment: registered in RIKEN PlaSMA
Num Peaks: 14
133.03046	14
150.9987	12
151.00638	22
171.04393	5
175.03819	21
199.03735	9
217.04515	8
217.05785	6
241.05206	17
243.02191	8
257.04507	7
285.03897	1000
286.04236	165
287.03976	32

NAME: Rosmarinic acid
PRECURSORMZ: 359.07724104783
PRECURSORTYPE: [M-H]-
INSTRUMENTTYPE: LC-ESI-QTOF
SMILES: OC(=O)C(CC1=CC(O)=C(O)C=C1)OC(=O)C=CC1=CC(O)=C(O)C=C1
INCHIKEY: DOUMFZQKYFQNTF-UHFFFAOYNA-N
Ontology: Coumaric acids and derivatives
COLLISIONENERGY: 30
FORMULA: C18H16O8
RETENTIONTIME: 4.6334
IONMODE: Negative
Comment: registered in RIKEN PlaSMA
Num Peaks: 25
64.06742	11
72.98956	31
72.99501	19
110.03561	9
123.04459	74
124.04513	27
133.02763	317
134.03235	67
135.04472	424
136.04776	30
137.05145	6
151.03534	9
154.06618	6
160.0123	5
161.02269	1000
162.0246	52
163.01974	6
163.02904	22
179.02963	68
179.03722	96
180.04166	13
197.04172	41
197.05209	13
198.04419	10
200.03345	5

NAME: isosakuranetin-7-O-neohesperidoside
PRECURSORMZ: 593.18757934783
PRECURSORTYPE: [M-H]-
INSTRUMENTTYPE: LC-ESI-QTOF
SMILES: COC1=CC=C(C=C1)C1CC(=O)C2=C(O)C=C(OC3OC(CO)C(O)C(O)C3OC3OC(C)C(O)C(O)C3O)C=C2O1
INCHIKEY: NLAWPKPYBMEWIR-UHFFFAOYNA-N
Ontology: Flavonoid-7-O-glycosides
COLLISIONENERGY: 30
FORMULA: C28H34O14
RETENTIONTIME: 5.421867
IONMODE: Negative
Comment: registered in RIKEN PlaSMA
Num Peaks: 22
125.0231	6
175.07607	6
241.08725	23
269.0842	7
270.0513	11
270.06091	7
285.07556	1000
286.07922	165
287.08127	30
309.06656	5
309.082	13
327.08707	68
328.08911	15
339.09262	6
369.09808	13
387.10257	5
429.12595	8
473.13623	10
473.14865	33
593.16956	10
593.19305	28
593.21252	7

NAME: isosakuranetin-7-O-neohesperidoside
PRECURSORMZ: 639.19305865183
PRECURSORTYPE: [M+FA-H]-
INSTRUMENTTYPE: LC-ESI-QTOF
SMILES: COC1=CC=C(C=C1)C1CC(=O)C2=C(O)C=C(OC3OC(CO)C(O)C(O)C3OC3OC(C)C(O)C(O)C3O)C=C2O1
INCHIKEY: NLAWPKPYBMEWIR-UHFFFAOYNA-N
Ontology: Flavonoid-7-O-glycosides
COLLISIONENERGY: 30
FORMULA: C28H34O14
RETENTIONTIME: 5.421867
IONMODE: Negative
Comment: registered in RIKEN PlaSMA
Num Peaks: 43
89.02199	6
103.03847	12
119.0312	5
163.05373	6
168.29051	6
173.28271	7
217.08554	8
279.12509	5
285.07346	1000
286.07498	171
286.1051	6
287.07501	53
287.09445	8
309.07809	20
310.06927	5
321.069	5
324.08914	10
327.08536	100
327.21802	6
328.0899	16
369.08255	8
369.09891	6
369.11865	7
370.1041	5
371.11447	7
387.11533	28
388.09647	8
413.11798	6
429.11676	22
431.11594	10
431.13742	14
432.13724	17
436.87991	6
473.13638	45
474.15259	22
474.28427	6
593.18872	468
594.17267	62
594.19476	56
594.2254	7
594.55981	5
595.18909	32
596.20013	5

NAME: 4-Methoxycinnamic acid
PRECURSORMZ: 177.05571774783
PRECURSORTYPE: [M-H]-
INSTRUMENTTYPE: LC-ESI-QTOF
SMILES: COC1=CC=C(C=CC(O)=O)C=C1
INCHIKEY: AFDXODALSZRGIH-UHFFFAOYSA-N
Ontology: Cinnamic acids
COLLISIONENERGY: 30
FORMULA: C10H10O3
RETENTIONTIME: 5.855383
IONMODE: Negative
Comment: registered in RIKEN PlaSMA
Num Peaks: 4
81.66467	688
117.02968	688
117.03876	1000
118.04116	490

NAME: Acacetin
PRECURSORMZ: 283.06119704783
PRECURSORTYPE: [M-H]-
INSTRUMENTTYPE: LC-ESI-QTOF
SMILES: COC1=CC=C(C=C1)C1=CC(=O)C2=C(O)C=C(O)C=C2O1
INCHIKEY: DANYIYRPLHHOCZ-UHFFFAOYSA-N
Ontology: 4'-O-methylated flavonoids
COLLISIONENERGY: 30
FORMULA: C16H12O5
RETENTIONTIME: 7.367567
IONMODE: Negative
Comment: registered in RIKEN PlaSMA
Num Peaks: 50
63.02306	16
83.01242	38
94.00658	7
107.01096	103
107.01811	18
108.01399	13
117.03243	26
120.0216	7
121.99886	12
130.03961	8
147.0136	5
148.01193	8
148.02151	5
149.99382	38
151.00211	167
152.00708	8
158.03513	25
167.0407	8
167.05127	5
168.05261	11
168.0582	5
171.04234	64
172.04829	38
183.03746	12
183.04655	7
184.04825	26
184.05841	9
185.05521	7
195.0442	38
196.04956	34
198.02228	5
198.03056	11
199.03517	12
200.04996	25
201.05212	10
211.03987	191
212.04634	68
213.04761	10
223.03529	8
224.04758	8
224.06059	5
239.03275	227
240.04102	201
241.04228	45
267.026	90
268.03632	1000
269.04022	151
270.03592	16
270.05002	10
283.06384	5

NAME: Syringetin-3-O-galactoside
PRECURSORMZ: 507.11441434783
PRECURSORTYPE: [M-H]-
INSTRUMENTTYPE: LC-ESI-QTOF
SMILES: COC1=CC(=CC(OC)=C1O)C1=C(OC2OC(CO)C(O)C(O)C2O)C(=O)C2=C(O)C=C(O)C=C2O1
INCHIKEY: JMFWYRWPJVEZPV-UHFFFAOYNA-N
Ontology: Flavonoid-3-O-glycosides
COLLISIONENERGY: 50
FORMULA: C23H24O13
RETENTIONTIME: 4.328283
IONMODE: Negative
Comment: registered in RIKEN PlaSMA
Num Peaks: 34
109.02424	59
116.02212	80
174.0228	121
185.02032	68
186.01714	65
198.02756	65
201.01271	80
202.02547	391
203.03671	68
213.02112	139
214.02011	175
214.1026	68
229.00322	62
229.01105	71
239.03816	62
241.01105	263
242.02214	1000
243.02354	198
247.0636	65
256.99753	62
257.03802	86
258.01663	938
259.01334	216
269.00516	62
272.03284	139
272.04572	71
274.04535	180
280.04837	59
286.01712	53
287.01062	228
287.02853	142
288.05658	65
316.0528	86
330.14072	71

NAME: Luteolin-4'-O-glucoside
PRECURSORMZ: 447.09328504783
PRECURSORTYPE: [M-H]-
INSTRUMENTTYPE: LC-ESI-QTOF
SMILES: OCC1OC(OC2=C(O)C=C(C=C2)C2=CC(=O)C3=C(O)C=C(O)C=C3O2)C(O)C(O)C1O
INCHIKEY: UHNXUSWGOJMEFO-UHFFFAOYNA-N
Ontology: Flavonoid O-glycosides
COLLISIONENERGY: 50
FORMULA: C21H20O11
RETENTIONTIME: 4.467
IONMODE: Negative
Comment: registered in RIKEN PlaSMA
Num Peaks: 101
63.02468	19
63.99286	5
65.00014	6
65.00623	5
70.777	7
77.0392	6
83.01256	22
105.03596	43
106.03565	13
107.01199	128
108.01697	33
113.03842	6
115.05753	13
117.0146	6
121.02799	47
124.0116	8
125.04233	8
129.03633	9
129.07823	6
130.03488	8
131.01056	24
132.01898	14
132.04884	6
132.99405	9
133.02837	1000
134.03346	27
141.07022	6
143.04781	15
144.72179	6
145.02399	13
145.03162	19
147.04417	40
148.01663	8
148.04932	7
149.02129	94
150.02072	8
150.02946	11
151.00258	220
152.00656	23
152.246	6
153.00845	6
157.0271	6
157.06152	14
159.06459	7
168.04874	8
169.03242	7
171.03831	6
171.04666	19
173.02365	16
173.0508	7
173.08061	6
174.02513	6
174.99617	8
175.01088	9
175.02887	21
175.0405	165
176.00774	8
179.05428	5
185.06044	13
189.05318	19
196.05626	16
198.03065	6
198.03862	5
198.06192	6
199.03842	101
200.03276	6
200.0444	7
200.05937	10
201.01141	23
201.02155	85
202.02904	15
211.03717	17
211.04919	6
212.05089	19
213.04939	24
213.058	15
215.0323	11
215.04416	9
217.04103	22
217.0555	12
223.04027	19
224.04395	6
225.01169	6
229.04762	12
240.04445	5
241.04573	8
243.02084	12
243.03609	6
244.04308	8
247.18651	5
256.04105	9
257.03967	6
257.05069	14
258.03748	6
258.04898	6
261.14227	8
267.03494	17
284.02408	6
285.03894	146
286.03119	11
286.04648	49

NAME: Rosmarinic acid
PRECURSORMZ: 359.07724104783
PRECURSORTYPE: [M-H]-
INSTRUMENTTYPE: LC-ESI-QTOF
SMILES: OC(=O)C(CC1=CC(O)=C(O)C=C1)OC(=O)C=CC1=CC(O)=C(O)C=C1
INCHIKEY: DOUMFZQKYFQNTF-UHFFFAOYNA-N
Ontology: Coumaric acids and derivatives
COLLISIONENERGY: 50
FORMULA: C18H16O8
RETENTIONTIME: 4.6334
IONMODE: Negative
Comment: registered in RIKEN PlaSMA
Num Peaks: 23
72.9927	84
77.03941	39
104.02652	24
105.0334	95
107.05025	19
109.02826	34
117.03468	50
123.04251	265
124.05218	47
131.90939	24
132.0191	388
132.07047	19
133.02965	1000
134.02815	80
134.03667	210
135.04474	554
136.0607	58
137.02055	25
151.03903	30
161.01579	25
161.02733	101
163.03313	19
175.04475	25

NAME: isosakuranetin-7-O-neohesperidoside
PRECURSORMZ: 593.18757934783
PRECURSORTYPE: [M-H]-
INSTRUMENTTYPE: LC-ESI-QTOF
SMILES: COC1=CC=C(C=C1)C1CC(=O)C2=C(O)C=C(OC3OC(CO)C(O)C(O)C3OC3OC(C)C(O)C(O)C3O)C=C2O1
INCHIKEY: NLAWPKPYBMEWIR-UHFFFAOYNA-N
Ontology: Flavonoid-7-O-glycosides
COLLISIONENERGY: 50
FORMULA: C28H34O14
RETENTIONTIME: 5.421867
IONMODE: Negative
Comment: registered in RIKEN PlaSMA
Num Peaks: 138
71.01427	8
80.38108	9
83.01364	9
84.0136	11
87.00584	10
89.02153	8
94.00513	9
101.02272	10
107.01294	65
108.02375	27
109.02991	9
110.02778	9
119.0442	9
119.05412	14
120.01937	10
121.02144	8
121.99944	28
124.017	10
125.02234	32
127.05599	15
131.01523	8
132.02266	9
133.02168	8
134.02852	13
135.01164	13
136.01407	133
136.02332	32
137.02002	11
138.42473	7
148.04861	10
149.02275	20
151.00232	530
152.0063	68
153.00571	26
153.01846	11
159.03865	23
160.0562	10
161.06276	8
163.00252	9
164.0092	821
165.0105	40
165.02113	12
166.01582	10
167.05214	13
172.05006	12
172.05772	9
175.07373	89
176.08617	11
176.44456	7
177.01869	36
181.24757	10
182.06552	8
183.03572	9
183.05681	11
184.05202	46
185.02338	8
186.02448	49
186.04189	10
186.07547	9
187.03796	11
187.04935	10
189.98897	10
192.00339	8
196.09253	9
197.05977	11
198.02515	9
198.06454	72
198.07954	32
199.0701	21
199.0802	77
200.04335	26
200.07083	8
200.1028	13
201.05603	98
202.06273	72
202.99887	8
205.01462	8
206.02893	8
208.04945	34
211.03189	9
211.04233	8
212.0887	9
213.05156	11
214.05962	8
215.43439	7
217.08511	81
219.02905	23
220.03448	10
225.05246	30
226.04927	28
226.06407	125
226.28201	8
227.03755	9
227.07097	8
227.19643	8
228.03911	16
228.04906	20
228.08563	7
229.04645	8
239.07379	9
241.04567	24
241.05502	28
241.08231	169
241.09439	38
242.08867	44
243.05511	21
243.07124	117
243.10039	8
244.07811	14
251.03314	7
252.03624	12
253.045	8
255.03094	9
255.05939	7
256.06674	16
257.08478	24
267.05963	8
268.03928	15
269.03397	15
269.04517	65
269.61664	8
270.05353	333
270.41785	9
271.0528	108
272.05136	7
280.65515	10
284.06207	15
285.07663	1000
286.06891	68
286.08234	119
287.07025	8
287.0874	7
295.04443	10
299.09103	17
315.62839	12
327.09238	7
349.11029	9
386.00024	8

NAME: isosakuranetin-7-O-neohesperidoside
PRECURSORMZ: 639.19305865183
PRECURSORTYPE: [M+FA-H]-
INSTRUMENTTYPE: LC-ESI-QTOF
SMILES: COC1=CC=C(C=C1)C1CC(=O)C2=C(O)C=C(OC3OC(CO)C(O)C(O)C3OC3OC(C)C(O)C(O)C3O)C=C2O1
INCHIKEY: NLAWPKPYBMEWIR-UHFFFAOYNA-N
Ontology: Flavonoid-7-O-glycosides
COLLISIONENERGY: 50
FORMULA: C28H34O14
RETENTIONTIME: 5.421867
IONMODE: Negative
Comment: registered in RIKEN PlaSMA
Num Peaks: 85
65.00301	7
83.01557	7
107.01471	7
132.0556	8
136.01547	34
137.01849	10
150.99985	98
151.00717	44
152.01242	8
156.05316	9
163.17107	6
163.72722	7
164.01306	221
165.01038	7
165.021	41
174.02892	11
175.07193	45
175.08173	10
177.01561	12
181.42229	6
182.21352	6
186.02	8
186.03436	6
187.03244	16
197.05518	6
198.06801	22
199.07887	15
200.05229	12
200.07222	6
201.05215	52
202.06041	7
203.06886	14
204.08389	8
208.05385	8
209.0596	9
215.06837	22
217.08122	14
217.08942	7
225.04822	9
226.05524	24
226.06464	31
227.05426	6
234.00488	9
235.37445	8
241.07236	19
241.08571	148
242.09161	58
242.1048	10
243.06136	20
243.07359	14
244.07349	9
253.65543	6
256.06876	7
256.07782	8
257.07309	6
262.181	13
266.05347	6
267.05533	6
269.04626	24
269.08682	7
270.05438	214
270.97125	6
271.048	7
271.39206	8
273.06177	8
283.0697	12
284.06552	6
284.22195	7
284.98816	9
285.0762	1000
285.19226	6
286.0719	82
286.08109	129
286.61923	6
287.08475	7
288.07178	9
288.09146	11
299.09732	7
310.09283	7
311.09042	6
324.0654	9
327.09918	6
328.10803	8
340.08826	7
378.09113	6

NAME: 4-Methoxycinnamic acid
PRECURSORMZ: 177.05571774783
PRECURSORTYPE: [M-H]-
INSTRUMENTTYPE: LC-ESI-QTOF
SMILES: COC1=CC=C(C=CC(O)=O)C=C1
INCHIKEY: AFDXODALSZRGIH-UHFFFAOYSA-N
Ontology: Cinnamic acids
COLLISIONENERGY: 50
FORMULA: C10H10O3
RETENTIONTIME: 5.855383
IONMODE: Negative
Comment: registered in RIKEN PlaSMA
Num Peaks: 1
53.74689	1000

NAME: Acacetin
PRECURSORMZ: 283.06119704783
PRECURSORTYPE: [M-H]-
INSTRUMENTTYPE: LC-ESI-QTOF
SMILES: COC1=CC=C(C=C1)C1=CC(=O)C2=C(O)C=C(O)C=C2O1
INCHIKEY: DANYIYRPLHHOCZ-UHFFFAOYSA-N
Ontology: 4'-O-methylated flavonoids
COLLISIONENERGY: 50
FORMULA: C16H12O5
RETENTIONTIME: 7.367567
IONMODE: Negative
Comment: registered in RIKEN PlaSMA
Num Peaks: 71
63.02241	632
72.32901	39
78.01153	76
83.01149	222
83.01687	98
84.01785	48
89.10466	46
91.01978	68
91.99133	41
92.02496	68
94.00578	115
95.00388	61
101.03952	85
104.02259	59
107.01416	137
107.022	65
108.01296	50
108.01981	122
108.02538	59
115.05761	41
116.02518	170
117.03249	1000
118.03436	96
119.01421	48
122.00186	100
127.05242	87
129.02795	39
130.03859	50
132.02026	68
132.98593	44
133.02705	52
139.05396	50
140.02184	50
142.036	122
145.02864	174
151.0032	44
153.04399	46
154.04021	44
155.04546	46
155.05292	150
156.04858	44
156.05692	50
158.03665	57
165.03922	113
166.03685	57
167.04147	39
167.05072	153
168.05061	118
168.06029	78
171.04466	148
171.05164	89
172.04573	63
182.03075	135
182.04062	52
183.04013	556
183.05267	94
184.03885	72
184.05116	153
185.03914	44
185.05063	54
195.05254	44
196.05527	48
199.03651	102
199.0455	50
210.03082	227
211.02347	59
211.03926	309
212.04347	216
238.0267	44
239.02402	39
239.03741	70

NAME: Syringetin-3-O-galactoside
PRECURSORMZ: 507.11441434783
PRECURSORTYPE: [M-H]-
INSTRUMENTTYPE: LC-ESI-QTOF
SMILES: COC1=CC(=CC(OC)=C1O)C1=C(OC2OC(CO)C(O)C(O)C2O)C(=O)C2=C(O)C=C(O)C=C2O1
INCHIKEY: JMFWYRWPJVEZPV-UHFFFAOYNA-N
Ontology: Flavonoid-3-O-glycosides
COLLISIONENERGY: 10
FORMULA: C23H24O13
RETENTIONTIME: 4.328283
IONMODE: Negative
Comment: registered in RIKEN PlaSMA
Num Peaks: 29
125.02368	26
235.05928	34
242.02849	45
247.41479	26
258.00345	102
258.0192	82
269.00696	69
271.02005	25
273.04144	52
274.86765	25
286.01175	21
287.01089	24
298.66071	29
301.03314	202
301.04172	90
304.03787	25
315.05008	32
316.04181	36
329.03638	45
330.02032	21
344.04688	286
344.07401	50
345.06192	36
346.06314	25
360.03897	38
387.07578	23
414.09641	33
439.12192	26
507.11172	1000

NAME: Luteolin-4'-O-glucoside
PRECURSORMZ: 447.09328504783
PRECURSORTYPE: [M-H]-
INSTRUMENTTYPE: LC-ESI-QTOF
SMILES: OCC1OC(OC2=C(O)C=C(C=C2)C2=CC(=O)C3=C(O)C=C(O)C=C3O2)C(O)C(O)C1O
INCHIKEY: UHNXUSWGOJMEFO-UHFFFAOYNA-N
Ontology: Flavonoid O-glycosides
COLLISIONENERGY: 10
FORMULA: C21H20O11
RETENTIONTIME: 4.467
IONMODE: Negative
Comment: registered in RIKEN PlaSMA
Num Peaks: 14
133.02939	7
134.03107	8
149.022	6
151.00008	19
151.00571	7
175.03642	6
199.03357	13
217.04309	5
217.05399	10
241.05081	8
285.03894	1000
286.04288	197
287.04395	29
447.09369	125

NAME: Rosmarinic acid
PRECURSORMZ: 359.07724104783
PRECURSORTYPE: [M-H]-
INSTRUMENTTYPE: LC-ESI-QTOF
SMILES: OC(=O)C(CC1=CC(O)=C(O)C=C1)OC(=O)C=CC1=CC(O)=C(O)C=C1
INCHIKEY: DOUMFZQKYFQNTF-UHFFFAOYNA-N
Ontology: Coumaric acids and derivatives
COLLISIONENERGY: 10
FORMULA: C18H16O8
RETENTIONTIME: 4.6334
IONMODE: Negative
Comment: registered in RIKEN PlaSMA
Num Peaks: 29
72.98798	14
72.99307	10
108.02201	7
123.04321	37
131.01317	5
133.02646	115
134.03535	20
135.04298	139
136.04576	14
136.05141	5
145.16098	5
148.05252	5
151.03661	14
153.05559	8
161.02226	1000
161.8857	6
162.01831	14
162.02812	83
163.02817	11
164.03525	6
179.03423	148
180.03284	14
197.04297	312
198.04723	17
204.2406	9
223.01891	15
316.08749	6
359.07422	170
359.09735	6

NAME: isosakuranetin-7-O-neohesperidoside
PRECURSORMZ: 593.18757934783
PRECURSORTYPE: [M-H]-
INSTRUMENTTYPE: LC-ESI-QTOF
SMILES: COC1=CC=C(C=C1)C1CC(=O)C2=C(O)C=C(OC3OC(CO)C(O)C(O)C3OC3OC(C)C(O)C(O)C3O)C=C2O1
INCHIKEY: NLAWPKPYBMEWIR-UHFFFAOYNA-N
Ontology: Flavonoid-7-O-glycosides
COLLISIONENERGY: 10
FORMULA: C28H34O14
RETENTIONTIME: 5.421867
IONMODE: Negative
Comment: registered in RIKEN PlaSMA
Num Peaks: 26
125.02132	6
150.99861	9
151.00746	11
163.05365	6
164.0099	36
199.07683	6
201.11798	6
217.08762	5
241.07596	7
241.08418	12
242.0826	5
243.07256	13
270.05524	44
284.07224	6
285.07581	864
286.08157	157
287.07874	12
309.07764	10
323.08835	6
327.08359	53
333.71286	6
387.09949	13
387.11725	11
431.12881	6
473.14297	38
593.18707	1000

NAME: isosakuranetin-7-O-neohesperidoside
PRECURSORMZ: 639.19305865183
PRECURSORTYPE: [M+FA-H]-
INSTRUMENTTYPE: LC-ESI-QTOF
SMILES: COC1=CC=C(C=C1)C1CC(=O)C2=C(O)C=C(OC3OC(CO)C(O)C(O)C3OC3OC(C)C(O)C(O)C3O)C=C2O1
INCHIKEY: NLAWPKPYBMEWIR-UHFFFAOYNA-N
Ontology: Flavonoid-7-O-glycosides
COLLISIONENERGY: 10
FORMULA: C28H34O14
RETENTIONTIME: 5.421867
IONMODE: Negative
Comment: registered in RIKEN PlaSMA
Num Peaks: 38
115.03625	5
125.02496	6
194.68544	11
219.08951	5
226.06335	6
241.08795	17
276.62363	6
285.07532	500
286.07022	25
286.08026	80
286.11081	7
286.12393	6
287.07379	9
287.08511	7
309.08051	17
324.06821	5
327.08456	18
328.07788	5
328.09604	14
329.09659	6
340.09891	10
350.0712	7
357.10843	5
387.09949	11
473.13812	26
474.14206	10
496.49512	6
576.16437	5
593.18671	1000
593.75348	5
594.16534	48
594.19427	242
595.17126	16
595.18359	36
595.20544	64
596.1825	7
639.18103	24
639.20447	22

NAME: 4-Methoxycinnamic acid
PRECURSORMZ: 177.05571774783
PRECURSORTYPE: [M-H]-
INSTRUMENTTYPE: LC-ESI-QTOF
SMILES: COC1=CC=C(C=CC(O)=O)C=C1
INCHIKEY: AFDXODALSZRGIH-UHFFFAOYSA-N
Ontology: Cinnamic acids
COLLISIONENERGY: 10
FORMULA: C10H10O3
RETENTIONTIME: 5.855383
IONMODE: Negative
Comment: registered in RIKEN PlaSMA
Num Peaks: 8
117.03429	86
118.04337	50
119.04488	42
133.06419	1000
134.05997	98
134.07344	44
176.84351	34
177.05293	149

NAME: Acacetin
PRECURSORMZ: 283.06119704783
PRECURSORTYPE: [M-H]-
INSTRUMENTTYPE: LC-ESI-QTOF
SMILES: COC1=CC=C(C=C1)C1=CC(=O)C2=C(O)C=C(O)C=C2O1
INCHIKEY: DANYIYRPLHHOCZ-UHFFFAOYSA-N
Ontology: 4'-O-methylated flavonoids
COLLISIONENERGY: 10
FORMULA: C16H12O5
RETENTIONTIME: 7.367567
IONMODE: Negative
Comment: registered in RIKEN PlaSMA
Num Peaks: 26
63.02169	13
107.01078	19
148.01277	10
149.99341	12
151.00214	39
152.00679	6
155.04407	6
167.04863	14
168.05458	6
171.04259	15
172.04999	17
183.03835	7
183.04774	6
195.04221	8
196.05421	9
211.0386	51
212.04623	16
239.03328	46
239.04115	18
240.04031	65
241.04399	9
267.03189	24
268.03622	1000
269.03845	189
270.04114	40
283.06024	918

NAME: Syringetin-3-O-galactoside
PRECURSORMZ: 507.11441434783
PRECURSORTYPE: [M-H]-
INSTRUMENTTYPE: LC-ESI-QTOF
SMILES: COC1=CC(=CC(OC)=C1O)C1=C(OC2OC(CO)C(O)C(O)C2O)C(=O)C2=C(O)C=C(O)C=C2O1
INCHIKEY: JMFWYRWPJVEZPV-UHFFFAOYNA-N
Ontology: Flavonoid-3-O-glycosides
COLLISIONENERGY: 10
FORMULA: C23H24O13
RETENTIONTIME: 4.328283
IONMODE: Negative
Comment: registered in RIKEN PlaSMA
Num Peaks: 9
326.02094	10
331.43143	11
344.0415	17
344.05646	35
345.05743	14
505.94067	10
506.11203	19
507.11349	1000
507.229	10

NAME: Luteolin-4'-O-glucoside
PRECURSORMZ: 447.09328504783
PRECURSORTYPE: [M-H]-
INSTRUMENTTYPE: LC-ESI-QTOF
SMILES: OCC1OC(OC2=C(O)C=C(C=C2)C2=CC(=O)C3=C(O)C=C(O)C=C3O2)C(O)C(O)C1O
INCHIKEY: UHNXUSWGOJMEFO-UHFFFAOYNA-N
Ontology: Flavonoid O-glycosides
COLLISIONENERGY: 10
FORMULA: C21H20O11
RETENTIONTIME: 4.467
IONMODE: Negative
Comment: registered in RIKEN PlaSMA
Num Peaks: 5
285.03897	1000
286.04376	166
287.03806	14
287.05444	12
447.09128	646

NAME: Rosmarinic acid
PRECURSORMZ: 359.07724104783
PRECURSORTYPE: [M-H]-
INSTRUMENTTYPE: LC-ESI-QTOF
SMILES: OC(=O)C(CC1=CC(O)=C(O)C=C1)OC(=O)C=CC1=CC(O)=C(O)C=C1
INCHIKEY: DOUMFZQKYFQNTF-UHFFFAOYNA-N
Ontology: Coumaric acids and derivatives
COLLISIONENERGY: 10
FORMULA: C18H16O8
RETENTIONTIME: 4.6334
IONMODE: Negative
Comment: registered in RIKEN PlaSMA
Num Peaks: 17
135.04712	5
161.02325	1000
162.02631	97
163.02496	21
179.03441	91
180.03555	13
181.03592	5
197.04356	256
198.04329	20
198.05174	11
199.05182	9
223.02051	14
223.03221	7
261.20074	5
314.06891	9
358.05887	10
359.07657	563

NAME: isosakuranetin-7-O-neohesperidoside
PRECURSORMZ: 593.18757934783
PRECURSORTYPE: [M-H]-
INSTRUMENTTYPE: LC-ESI-QTOF
SMILES: COC1=CC=C(C=C1)C1CC(=O)C2=C(O)C=C(OC3OC(CO)C(O)C(O)C3OC3OC(C)C(O)C(O)C3O)C=C2O1
INCHIKEY: NLAWPKPYBMEWIR-UHFFFAOYNA-N
Ontology: Flavonoid-7-O-glycosides
COLLISIONENERGY: 10
FORMULA: C28H34O14
RETENTIONTIME: 5.421867
IONMODE: Negative
Comment: registered in RIKEN PlaSMA
Num Peaks: 3
285.07681	12
286.07849	6
593.18738	1000

NAME: 4-Methoxycinnamic acid
PRECURSORMZ: 177.05571774783
PRECURSORTYPE: [M-H]-
INSTRUMENTTYPE: LC-ESI-QTOF
SMILES: COC1=CC=C(C=CC(O)=O)C=C1
INCHIKEY: AFDXODALSZRGIH-UHFFFAOYSA-N
Ontology: Cinnamic acids
COLLISIONENERGY: 10
FORMULA: C10H10O3
RETENTIONTIME: 5.855383
IONMODE: Negative
Comment: registered in RIKEN PlaSMA
Num Peaks: 8
103.05122	69
118.04128	41
133.06294	1000
134.06506	52
134.07292	25
151.00887	21
176.83928	45
177.05383	468

NAME: Acacetin
PRECURSORMZ: 283.06119704783
PRECURSORTYPE: [M-H]-
INSTRUMENTTYPE: LC-ESI-QTOF
SMILES: COC1=CC=C(C=C1)C1=CC(=O)C2=C(O)C=C(O)C=C2O1
INCHIKEY: DANYIYRPLHHOCZ-UHFFFAOYSA-N
Ontology: 4'-O-methylated flavonoids
COLLISIONENERGY: 10
FORMULA: C16H12O5
RETENTIONTIME: 7.367567
IONMODE: Negative
Comment: registered in RIKEN PlaSMA
Num Peaks: 3
268.03595	154
269.043	21
283.06036	1000

NAME: Syringetin-3-O-galactoside
PRECURSORMZ: 507.11441434783
PRECURSORTYPE: [M-H]-
INSTRUMENTTYPE: LC-ESI-QTOF
SMILES: COC1=CC(=CC(OC)=C1O)C1=C(OC2OC(CO)C(O)C(O)C2O)C(=O)C2=C(O)C=C(O)C=C2O1
INCHIKEY: JMFWYRWPJVEZPV-UHFFFAOYNA-N
Ontology: Flavonoid-3-O-glycosides
COLLISIONENERGY: 30
FORMULA: C23H24O13
RETENTIONTIME: 4.328283
IONMODE: Negative
Comment: registered in RIKEN PlaSMA
Num Peaks: 35
90.99739	39
107.00851	39
139.01689	39
242.02129	39
242.17276	34
244.03677	46
246.00621	37
258.00055	34
258.01309	62
269.01248	97
270.01895	88
271.01126	45
272.05289	68
273.0386	448
274.03009	32
274.04803	32
276.97174	29
287.04877	79
288.04706	42
301.03186	248
301.04016	97
315.05408	114
316.04941	103
316.07782	37
316.16956	52
317.01389	31
318.05069	31
329.03137	180
330.01865	83
330.03171	85
331.04541	46
344.05289	1000
345.06436	370
441.43027	31
507.10843	59

NAME: Luteolin-4'-O-glucoside
PRECURSORMZ: 447.09328504783
PRECURSORTYPE: [M-H]-
INSTRUMENTTYPE: LC-ESI-QTOF
SMILES: OCC1OC(OC2=C(O)C=C(C=C2)C2=CC(=O)C3=C(O)C=C(O)C=C3O2)C(O)C(O)C1O
INCHIKEY: UHNXUSWGOJMEFO-UHFFFAOYNA-N
Ontology: Flavonoid O-glycosides
COLLISIONENERGY: 30
FORMULA: C21H20O11
RETENTIONTIME: 4.467
IONMODE: Negative
Comment: registered in RIKEN PlaSMA
Num Peaks: 13
133.02774	19
151.00096	22
175.03996	16
199.03035	7
199.04379	6
217.05116	10
241.05434	8
257.03738	7
285.03925	1000
285.07587	5
286.04211	153
286.06216	10
287.04578	17

NAME: Rosmarinic acid
PRECURSORMZ: 359.07724104783
PRECURSORTYPE: [M-H]-
INSTRUMENTTYPE: LC-ESI-QTOF
SMILES: OC(=O)C(CC1=CC(O)=C(O)C=C1)OC(=O)C=CC1=CC(O)=C(O)C=C1
INCHIKEY: DOUMFZQKYFQNTF-UHFFFAOYNA-N
Ontology: Coumaric acids and derivatives
COLLISIONENERGY: 30
FORMULA: C18H16O8
RETENTIONTIME: 4.6334
IONMODE: Negative
Comment: registered in RIKEN PlaSMA
Num Peaks: 33
72.99129	61
74.99532	5
91.05306	6
107.04873	10
109.03104	5
109.03958	6
116.19403	5
123.04475	154
124.04667	15
132.01796	14
133.02876	296
134.02939	60
135.04338	437
136.04176	7
136.05037	16
137.04999	8
147.04391	7
151.03191	6
152.04945	8
157.84422	6
161.02332	1000
161.14107	5
161.7164	7
162.01598	12
162.02629	92
162.39018	7
179.03323	202
179.04854	12
180.03754	39
181.03989	7
197.0441	16
197.05098	22
250.06163	8

NAME: isosakuranetin-7-O-neohesperidoside
PRECURSORMZ: 593.18757934783
PRECURSORTYPE: [M-H]-
INSTRUMENTTYPE: LC-ESI-QTOF
SMILES: COC1=CC=C(C=C1)C1CC(=O)C2=C(O)C=C(OC3OC(CO)C(O)C(O)C3OC3OC(C)C(O)C(O)C3O)C=C2O1
INCHIKEY: NLAWPKPYBMEWIR-UHFFFAOYNA-N
Ontology: Flavonoid-7-O-glycosides
COLLISIONENERGY: 30
FORMULA: C28H34O14
RETENTIONTIME: 5.421867
IONMODE: Negative
Comment: registered in RIKEN PlaSMA
Num Peaks: 20
151.00168	7
217.08566	7
241.08609	17
270.05246	16
284.06955	8
285.07614	1000
286.07834	153
286.09344	20
287.08014	18
299.09949	7
309.07434	17
327.08423	47
327.10117	7
328.07892	7
328.09784	7
387.10379	10
429.12881	10
473.1499	22
474.13458	5
593.18683	21

NAME: isosakuranetin-7-O-neohesperidoside
PRECURSORMZ: 639.19305865183
PRECURSORTYPE: [M+FA-H]-
INSTRUMENTTYPE: LC-ESI-QTOF
SMILES: COC1=CC=C(C=C1)C1CC(=O)C2=C(O)C=C(OC3OC(CO)C(O)C(O)C3OC3OC(C)C(O)C(O)C3O)C=C2O1
INCHIKEY: NLAWPKPYBMEWIR-UHFFFAOYNA-N
Ontology: Flavonoid-7-O-glycosides
COLLISIONENERGY: 30
FORMULA: C28H34O14
RETENTIONTIME: 5.421867
IONMODE: Negative
Comment: registered in RIKEN PlaSMA
Num Peaks: 40
89.02202	7
101.01913	5
101.02421	6
111.10485	6
151.00523	5
163.06328	8
217.08763	5
269.06274	5
269.08224	6
270.06183	7
275.20435	10
285.07629	1000
286.07895	115
287.07928	21
287.09387	5
288.07587	7
299.08414	5
299.09494	6
309.06711	14
327.07996	47
327.09476	48
328.0885	11
328.1015	7
329.10645	5
339.08969	7
339.10394	6
387.10498	16
387.12357	12
388.08664	6
413.11411	6
429.11725	5
431.13116	14
431.14908	11
473.13297	18
473.15152	60
474.15237	14
475.18298	6
593.18628	391
594.19	81
595.18079	10

NAME: 4-Methoxycinnamic acid
PRECURSORMZ: 177.05571774783
PRECURSORTYPE: [M-H]-
INSTRUMENTTYPE: LC-ESI-QTOF
SMILES: COC1=CC=C(C=CC(O)=O)C=C1
INCHIKEY: AFDXODALSZRGIH-UHFFFAOYSA-N
Ontology: Cinnamic acids
COLLISIONENERGY: 30
FORMULA: C10H10O3
RETENTIONTIME: 5.855383
IONMODE: Negative
Comment: registered in RIKEN PlaSMA
Num Peaks: 2
117.03281	1000
118.03479	309

NAME: Acacetin
PRECURSORMZ: 283.06119704783
PRECURSORTYPE: [M-H]-
INSTRUMENTTYPE: LC-ESI-QTOF
SMILES: COC1=CC=C(C=C1)C1=CC(=O)C2=C(O)C=C(O)C=C2O1
INCHIKEY: DANYIYRPLHHOCZ-UHFFFAOYSA-N
Ontology: 4'-O-methylated flavonoids
COLLISIONENERGY: 30
FORMULA: C16H12O5
RETENTIONTIME: 7.367567
IONMODE: Negative
Comment: registered in RIKEN PlaSMA
Num Peaks: 58
63.02288	9
65.00191	11
83.0144	21
83.01899	6
107.01286	141
108.01935	10
117.03362	19
123.47063	6
131.04555	8
132.01704	5
135.00638	7
141.03435	6
147.00418	6
148.01456	22
149.99074	14
149.99988	12
151.00308	213
152.00372	15
155.045	6
155.05902	11
156.056	10
158.0439	8
159.04478	6
166.04472	9
167.04961	27
168.05417	13
168.06403	10
170.03917	18
171.04414	76
171.05539	7
172.05042	46
173.05803	10
183.04581	34
184.01794	7
184.04984	34
185.04987	16
195.04532	27
196.05057	48
198.02411	7
199.03824	21
200.04732	48
201.04716	12
211.03937	183
212.04498	68
212.05252	19
223.03911	11
223.04768	7
224.04259	12
239.03412	239
240.04236	244
241.03499	12
241.04552	27
242.04131	7
267.03015	75
268.03635	1000
269.03995	153
270.04163	37
283.05569	8

NAME: Syringetin-3-O-galactoside
PRECURSORMZ: 507.11441434783
PRECURSORTYPE: [M-H]-
INSTRUMENTTYPE: LC-ESI-QTOF
SMILES: COC1=CC(=CC(OC)=C1O)C1=C(OC2OC(CO)C(O)C(O)C2O)C(=O)C2=C(O)C=C(O)C=C2O1
INCHIKEY: JMFWYRWPJVEZPV-UHFFFAOYNA-N
Ontology: Flavonoid-3-O-glycosides
COLLISIONENERGY: 50
FORMULA: C23H24O13
RETENTIONTIME: 4.328283
IONMODE: Negative
Comment: registered in RIKEN PlaSMA
Num Peaks: 42
80.02579	108
147.0417	119
150.94788	72
170.03386	123
171.04427	83
174.03137	76
202.01974	72
202.02995	130
203.02542	87
213.02078	242
215.03261	83
215.40437	97
226.02789	116
229.01173	264
230.02229	422
231.01993	162
240.01102	90
241.01695	137
242.01814	1000
242.02817	477
243.03053	173
257.00082	90
257.01465	65
258.00531	162
258.01764	361
259.01242	321
269.00723	148
270.00375	155
270.01965	282
271.02762	184
272.02515	159
272.03888	253
273.03021	65
284.9989	79
286.00351	477
286.01987	101
287.0155	188
287.05618	83
301.02545	108
301.03906	112
329.03271	90
345.05493	69

NAME: Luteolin-4'-O-glucoside
PRECURSORMZ: 447.09328504783
PRECURSORTYPE: [M-H]-
INSTRUMENTTYPE: LC-ESI-QTOF
SMILES: OCC1OC(OC2=C(O)C=C(C=C2)C2=CC(=O)C3=C(O)C=C(O)C=C3O2)C(O)C(O)C1O
INCHIKEY: UHNXUSWGOJMEFO-UHFFFAOYNA-N
Ontology: Flavonoid O-glycosides
COLLISIONENERGY: 50
FORMULA: C21H20O11
RETENTIONTIME: 4.467
IONMODE: Negative
Comment: registered in RIKEN PlaSMA
Num Peaks: 88
63.01703	8
63.02186	14
64.99992	8
65.03614	9
77.03863	16
83.01417	63
83.01937	16
85.91071	9
95.01266	11
103.82845	8
105.03529	8
107.01258	126
116.05737	12
121.0246	43
127.05248	8
127.0635	13
132.02014	20
133.02721	1000
134.03	58
136.03247	14
142.03886	10
143.04681	33
143.05614	8
145.02962	15
147.04463	11
149.0219	112
149.03304	29
149.06314	8
150.02956	30
151.00386	310
151.04892	8
152.00189	18
153.00099	12
153.03593	11
161.01938	10
161.05627	11
167.05203	9
169.05699	11
169.06357	10
171.03439	13
171.04544	18
172.26703	10
173.02596	14
173.06207	34
174.01988	11
175.03902	230
176.03548	22
183.04051	7
187.03549	10
188.04001	22
197.02971	12
197.06149	24
198.03531	60
199.03101	28
199.04167	111
200.00711	12
200.05051	9
201.01779	60
201.04535	8
202.0173	24
211.02969	11
211.03838	9
211.63112	8
212.04564	17
213.14015	8
214.02513	22
215.03088	33
217.04697	88
217.05907	18
227.03568	8
229.052	7
230.05293	9
239.01962	9
239.0329	10
240.03447	11
241.04881	7
243.01106	9
243.02872	16
243.04124	8
245.02684	8
256.03177	17
256.0401	13
267.02988	23
268.03586	20
285.04041	301
286.02637	10
286.04526	37
287.02972	9

NAME: Rosmarinic acid
PRECURSORMZ: 359.07724104783
PRECURSORTYPE: [M-H]-
INSTRUMENTTYPE: LC-ESI-QTOF
SMILES: OC(=O)C(CC1=CC(O)=C(O)C=C1)OC(=O)C=CC1=CC(O)=C(O)C=C1
INCHIKEY: DOUMFZQKYFQNTF-UHFFFAOYNA-N
Ontology: Coumaric acids and derivatives
COLLISIONENERGY: 50
FORMULA: C18H16O8
RETENTIONTIME: 4.6334
IONMODE: Negative
Comment: registered in RIKEN PlaSMA
Num Peaks: 19
91.04912	16
105.03302	18
107.04647	40
109.02245	58
109.03278	18
116.02179	18
121.0303	22
122.03525	23
123.04242	272
123.05659	29
132.01833	132
133.0274	1000
134.03545	249
134.0443	57
135.04076	106
135.04684	175
136.05051	39
161.02907	41
173.02133	23

NAME: isosakuranetin-7-O-neohesperidoside
PRECURSORMZ: 593.18757934783
PRECURSORTYPE: [M-H]-
INSTRUMENTTYPE: LC-ESI-QTOF
SMILES: COC1=CC=C(C=C1)C1CC(=O)C2=C(O)C=C(OC3OC(CO)C(O)C(O)C3OC3OC(C)C(O)C(O)C3O)C=C2O1
INCHIKEY: NLAWPKPYBMEWIR-UHFFFAOYNA-N
Ontology: Flavonoid-7-O-glycosides
COLLISIONENERGY: 50
FORMULA: C28H34O14
RETENTIONTIME: 5.421867
IONMODE: Negative
Comment: registered in RIKEN PlaSMA
Num Peaks: 140
59.0111	8
65.00368	12
80.02874	13
83.01223	46
84.01149	8
89.09377	7
94.00063	6
94.00621	16
101.02396	9
107.01353	118
108.02146	54
115.04251	9
117.03068	8
119.0467	17
122.00137	16
123.0033	28
123.04432	9
125.0239	7
125.03358	11
131.0193	9
132.058	10
132.35606	12
133.02048	7
133.02957	66
133.06732	10
136.01523	161
137.02081	17
148.62607	7
150.02608	7
151.00261	588
152.00528	41
152.01456	9
152.13963	8
152.90996	11
156.05341	9
158.03212	8
159.04556	10
160.01132	9
164.01079	999
165.01353	80
165.03239	7
169.06329	10
169.07051	10
170.05997	7
170.06773	14
174.07208	22
175.00478	8
175.07541	126
176.01366	7
176.08089	17
177.01646	53
177.07048	8
178.02562	11
179.02753	11
181.07355	12
182.07257	10
183.03514	11
183.04933	19
184.04675	26
184.05833	21
186.03416	57
187.03052	16
187.03787	37
188.00351	18
188.05482	10
188.97261	7
189.98857	8
190.05598	8
193.01027	8
197.05653	13
197.06296	26
198.03363	9
198.06158	54
198.07108	65
198.08777	9
199.07384	107
201.01799	8
201.05171	95
202.06262	39
202.07121	11
203.06358	8
203.07315	18
204.0005	16
209.06198	17
212.03981	8
214.05484	9
214.06296	8
215.06268	19
215.07332	8
217.08163	30
217.09822	17
218.08325	7
222.07472	16
223.08434	12
224.07967	17
225.05315	26
225.06226	11
225.80418	7
226.05998	152
227.04257	11
227.07312	9
228.0359	25
239.07426	8
240.07968	15
241.03876	12
241.05357	53
241.08548	186
242.05096	18
242.07643	13
242.09198	41
243.06673	142
243.09329	7
244.06647	18
245.06708	20
254.04128	7
255.0869	8
256.0708	8
257.08429	18
257.11258	7
264.0744	8
269.03915	93
269.05249	13
270.05124	473
271.0542	31
271.06607	7
271.93695	7
282.0618	10
283.05197	7
283.06931	9
284.06271	9
284.07974	9
285.0762	1000
285.10965	11
286.07755	160
286.09656	24
287.08411	8
287.36749	8
295.06497	7
341.09647	17
407.95395	9

NAME: isosakuranetin-7-O-neohesperidoside
PRECURSORMZ: 639.19305865183
PRECURSORTYPE: [M+FA-H]-
INSTRUMENTTYPE: LC-ESI-QTOF
SMILES: COC1=CC=C(C=C1)C1CC(=O)C2=C(O)C=C(OC3OC(CO)C(O)C(O)C3OC3OC(C)C(O)C(O)C3O)C=C2O1
INCHIKEY: NLAWPKPYBMEWIR-UHFFFAOYNA-N
Ontology: Flavonoid-7-O-glycosides
COLLISIONENERGY: 50
FORMULA: C28H34O14
RETENTIONTIME: 5.421867
IONMODE: Negative
Comment: registered in RIKEN PlaSMA
Num Peaks: 76
52.52444	7
107.01164	7
121.99722	15
125.03048	12
136.01187	9
136.01656	6
141.60495	7
145.02737	7
145.06709	8
146.65984	6
147.04614	7
148.01358	8
151.00137	98
157.12971	16
158.07986	7
161.16463	7
164.01283	213
165.00769	16
174.99809	7
175.07571	35
175.08334	9
176.00485	9
176.07947	6
177.01382	17
179.04378	7
182.07309	21
183.04811	7
186.07458	10
188.0481	16
191.25494	8
193.02135	8
197.06102	9
198.06728	49
199.07268	15
201.05225	46
204.00735	8
206.39273	11
215.06297	8
217.08475	16
217.09438	9
217.97516	6
222.86902	7
226.05972	24
226.0708	20
228.03734	7
228.05252	9
228.07431	7
240.07915	10
241.04651	11
241.08073	37
241.09558	22
242.05386	11
242.07846	9
242.09436	23
243.06036	54
243.08772	9
244.06567	7
255.06731	7
256.07828	9
257.08102	27
270.05283	122
271.0603	17
273.00537	6
284.06747	13
285.07681	1000
285.12344	8
286.08011	157
287.07532	14
299.10822	6
309.0791	9
325.08798	6
327.07413	15
327.09155	9
336.06281	9
339.07156	7
473.1571	6

NAME: 4-Methoxycinnamic acid
PRECURSORMZ: 177.05571774783
PRECURSORTYPE: [M-H]-
INSTRUMENTTYPE: LC-ESI-QTOF
SMILES: COC1=CC=C(C=CC(O)=O)C=C1
INCHIKEY: AFDXODALSZRGIH-UHFFFAOYSA-N
Ontology: Cinnamic acids
COLLISIONENERGY: 50
FORMULA: C10H10O3
RETENTIONTIME: 5.855383
IONMODE: Negative
Comment: registered in RIKEN PlaSMA
Num Peaks: 1
117.03337	1000

NAME: Acacetin
PRECURSORMZ: 283.06119704783
PRECURSORTYPE: [M-H]-
INSTRUMENTTYPE: LC-ESI-QTOF
SMILES: COC1=CC=C(C=C1)C1=CC(=O)C2=C(O)C=C(O)C=C2O1
INCHIKEY: DANYIYRPLHHOCZ-UHFFFAOYSA-N
Ontology: 4'-O-methylated flavonoids
COLLISIONENERGY: 50
FORMULA: C16H12O5
RETENTIONTIME: 7.367567
IONMODE: Negative
Comment: registered in RIKEN PlaSMA
Num Peaks: 45
63.02301	167
65.0024	95
65.00661	65
66.00758	40
83.01183	82
93.99901	53
94.00535	89
95.00358	46
104.02469	46
107.00817	40
107.01212	112
107.02198	38
108.01527	44
112.03257	67
117.03377	530
130.03481	32
130.04498	152
131.04294	74
138.04521	61
141.03488	38
143.04121	38
143.0508	129
146.03456	38
155.04742	38
156.05843	65
166.0341	44
167.04605	198
167.05371	91
169.0244	38
169.03194	53
170.03596	59
171.04578	76
178.04207	49
179.01057	48
180.05806	34
182.0351	57
183.04385	300
195.05295	49
196.51047	53
210.03233	144
211.03542	1000
213.04184	143
240.03967	40
266.02396	34
268.03464	40

NAME: Daidzein-8-C-glucoside
PRECURSORMZ: 415.10345574783
PRECURSORTYPE: [M-H]-
INSTRUMENTTYPE: LC-ESI-QTOF
SMILES: OCC1OC(C(O)C(O)C1O)C1=C(O)C=CC2=C1OC=C(C2=O)C1=CC=C(O)C=C1
INCHIKEY: HKEAFJYKMMKDOR-UHFFFAOYNA-N
Ontology: Isoflavonoid C-glycosides
COLLISIONENERGY: 10
FORMULA: C21H20O9
RETENTIONTIME: 3.2688
IONMODE: Negative
Comment: registered in RIKEN PlaSMA
Num Peaks: 36
149.02298	6
193.06705	6
211.07301	8
220.05585	5
221.06436	6
222.06526	10
223.0363	8
223.06351	8
223.0795	10
224.04228	6
224.05681	10
225.05051	5
237.05524	11
238.0569	6
239.06335	6
239.0741	5
240.08183	5
253.05051	29
265.052	12
267.06491	844
268.06882	134
269.07239	8
277.04852	97
278.05005	10
278.06119	14
279.05841	15
279.06995	10
293.04288	10
295.06061	620
296.0632	128
297.05795	18
307.05402	12
307.06482	14
325.06525	11
325.08145	10
415.10254	1000

NAME: Luteolin-8-C-glucoside
PRECURSORMZ: 447.09328504783
PRECURSORTYPE: [M-H]-
INSTRUMENTTYPE: LC-ESI-QTOF
SMILES: OCC1OC(C(O)C(O)C1O)C1=C(O)C=C(O)C2=C1OC(=CC2=O)C1=CC(O)=C(O)C=C1
INCHIKEY: PLAPMLGJVGLZOV-UHFFFAOYNA-N
Ontology: Flavonoid 8-C-glycosides
COLLISIONENERGY: 10
FORMULA: C21H20O11
RETENTIONTIME: 3.7038
IONMODE: Negative
Comment: registered in RIKEN PlaSMA
Num Peaks: 72
91.05297	6
125.02364	11
131.04898	10
133.02893	43
134.03856	8
149.02237	8
149.02798	5
151.00639	9
156.05704	5
161.0238	20
163.00546	9
163.03946	10
165.01817	7
171.07658	6
173.0192	5
193.01561	6
193.84756	7
198.02336	5
200.05054	6
201.01324	8
212.04247	6
213.05035	9
220.71983	7
225.06017	8
237.06511	5
240.03445	8
241.04782	10
253.04572	5
255.0713	5
259.05383	6
271.05099	6
271.94226	7
279.03729	9
279.87329	5
284.01352	9
284.02649	30
284.03903	41
285.03995	87
297.0394	165
298.03415	31
298.04657	74
299.05252	143
299.07281	10
300.05969	20
301.05081	9
311.04987	12
312.02722	6
313.02957	9
313.04263	6
326.04205	5
327.04968	1000
327.08145	9
328.05545	191
329.05161	41
330.06253	7
339.03937	6
339.0553	11
340.04791	5
341.05112	7
342.0647	6
357.05841	286
358.06104	56
358.07779	10
359.06287	8
369.06201	43
418.08054	5
419.07935	7
445.05225	6
445.07108	15
445.09546	5
446.07556	28
447.09283	419

NAME: Syringetin-3-O-glucoside
PRECURSORMZ: 507.11441434783
PRECURSORTYPE: [M-H]-
INSTRUMENTTYPE: LC-ESI-QTOF
SMILES: COC1=CC(=CC(OC)=C1O)C1=C(OC2OC(CO)C(O)C(O)C2O)C(=O)C2=C(O)C=C(O)C=C2O1
INCHIKEY: JMFWYRWPJVEZPV-UHFFFAOYNA-N
Ontology: Flavonoid-3-O-glycosides
COLLISIONENERGY: 10
FORMULA: C23H24O13
RETENTIONTIME: 4.373384
IONMODE: Negative
Comment: registered in RIKEN PlaSMA
Num Peaks: 45
83.01224	8
150.998	9
219.01794	5
234.05241	8
241.01306	36
241.02307	10
242.02211	42
243.01373	8
243.03174	9
244.0293	8
257.00064	8
258.01144	33
258.02637	6
259.01605	9
269.00739	15
270.01315	34
271.01614	10
271.0267	8
272.03317	15
273.03928	103
274.05002	10
286.00989	45
287.05551	55
288.05444	7
300.01624	8
301.0235	28
301.03513	110
302.02634	6
302.03601	20
303.03836	8
315.01129	30
315.04453	24
316.03555	5
316.05423	34
317.05322	5
329.02872	44
329.04413	9
330.03452	29
343.04865	6
344.05264	355
345.05682	133
346.05893	38
387.06372	7
387.077	8
507.11362	1000

NAME: isosakuranetin-7-O-rutinoside
PRECURSORMZ: 593.18757934783
PRECURSORTYPE: [M-H]-
INSTRUMENTTYPE: LC-ESI-QTOF
SMILES: COC1=CC=C(C=C1)C1CC(=O)C2=C(O)C=C(OC3OC(COC4OC(C)C(O)C(O)C4O)C(O)C(O)C3O)C=C2O1
INCHIKEY: RMCRQBAILCLJGU-UHFFFAOYNA-N
Ontology: Flavonoid-7-O-glycosides
COLLISIONENERGY: 10
FORMULA: C28H34O14
RETENTIONTIME: 5.356184
IONMODE: Negative
Comment: registered in RIKEN PlaSMA
Num Peaks: 23
151.00163	7
164.01035	39
175.00179	11
175.07573	7
217.08781	7
241.08611	14
242.08911	5
243.06047	7
243.07405	7
270.05051	19
270.06024	11
271.05118	6
281.07834	5
285.07501	1000
286.07935	185
287.08044	16
299.08813	5
309.07425	62
310.08014	22
327.07773	7
327.08972	24
328.08737	10
593.18726	527

NAME: isosakuranetin-7-O-rutinoside
PRECURSORMZ: 639.19305865183
PRECURSORTYPE: [M+FA-H]-
INSTRUMENTTYPE: LC-ESI-QTOF
SMILES: COC1=CC=C(C=C1)C1CC(=O)C2=C(O)C=C(OC3OC(COC4OC(C)C(O)C(O)C4O)C(O)C(O)C3O)C=C2O1
INCHIKEY: RMCRQBAILCLJGU-UHFFFAOYNA-N
Ontology: Flavonoid-7-O-glycosides
COLLISIONENERGY: 10
FORMULA: C28H34O14
RETENTIONTIME: 5.356184
IONMODE: Negative
Comment: registered in RIKEN PlaSMA
Num Peaks: 35
108.02329	9
117.75231	6
137.15347	7
152.35878	7
164.00748	7
165.0096	8
243.02748	9
285.07571	1000
285.23056	7
286.06726	39
286.07822	180
287.07339	27
287.0874	12
288.07303	5
294.06308	6
298.4278	6
299.09558	7
309.06863	14
309.08218	22
310.0744	6
327.08075	8
339.0802	6
352.08685	7
593.14142	7
593.18994	511
593.34021	7
594.19312	261
594.24835	20
595.18811	41
595.21399	22
596.18994	6
596.20801	9
639.18835	11
639.21442	5
639.24591	5

NAME: 2-Methoxycinnamic acid
PRECURSORMZ: 177.05571774783
PRECURSORTYPE: [M-H]-
INSTRUMENTTYPE: LC-ESI-QTOF
SMILES: COC1=CC=CC=C1C=CC(O)=O
INCHIKEY: FEGVSPGUHMGGBO-UHFFFAOYSA-N
Ontology: Coumaric acids
COLLISIONENERGY: 10
FORMULA: C10H10O3
RETENTIONTIME: 6.11525
IONMODE: Negative
Comment: registered in RIKEN PlaSMA
Num Peaks: 4
107.04637	232
131.04843	184
133.06319	176
177.05334	1000

NAME: Kaempferol
PRECURSORMZ: 285.04046154783
PRECURSORTYPE: [M-H]-
INSTRUMENTTYPE: LC-ESI-QTOF
SMILES: OC1=CC=C(C=C1)C1=C(O)C(=O)C2=C(O)C=C(O)C=C2O1
INCHIKEY: IYRMWMYZSQPJKC-UHFFFAOYSA-N
Ontology: Flavonols
COLLISIONENERGY: 10
FORMULA: C15H10O6
RETENTIONTIME: 5.995067
IONMODE: Negative
Comment: registered in RIKEN PlaSMA
Num Peaks: 36
93.03016	9
93.03797	5
107.00793	6
108.01832	7
117.03276	19
135.00725	6
143.04832	15
151.00256	16
154.04031	14
155.0455	7
156.05591	6
157.06973	6
158.03326	9
159.04097	12
159.04852	8
161.02599	9
164.00896	7
167.05074	14
169.0609	9
171.037	6
171.05038	5
173.02415	10
185.06009	23
187.03825	17
195.04414	6
199.03537	5
201.05609	9
211.03616	15
213.05804	8
214.02513	5
227.03082	7
229.04774	21
239.03564	18
240.04004	10
257.04492	15
285.03809	1000

NAME: Daidzein-8-C-glucoside
PRECURSORMZ: 415.10345574783
PRECURSORTYPE: [M-H]-
INSTRUMENTTYPE: LC-ESI-QTOF
SMILES: OCC1OC(C(O)C(O)C1O)C1=C(O)C=CC2=C1OC=C(C2=O)C1=CC=C(O)C=C1
INCHIKEY: HKEAFJYKMMKDOR-UHFFFAOYNA-N
Ontology: Isoflavonoid C-glycosides
COLLISIONENERGY: 10
FORMULA: C21H20O9
RETENTIONTIME: 3.2688
IONMODE: Negative
Comment: registered in RIKEN PlaSMA
Num Peaks: 4
267.06787	8
295.06024	115
296.06424	22
415.10284	1000

NAME: Luteolin-8-C-glucoside
PRECURSORMZ: 447.09328504783
PRECURSORTYPE: [M-H]-
INSTRUMENTTYPE: LC-ESI-QTOF
SMILES: OCC1OC(C(O)C(O)C1O)C1=C(O)C=C(O)C2=C1OC(=CC2=O)C1=CC(O)=C(O)C=C1
INCHIKEY: PLAPMLGJVGLZOV-UHFFFAOYNA-N
Ontology: Flavonoid 8-C-glycosides
COLLISIONENERGY: 10
FORMULA: C21H20O11
RETENTIONTIME: 3.7038
IONMODE: Negative
Comment: registered in RIKEN PlaSMA
Num Peaks: 14
297.03418	20
313.03253	6
327.04984	506
328.05276	95
329.05099	9
357.05914	181
358.06201	43
369.0592	31
393.05566	17
412.08084	5
445.06708	20
445.09131	6
446.08542	45
447.09195	1000

NAME: Syringetin-3-O-glucoside
PRECURSORMZ: 507.11441434783
PRECURSORTYPE: [M-H]-
INSTRUMENTTYPE: LC-ESI-QTOF
SMILES: COC1=CC(=CC(OC)=C1O)C1=C(OC2OC(CO)C(O)C(O)C2O)C(=O)C2=C(O)C=C(O)C=C2O1
INCHIKEY: JMFWYRWPJVEZPV-UHFFFAOYNA-N
Ontology: Flavonoid-3-O-glycosides
COLLISIONENERGY: 10
FORMULA: C23H24O13
RETENTIONTIME: 4.373384
IONMODE: Negative
Comment: registered in RIKEN PlaSMA
Num Peaks: 3
344.0564	10
345.05859	17
507.11371	1000

NAME: isosakuranetin-7-O-rutinoside
PRECURSORMZ: 593.18757934783
PRECURSORTYPE: [M-H]-
INSTRUMENTTYPE: LC-ESI-QTOF
SMILES: COC1=CC=C(C=C1)C1CC(=O)C2=C(O)C=C(OC3OC(COC4OC(C)C(O)C(O)C4O)C(O)C(O)C3O)C=C2O1
INCHIKEY: RMCRQBAILCLJGU-UHFFFAOYNA-N
Ontology: Flavonoid-7-O-glycosides
COLLISIONENERGY: 10
FORMULA: C28H34O14
RETENTIONTIME: 5.356184
IONMODE: Negative
Comment: registered in RIKEN PlaSMA
Num Peaks: 5
285.07471	305
286.07715	38
287.07428	7
309.07297	6
593.18585	1000

NAME: isosakuranetin-7-O-rutinoside
PRECURSORMZ: 639.19305865183
PRECURSORTYPE: [M+FA-H]-
INSTRUMENTTYPE: LC-ESI-QTOF
SMILES: COC1=CC=C(C=C1)C1CC(=O)C2=C(O)C=C(OC3OC(COC4OC(C)C(O)C(O)C4O)C(O)C(O)C3O)C=C2O1
INCHIKEY: RMCRQBAILCLJGU-UHFFFAOYNA-N
Ontology: Flavonoid-7-O-glycosides
COLLISIONENERGY: 10
FORMULA: C28H34O14
RETENTIONTIME: 5.356184
IONMODE: Negative
Comment: registered in RIKEN PlaSMA
Num Peaks: 15
129.59065	5
277.91364	8
285.07379	83
286.0762	7
287.09561	7
386.8912	5
593.06708	5
593.18738	1000
593.87531	5
594.19086	249
594.48175	10
595.17566	32
595.20245	71
596.20044	7
639.19122	67

NAME: 2-Methoxycinnamic acid
PRECURSORMZ: 177.05571774783
PRECURSORTYPE: [M-H]-
INSTRUMENTTYPE: LC-ESI-QTOF
SMILES: COC1=CC=CC=C1C=CC(O)=O
INCHIKEY: FEGVSPGUHMGGBO-UHFFFAOYSA-N
Ontology: Coumaric acids
COLLISIONENERGY: 10
FORMULA: C10H10O3
RETENTIONTIME: 6.11525
IONMODE: Negative
Comment: registered in RIKEN PlaSMA
Num Peaks: 10
103.05041	76
115.04772	54
131.05151	88
133.06401	1000
145.0217	73
145.02927	195
150.99254	51
151.00041	76
176.84364	161
177.05241	799

NAME: Kaempferol
PRECURSORMZ: 285.04046154783
PRECURSORTYPE: [M-H]-
INSTRUMENTTYPE: LC-ESI-QTOF
SMILES: OC1=CC=C(C=C1)C1=C(O)C(=O)C2=C(O)C=C(O)C=C2O1
INCHIKEY: IYRMWMYZSQPJKC-UHFFFAOYSA-N
Ontology: Flavonols
COLLISIONENERGY: 10
FORMULA: C15H10O6
RETENTIONTIME: 5.995067
IONMODE: Negative
Comment: registered in RIKEN PlaSMA
Num Peaks: 2
151.00253	13
285.03949	1000

NAME: Daidzein-8-C-glucoside
PRECURSORMZ: 415.10345574783
PRECURSORTYPE: [M-H]-
INSTRUMENTTYPE: LC-ESI-QTOF
SMILES: OCC1OC(C(O)C(O)C1O)C1=C(O)C=CC2=C1OC=C(C2=O)C1=CC=C(O)C=C1
INCHIKEY: HKEAFJYKMMKDOR-UHFFFAOYNA-N
Ontology: Isoflavonoid C-glycosides
COLLISIONENERGY: 30
FORMULA: C21H20O9
RETENTIONTIME: 3.2688
IONMODE: Negative
Comment: registered in RIKEN PlaSMA
Num Peaks: 24
133.02579	7
210.06476	5
221.05988	6
223.07362	14
223.0802	6
237.0486	6
238.06267	12
239.07108	21
253.05046	40
254.05336	9
265.05167	7
266.0528	5
267.06516	1000
268.06854	205
269.07187	23
277.05127	94
278.05203	28
293.04468	13
295.06049	206
296.05573	16
296.06839	11
297.0679	16
307.05869	18
308.06885	7

NAME: Luteolin-8-C-glucoside
PRECURSORMZ: 447.09328504783
PRECURSORTYPE: [M-H]-
INSTRUMENTTYPE: LC-ESI-QTOF
SMILES: OCC1OC(C(O)C(O)C1O)C1=C(O)C=C(O)C2=C1OC(=CC2=O)C1=CC(O)=C(O)C=C1
INCHIKEY: PLAPMLGJVGLZOV-UHFFFAOYNA-N
Ontology: Flavonoid 8-C-glycosides
COLLISIONENERGY: 30
FORMULA: C21H20O11
RETENTIONTIME: 3.7038
IONMODE: Negative
Comment: registered in RIKEN PlaSMA
Num Peaks: 174
87.0045	7
91.05214	8
97.02724	25
101.01971	6
109.03112	6
119.04852	11
121.02956	8
122.39252	6
125.02048	5
126.09498	10
129.03717	6
133.02544	53
133.03151	19
134.0421	11
135.041	11
135.05093	9
137.02531	7
137.47743	6
138.59483	5
139.02008	6
145.0273	6
147.03856	14
149.02496	31
151.00421	8
151.04613	9
161.01387	7
161.02348	14
162.02795	11
162.03259	5
162.99959	12
163.03914	57
164.01425	6
164.04106	8
165.01926	54
166.01514	7
169.05775	5
173.02235	7
173.88054	6
174.03174	8
175.04054	76
176.00687	6
176.04489	17
177.01712	20
177.02577	13
179.03648	13
180.3373	7
185.05502	11
187.07541	6
189.02216	8
189.05302	6
191.02899	18
191.03639	32
192.03865	6
193.01083	12
193.03683	9
195.04782	6
195.78009	5
198.03342	16
199.04335	6
199.05055	10
201.01863	13
201.02904	12
203.00296	8
203.03519	6
205.03769	6
211.03621	27
211.04829	8
212.03751	8
212.04654	5
213.05383	12
213.06174	12
214.05566	6
215.99698	9
217.0471	30
217.06876	5
224.04683	5
225.04889	18
225.06172	8
226.02625	6
226.05518	12
226.06607	6
227.03255	28
227.06812	5
229.02455	7
229.0654	5
234.0522	8
235.77042	15
237.05534	7
239.02977	12
239.07466	11
240.03717	14
240.04512	8
241.04797	18
242.01672	7
242.05589	5
243.02318	6
243.0349	9
243.06334	10
251.0121	6
251.03471	6
253.05884	13
255.03551	22
255.06088	16
255.07492	9
256.07028	6
257.02817	6
257.04367	12
259.06198	6
265.05014	5
266.0145	9
269.04657	48
270.05737	12
270.28827	6
271.04245	6
271.0636	14
271.08618	6
279.03409	7
281.04416	6
283.05408	8
284.03284	155
284.5741	6
285.03894	162
286.04327	46
287.04517	15
287.05307	7
291.03302	8
295.02502	5
295.05988	6
297.04034	416
297.07968	10
298.04648	305
299.05637	727
300.05615	111
300.065	45
301.06015	21
310.05161	5
311.02704	14
311.05099	37
311.06235	37
312.06302	13
313.01379	8
313.03412	39
313.0452	21
314.04291	17
321.06897	7
323.05481	5
324.02133	16
324.0347	12
325.03925	17
326.03421	10
326.04257	5
327.05017	1000
328.04916	211
328.7027	5
329.04596	30
329.06171	41
330.05957	9
338.04581	7
338.92621	8
339.0351	22
339.0553	58
340.05429	21
341.07492	14
342.07785	7
351.04846	6
357.05951	79
357.09302	5
358.06427	19
366.07324	6
369.05576	18
369.07672	10
393.05664	16
399.07047	5
440.09183	6

NAME: Syringetin-3-O-glucoside
PRECURSORMZ: 507.11441434783
PRECURSORTYPE: [M-H]-
INSTRUMENTTYPE: LC-ESI-QTOF
SMILES: COC1=CC(=CC(OC)=C1O)C1=C(OC2OC(CO)C(O)C(O)C2O)C(=O)C2=C(O)C=C(O)C=C2O1
INCHIKEY: JMFWYRWPJVEZPV-UHFFFAOYNA-N
Ontology: Flavonoid-3-O-glycosides
COLLISIONENERGY: 30
FORMULA: C23H24O13
RETENTIONTIME: 4.373384
IONMODE: Negative
Comment: registered in RIKEN PlaSMA
Num Peaks: 58
57.04248	10
151.00337	10
178.9939	8
202.02136	8
219.03354	6
220.03374	7
230.02524	6
234.05026	13
241.00391	11
241.01408	45
242.02037	62
243.02403	11
243.03159	16
245.01208	6
248.06419	7
257.00861	7
258.01514	62
258.0238	17
259.01523	6
259.02551	8
269.00443	54
270.00858	20
270.02036	6
271.02194	26
272.03818	6
273.03836	462
274.04221	75
275.03824	7
275.04825	12
277.06314	6
286.00958	60
287.05539	105
288.06244	13
301.03406	371
301.05969	7
302.03018	24
302.04349	22
314.99844	10
315.01492	24
315.05261	41
316.05743	202
316.09805	7
317.06613	23
319.08826	6
328.03802	6
329.03	199
330.03693	110
331.03549	22
344.05127	1000
345.05847	350
346.03827	7
346.0658	61
347.05954	7
359.065	9
387.05942	9
387.08066	10
388.08844	5
507.10843	59

NAME: 2-Methoxycinnamic acid
PRECURSORMZ: 177.05571774783
PRECURSORTYPE: [M-H]-
INSTRUMENTTYPE: LC-ESI-QTOF
SMILES: COC1=CC=CC=C1C=CC(O)=O
INCHIKEY: FEGVSPGUHMGGBO-UHFFFAOYSA-N
Ontology: Coumaric acids
COLLISIONENERGY: 30
FORMULA: C10H10O3
RETENTIONTIME: 6.11525
IONMODE: Negative
Comment: registered in RIKEN PlaSMA
Num Peaks: 1
93.03471	1000

NAME: Kaempferol
PRECURSORMZ: 285.04046154783
PRECURSORTYPE: [M-H]-
INSTRUMENTTYPE: LC-ESI-QTOF
SMILES: OC1=CC=C(C=C1)C1=C(O)C(=O)C2=C(O)C=C(O)C=C2O1
INCHIKEY: IYRMWMYZSQPJKC-UHFFFAOYSA-N
Ontology: Flavonols
COLLISIONENERGY: 30
FORMULA: C15H10O6
RETENTIONTIME: 5.995067
IONMODE: Negative
Comment: registered in RIKEN PlaSMA
Num Peaks: 173
63.02166	36
65.00159	35
65.03958	57
65.06032	27
67.01923	39
79.01723	31
80.02548	58
81.03184	67
83.01126	244
90.00667	36
91.01675	203
91.05883	35
92.02695	63
92.99255	48
93.03338	1000
94.03174	24
95.01006	28
103.0533	24
104.02456	36
105.03395	211
105.85013	24
107.01219	376
108.01995	509
108.99258	39
109.02366	213
115.05379	66
116.02702	30
116.05595	30
117.0342	525
118.039	30
119.01047	203
119.04474	52
120.0203	194
121.02324	27
121.03381	75
121.99628	67
122.03686	27
123.00978	63
124.01095	92
129.03973	44
130.03333	62
130.04411	67
131.04202	61
131.04776	164
132.01567	39
132.05853	31
133.01822	31
133.02972	202
135.00778	359
135.36237	27
136.01114	166
136.01793	312
137.02412	201
138.02168	44
138.03076	31
139.02596	40
139.05246	27
141.03018	31
141.06165	31
141.06992	82
143.04839	783
144.04518	31
144.05338	133
145.02705	510
145.06429	32
147.00859	30
147.03349	31
147.04268	36
147.06755	28
150.99771	137
151.00349	57
151.03734	36
152.00502	52
152.03932	35
153.03392	24
154.03928	307
154.0484	48
155.04793	658
156.05661	246
157.02342	114
157.06181	179
157.07112	67
158.03545	269
158.06462	38
158.07228	31
159.03148	26
159.0439	771
160.04568	28
161.02141	493
161.05603	159
162.02293	47
163.00189	143
164.008	174
165.01352	87
166.02002	34
167.04904	180
168.05768	122
169.05853	23
169.06702	77
169.08128	40
171.04131	349
172.047	58
173.01987	133
173.98042	42
174.02443	48
174.03133	55
175.04179	87
176.31322	24
178.98944	30
179.04294	43
182.03847	199
183.04247	285
183.83812	27
184.05046	358
185.02197	51
185.0573	534
186.02943	51
186.06477	97
187.03244	626
187.0406	293
187.78777	27
188.04044	90
189.04152	32
189.06136	36
190.0334	24
191.38632	44
195.04131	98
195.0489	77
196.04434	30
196.05759	38
197.05592	51
197.06973	32
198.02596	43
198.03291	35
201.04552	30
201.05443	104
201.06596	44
210.03185	27
211.03801	631
212.02318	24
212.04155	248
213.01115	52
213.05331	104
214.02103	89
214.03683	83
215.03369	108
223.04227	32
226.01872	24
227.03294	451
228.04381	136
229.04214	112
229.05264	97
229.93404	24
237.0146	40
238.02534	24
239.03172	423
239.04237	160
240.03867	226
241.04874	26
242.27072	24
243.03127	27
250.91214	44
255.02631	151
256.03088	34
256.04037	32
257.04266	93
267.03674	38
268.01767	27
268.03464	69
269.03381	74
284.02271	127
285.02054	90
285.03992	938

NAME: Daidzein-8-C-glucoside
PRECURSORMZ: 415.10345574783
PRECURSORTYPE: [M-H]-
INSTRUMENTTYPE: LC-ESI-QTOF
SMILES: OCC1OC(C(O)C(O)C1O)C1=C(O)C=CC2=C1OC=C(C2=O)C1=CC=C(O)C=C1
INCHIKEY: HKEAFJYKMMKDOR-UHFFFAOYNA-N
Ontology: Isoflavonoid C-glycosides
COLLISIONENERGY: 50
FORMULA: C21H20O9
RETENTIONTIME: 3.2688
IONMODE: Negative
Comment: registered in RIKEN PlaSMA
Num Peaks: 147
77.04011	13
79.97394	12
89.03425	13
90.43811	13
91.01482	13
92.02271	12
105.03303	161
106.03113	11
106.04075	13
116.02877	11
117.03355	103
119.05088	13
120.02295	25
121.0304	12
126.03886	11
127.02183	16
130.04601	11
131.05014	17
132.01854	164
132.31822	14
133.02826	515
134.03181	62
135.03191	13
135.64566	14
139.04915	12
143.04697	22
144.02106	12
145.02391	28
145.03032	11
146.04094	23
147.04132	16
149.02495	130
150.02278	11
158.04021	36
159.03923	16
159.0479	13
161.02364	31
165.07162	42
167.04807	11
168.05418	15
171.04472	23
173.02621	11
175.0591	16
177.06216	13
180.0562	66
180.06259	53
180.07495	22
181.0573	24
181.06531	23
182.02576	14
182.06395	22
183.03926	27
183.07178	29
183.0808	11
188.29256	12
191.04581	12
191.05719	15
192.05553	10
193.06291	113
193.06976	114
194.06689	108
194.08118	10
195.04143	73
195.07422	28
196.03627	20
196.04477	49
196.05457	112
197.05797	11
197.06599	13
197.08003	21
203.05493	12
204.0527	45
204.06013	19
205.06271	37
205.17465	11
207.03618	13
208.03789	12
208.05402	217
209.05968	201
210.05699	58
210.06723	55
211.02904	12
211.07722	12
211.22304	12
212.08136	11
215.75719	15
218.28798	16
219.04605	25
220.05412	59
221.05963	194
221.96402	13
222.06586	558
222.07433	163
223.03899	253
223.06035	36
223.07535	267
224.04764	364
224.0739	32
225.04996	56
229.08113	20
232.05008	25
233.05591	10
233.06612	16
233.88214	10
235.03667	18
235.08112	14
236.04355	37
236.05762	33
237.04672	92
237.05591	249
238.05974	53
238.07349	32
239.03264	13
239.06453	53
239.07532	142
240.08073	14
248.0554	10
249.03711	10
249.05103	15
250.05649	40
252.03365	12
252.04984	30
253.0472	107
253.06102	50
254.05389	14
264.03424	11
265.04776	16
265.06552	15
266.05984	32
266.59833	10
267.06467	1000
268.06531	113
268.08463	17
269.05576	21
269.08316	21
273.05136	11
273.12738	30
274.06207	10
275.06219	16
276.0397	14
276.05264	10
276.06451	10
277.04648	47
278.04813	22
279.0683	14
291.01941	10
293.03253	13

NAME: Luteolin-8-C-glucoside
PRECURSORMZ: 447.09328504783
PRECURSORTYPE: [M-H]-
INSTRUMENTTYPE: LC-ESI-QTOF
SMILES: OCC1OC(C(O)C(O)C1O)C1=C(O)C=C(O)C2=C1OC(=CC2=O)C1=CC(O)=C(O)C=C1
INCHIKEY: PLAPMLGJVGLZOV-UHFFFAOYNA-N
Ontology: Flavonoid 8-C-glycosides
COLLISIONENERGY: 50
FORMULA: C21H20O11
RETENTIONTIME: 3.7038
IONMODE: Negative
Comment: registered in RIKEN PlaSMA
Num Peaks: 172
77.95732	11
79.01649	39
83.04875	15
89.0411	14
92.02273	28
93.04085	10
97.0309	12
103.01834	18
107.01352	46
107.04832	13
108.02138	28
109.02815	78
109.03258	38
110.03063	15
117.0333	18
118.03854	15
119.01071	12
119.01606	18
119.04649	98
121.02188	10
121.03055	11
121.04122	13
123.03969	26
125.01957	67
125.02853	33
131.01717	13
132.02429	35
133.02879	1000
134.03429	65
135.00937	43
135.04044	100
136.00269	11
136.02042	44
136.04672	23
137.01608	21
142.03976	14
143.04889	13
147.04305	41
148.0136	44
149.02271	36
151.00343	12
151.03943	39
153.06862	12
157.02725	36
157.06624	18
158.03551	14
158.07037	13
159.02055	12
160.00577	16
161.01651	26
161.02467	44
162.00206	17
162.02458	11
162.75803	32
162.99883	25
163.01039	13
163.03824	54
163.04942	11
163.0732	15
164.00644	28
164.04085	12
164.89078	11
165.01735	60
166.02362	15
168.05122	13
168.06747	12
169.06155	10
170.07056	11
171.03413	10
171.04411	28
172.02081	12
172.04333	11
173.01625	30
173.05386	13
174.03088	11
174.53894	12
175.03961	142
175.07512	11
176.01157	27
176.0358	12
177.01018	13
178.02618	15
180.05688	23
181.06081	12
181.0744	32
182.03352	12
183.05067	11
185.05907	40
186.02698	15
187.03351	26
187.07741	19
188.04588	10
193.01448	14
194.00951	13
195.03578	11
195.05031	17
196.04871	10
197.02225	12
197.05721	14
198.02771	11
198.03389	21
198.06721	10
199.03754	56
199.04726	32
200.03389	10
200.04863	14
201.0107	17
201.05127	26
201.06296	17
203.03047	13
205.01776	12
211.0323	21
211.04231	32
211.05905	20
211.07338	10
212.03996	42
212.06181	11
213.06308	13
214.02446	12
215.03111	11
218.01358	15
220.06322	18
222.02692	15
223.0296	11
223.04062	10
224.0491	22
225.05331	40
226.03065	11
226.0618	16
227.03723	71
227.07747	25
228.03824	12
228.06769	20
229.05264	66
235.04047	19
237.04961	36
239.03581	11
241.16789	10
243.06819	15
250.03371	10
251.03174	15
253.04985	36
254.04828	12
255.02992	44
255.03886	16
255.06352	13
256.04294	11
257.034	11
257.04459	15
267.02753	13
269.0455	11
271.0304	10
279.0275	16
281.04877	10
282.04208	16
284.02753	78
285.03149	25
285.04382	82
286.05093	15
287.05344	20
297.04022	70
297.05362	12
298.0408	39
298.05283	41
299.03836	15
299.05869	24
299.88446	14
301.06342	15
309.04501	15
311.05795	27
313.74869	15
447.08731	16

NAME: Syringetin-3-O-glucoside
PRECURSORMZ: 507.11441434783
PRECURSORTYPE: [M-H]-
INSTRUMENTTYPE: LC-ESI-QTOF
SMILES: COC1=CC(=CC(OC)=C1O)C1=C(OC2OC(CO)C(O)C(O)C2O)C(=O)C2=C(O)C=C(O)C=C2O1
INCHIKEY: JMFWYRWPJVEZPV-UHFFFAOYNA-N
Ontology: Flavonoid-3-O-glycosides
COLLISIONENERGY: 50
FORMULA: C23H24O13
RETENTIONTIME: 4.373384
IONMODE: Negative
Comment: registered in RIKEN PlaSMA
Num Peaks: 131
67.0166	7
83.01341	7
84.59229	7
91.01522	12
120.02265	8
123.0122	7
130.03395	9
130.04105	16
133.0256	7
135.01385	7
135.04726	10
136.01541	7
141.02855	11
143.04764	7
146.03027	23
146.04196	8
148.33676	8
149.02286	11
151.00047	12
152.00398	8
158.03476	23
159.04361	7
161.02315	6
162.99786	10
171.03255	9
171.03847	8
174.02089	29
174.0291	121
175.03714	24
176.00212	6
178.19377	6
186.02791	48
186.03455	21
187.03856	34
189.02072	9
193.0101	7
197.01993	10
198.02161	9
198.02943	19
199.03152	8
199.04103	7
200.0182	7
200.04114	9
201.01962	6
201.77106	10
202.02649	208
203.02977	50
203.04442	6
204.00943	9
213.01222	47
213.02095	93
214.02504	103
215.02277	21
215.03595	9
216.00032	8
217.02477	7
217.05534	7
223.01878	8
226.02449	8
227.03316	11
228.04474	10
228.99948	8
229.01669	43
230.01973	285
231.02382	67
232.02931	18
239.02278	8
239.99901	9
241.00801	173
241.01598	233
241.91219	6
242.02141	1000
242.99001	10
243.02771	231
244.03503	32
245.04048	8
253.38445	12
256.95404	9
257.00507	107
257.01685	25
257.0426	9
257.05615	9
258.01651	940
258.90829	8
259.02103	174
261.02264	7
267.99954	12
269.01007	15
270.0061	44
270.02039	188
271.01495	36
271.02972	7
271.71198	7
272.02734	194
272.03955	86
273.01849	10
273.04123	123
273.05368	26
274.04163	38
282.0174	6
284.99622	18
285.01016	7
286.01221	555
287.01236	115
287.05081	59
288.01651	29
288.0495	7
288.05899	8
298.00488	16
298.01773	37
299.02264	41
300.02475	65
300.9874	8
301.03235	112
301.04758	46
302.04642	36
303.04163	34
313.03561	7
314.0014	36
314.55612	8
315.00989	93
316.05844	15
317.02649	6
325.65964	13
327.00684	9
328.20432	7
329.03458	44
330.03638	17
331.02835	26
332.03897	9
357.02753	7

NAME: isosakuranetin-7-O-rutinoside
PRECURSORMZ: 593.18757934783
PRECURSORTYPE: [M-H]-
INSTRUMENTTYPE: LC-ESI-QTOF
SMILES: COC1=CC=C(C=C1)C1CC(=O)C2=C(O)C=C(OC3OC(COC4OC(C)C(O)C(O)C4O)C(O)C(O)C3O)C=C2O1
INCHIKEY: RMCRQBAILCLJGU-UHFFFAOYNA-N
Ontology: Flavonoid-7-O-glycosides
COLLISIONENERGY: 50
FORMULA: C28H34O14
RETENTIONTIME: 5.356184
IONMODE: Negative
Comment: registered in RIKEN PlaSMA
Num Peaks: 173
83.01284	46
89.02751	6
97.02975	13
107.01189	101
108.01978	38
109.02656	12
111.00367	8
115.88139	5
119.01517	13
119.04803	22
119.87914	6
120.01762	26
120.06102	8
120.44952	5
121.18954	10
124.00832	13
125.02406	20
131.00197	7
131.01485	22
132.01579	9
132.05241	7
133.02638	22
133.03479	16
133.06567	13
135.00764	26
136.01694	165
137.01874	33
138.01405	6
138.02689	9
144.05736	9
145.02756	6
148.01295	8
148.38708	6
149.10652	6
150.03094	7
150.03685	17
151.00212	503
151.99921	6
152.0078	14
157.03026	8
158.03705	6
159.04323	14
159.04944	19
160.05037	24
163.00275	14
163.12645	12
164.01079	1000
165.01445	104
166.01112	18
166.02174	15
168.45403	6
170.0779	22
171.0545	6
171.08167	15
172.05408	6
173.02679	7
175.00323	123
175.0753	110
176.07816	14
177.00871	8
177.02306	33
178.01976	6
178.02634	9
179.04079	8
179.082	6
183.04228	11
183.06755	6
184.04634	19
184.05556	14
184.08325	7
185.06824	7
186.02274	5
186.03426	33
187.03506	29
188.00572	19
188.03035	7
188.05121	12
189.00978	8
190.01639	7
193.00995	6
193.07242	6
197.05797	82
198.06961	131
198.0778	32
199.06908	9
199.08267	20
200.04137	19
200.07382	6
201.03033	7
201.05569	123
202.01923	6
202.05962	70
204.0708	9
208.05203	14
209.05811	7
210.06337	8
211.04335	6
211.07851	6
212.07608	7
213.08786	21
214.06219	18
214.09981	6
215.05878	11
215.0743	6
217.08478	59
217.11073	5
218.09062	13
218.10123	6
220.03262	12
222.01173	5
222.05968	8
223.07507	8
225.05095	34
226.06354	102
227.024	15
227.03265	8
227.06552	16
228.04062	20
228.83238	8
229.04898	11
235.81526	10
237.0764	7
238.06122	6
239.07919	5
241.08188	91
241.08971	133
242.05362	6
242.06029	14
242.08815	14
242.10393	16
243.05717	48
243.0672	197
244.06633	18
247.66246	6
248.05086	9
251.56805	7
253.04651	17
255.06017	7
255.07175	26
257.08017	5
266.0636	20
266.08417	5
267.056	15
269.04028	18
269.05511	9
270.05054	255
271.05112	37
272.10477	6
277.0589	5
281.08148	16
283.06119	19
284.07672	9
285.07642	964
286.07764	167
286.09982	8
287.06915	5
287.08206	17
293.05283	7
293.06165	6
293.08466	6
294.0556	24
296.05878	6
299.0733	10
299.08426	8
307.05176	10
309.07321	24
310.06851	8
310.08456	20
311.08578	7
312.06107	7
317.12189	5
469.18042	5
481.75461	9

NAME: isosakuranetin-7-O-rutinoside
PRECURSORMZ: 639.19305865183
PRECURSORTYPE: [M+FA-H]-
INSTRUMENTTYPE: LC-ESI-QTOF
SMILES: COC1=CC=C(C=C1)C1CC(=O)C2=C(O)C=C(OC3OC(COC4OC(C)C(O)C(O)C4O)C(O)C(O)C3O)C=C2O1
INCHIKEY: RMCRQBAILCLJGU-UHFFFAOYNA-N
Ontology: Flavonoid-7-O-glycosides
COLLISIONENERGY: 50
FORMULA: C28H34O14
RETENTIONTIME: 5.356184
IONMODE: Negative
Comment: registered in RIKEN PlaSMA
Num Peaks: 49
73.21223	13
91.19654	15
107.01261	41
108.01888	12
119.05302	20
120.02395	22
136.01314	15
149.0211	13
150.9982	65
159.03961	15
163.0062	29
164.00797	232
174.53596	11
175.00444	13
176.08168	12
182.07469	36
186.02786	14
188.03424	11
201.0081	11
201.05173	19
217.07703	13
217.08939	13
226.05605	13
228.04591	13
229.07393	12
239.06883	22
241.05067	19
241.08682	72
243.06479	71
244.06578	50
244.07773	22
244.51291	16
267.07272	13
269.08542	19
270.05707	106
271.04929	19
272.05347	13
281.08331	12
283.05478	30
284.05872	13
285.0755	1000
286.05792	10
286.07425	222
286.09286	53
287.08337	50
299.08655	36
300.10495	11
309.06729	28
336.06281	13

NAME: Kaempferol
PRECURSORMZ: 285.04046154783
PRECURSORTYPE: [M-H]-
INSTRUMENTTYPE: LC-ESI-QTOF
SMILES: OC1=CC=C(C=C1)C1=C(O)C(=O)C2=C(O)C=C(O)C=C2O1
INCHIKEY: IYRMWMYZSQPJKC-UHFFFAOYSA-N
Ontology: Flavonols
COLLISIONENERGY: 50
FORMULA: C15H10O6
RETENTIONTIME: 5.995067
IONMODE: Negative
Comment: registered in RIKEN PlaSMA
Num Peaks: 46
63.02285	214
64.03227	128
77.03956	60
83.01758	52
91.01701	76
93.03307	151
93.03786	159
94.03678	68
96.0205	52
101.03829	52
107.01201	47
108.01361	109
109.03068	55
114.04041	62
115.05692	104
117.03531	1000
119.04407	65
128.02307	109
129.03824	115
130.04073	60
131.04947	47
132.04974	52
139.0565	60
141.03203	182
141.04327	52
145.02739	174
153.0312	78
154.03885	60
155.05502	52
156.05623	68
157.03271	49
158.03748	302
160.04529	52
161.02403	250
163.00439	55
168.06187	52
171.04279	125
182.03302	224
183.04764	154
184.05602	62
185.02631	109
185.05693	62
212.03325	62
227.03136	117
227.04106	128
255.03413	57

NAME: Daidzein-8-C-glucoside
PRECURSORMZ: 415.10345574783
PRECURSORTYPE: [M-H]-
INSTRUMENTTYPE: LC-ESI-QTOF
SMILES: OCC1OC(C(O)C(O)C1O)C1=C(O)C=CC2=C1OC=C(C2=O)C1=CC=C(O)C=C1
INCHIKEY: HKEAFJYKMMKDOR-UHFFFAOYNA-N
Ontology: Isoflavonoid C-glycosides
COLLISIONENERGY: 10
FORMULA: C21H20O9
RETENTIONTIME: 3.2688
IONMODE: Negative
Comment: registered in RIKEN PlaSMA
Num Peaks: 40
132.02425	5
133.02856	11
160.95648	6
196.04942	5
204.06174	5
205.06633	7
209.05814	8
222.06944	8
223.03838	12
223.06261	6
223.07663	22
224.0468	7
224.05496	7
224.07532	6
237.05292	16
238.06332	8
239.06938	17
249.05954	8
253.05029	22
265.04791	15
266.04919	8
267.06451	810
268.06683	156
268.07758	32
269.06378	5
269.07736	8
277.05045	76
278.05222	14
279.0636	9
279.073	8
295.05978	647
296.06296	143
296.08572	6
297.06351	19
297.07553	10
307.05862	24
325.07297	12
326.07275	5
415.10321	1000
415.13614	6

NAME: Luteolin-8-C-glucoside
PRECURSORMZ: 447.09328504783
PRECURSORTYPE: [M-H]-
INSTRUMENTTYPE: LC-ESI-QTOF
SMILES: OCC1OC(C(O)C(O)C1O)C1=C(O)C=C(O)C2=C1OC(=CC2=O)C1=CC(O)=C(O)C=C1
INCHIKEY: PLAPMLGJVGLZOV-UHFFFAOYNA-N
Ontology: Flavonoid 8-C-glycosides
COLLISIONENERGY: 10
FORMULA: C21H20O11
RETENTIONTIME: 3.7038
IONMODE: Negative
Comment: registered in RIKEN PlaSMA
Num Peaks: 80
121.03223	7
129.03484	6
133.02469	13
143.04944	10
145.02763	10
148.01517	6
148.02248	6
149.0278	21
151.00305	10
162.02643	5
163.0448	9
165.01123	14
165.07323	6
166.02084	6
175.04062	11
177.01866	9
190.99573	9
192.05847	8
193.00752	9
193.99519	5
194.02434	6
195.05862	6
202.43051	7
203.03513	10
211.03735	8
213.05513	9
215.05911	6
224.05138	5
227.04138	12
229.05507	6
230.01714	11
231.08038	5
238.07092	7
239.03157	9
240.03787	11
251.03487	10
251.05832	6
257.0563	7
265.05869	5
267.06821	5
269.03912	5
269.05219	18
278.56506	6
281.0416	9
284.02634	41
284.03751	39
285.03052	23
285.04166	55
286.03488	11
296.0304	5
297.04111	139
298.03976	56
298.05328	82
299.05078	75
299.06427	78
300.04526	9
300.05371	24
300.08197	6
311.05405	34
312.0563	10
312.51974	9
313.02567	7
315.5488	7
325.02914	9
326.02234	6
327.05084	1000
327.0882	6
328.05173	199
329.05038	23
329.06854	14
339.04236	12
357.06152	242
358.06418	42
359.05063	7
359.06332	13
369.05829	17
370.06601	7
445.07303	18
446.08017	43
447.09384	385

NAME: Syringetin-3-O-glucoside
PRECURSORMZ: 507.11441434783
PRECURSORTYPE: [M-H]-
INSTRUMENTTYPE: LC-ESI-QTOF
SMILES: COC1=CC(=CC(OC)=C1O)C1=C(OC2OC(CO)C(O)C(O)C2O)C(=O)C2=C(O)C=C(O)C=C2O1
INCHIKEY: JMFWYRWPJVEZPV-UHFFFAOYNA-N
Ontology: Flavonoid-3-O-glycosides
COLLISIONENERGY: 10
FORMULA: C23H24O13
RETENTIONTIME: 4.373384
IONMODE: Negative
Comment: registered in RIKEN PlaSMA
Num Peaks: 45
150.99698	6
151.00648	5
230.01149	5
241.01428	28
242.01909	49
243.02516	7
258.00793	13
258.0181	32
259.01959	11
268.99713	5
269.00882	9
270.02072	20
271.01624	7
272.01373	8
272.03201	8
273.03918	116
274.03754	10
286.00537	20
286.01578	16
287.00793	5
287.02115	8
287.05008	14
287.06058	17
288.06152	10
301.03598	93
302.02448	11
302.04092	34
315.00357	11
315.01694	12
316.05222	37
316.07092	9
317.05536	6
329.01599	15
329.03024	62
330.02942	19
330.04398	20
343.03857	6
344.0528	341
345.05872	152
346.05566	17
346.07083	10
359.06967	6
387.05609	8
387.07349	8
507.11383	1000

NAME: isosakuranetin-7-O-rutinoside
PRECURSORMZ: 593.18757934783
PRECURSORTYPE: [M-H]-
INSTRUMENTTYPE: LC-ESI-QTOF
SMILES: COC1=CC=C(C=C1)C1CC(=O)C2=C(O)C=C(OC3OC(COC4OC(C)C(O)C(O)C4O)C(O)C(O)C3O)C=C2O1
INCHIKEY: RMCRQBAILCLJGU-UHFFFAOYNA-N
Ontology: Flavonoid-7-O-glycosides
COLLISIONENERGY: 10
FORMULA: C28H34O14
RETENTIONTIME: 5.356184
IONMODE: Negative
Comment: registered in RIKEN PlaSMA
Num Peaks: 18
151.00197	11
164.01036	26
165.01082	5
241.0842	13
242.0818	8
243.06058	13
255.0681	6
270.05127	34
283.05069	5
285.07501	1000
286.07822	208
287.07562	19
287.08862	7
309.07025	29
309.08124	29
310.07904	14
327.08371	27
593.18524	553

NAME: isosakuranetin-7-O-rutinoside
PRECURSORMZ: 639.19305865183
PRECURSORTYPE: [M+FA-H]-
INSTRUMENTTYPE: LC-ESI-QTOF
SMILES: COC1=CC=C(C=C1)C1CC(=O)C2=C(O)C=C(OC3OC(COC4OC(C)C(O)C(O)C4O)C(O)C(O)C3O)C=C2O1
INCHIKEY: RMCRQBAILCLJGU-UHFFFAOYNA-N
Ontology: Flavonoid-7-O-glycosides
COLLISIONENERGY: 10
FORMULA: C28H34O14
RETENTIONTIME: 5.356184
IONMODE: Negative
Comment: registered in RIKEN PlaSMA
Num Peaks: 42
58.26815	7
85.02994	7
141.53174	8
143.10843	5
151.00302	8
163.06058	8
163.99831	9
164.01306	21
164.02246	14
165.00975	7
175.00818	12
199.05927	5
222.11508	5
241.08635	6
241.83269	9
270.04422	7
270.05643	9
281.26266	6
285.07587	1000
285.25095	6
286.08078	128
287.07581	48
307.68024	7
309.06622	6
309.07611	7
310.07715	8
327.08273	22
328.08353	7
339.08496	7
351.08081	6
354.1889	6
575.1698	6
592.58264	7
593.1889	656
594.1889	177
594.94202	5
595.19501	39
596.18243	14
596.21301	6
639.16125	7
639.19397	34
639.23346	5

NAME: 2-Methoxycinnamic acid
PRECURSORMZ: 177.05571774783
PRECURSORTYPE: [M-H]-
INSTRUMENTTYPE: LC-ESI-QTOF
SMILES: COC1=CC=CC=C1C=CC(O)=O
INCHIKEY: FEGVSPGUHMGGBO-UHFFFAOYSA-N
Ontology: Coumaric acids
COLLISIONENERGY: 10
FORMULA: C10H10O3
RETENTIONTIME: 6.11525
IONMODE: Negative
Comment: registered in RIKEN PlaSMA
Num Peaks: 5
103.05272	1000
131.04716	440
133.05991	690
133.06947	571
177.05493	560

NAME: Kaempferol
PRECURSORMZ: 285.04046154783
PRECURSORTYPE: [M-H]-
INSTRUMENTTYPE: LC-ESI-QTOF
SMILES: OC1=CC=C(C=C1)C1=C(O)C(=O)C2=C(O)C=C(O)C=C2O1
INCHIKEY: IYRMWMYZSQPJKC-UHFFFAOYSA-N
Ontology: Flavonols
COLLISIONENERGY: 10
FORMULA: C15H10O6
RETENTIONTIME: 5.995067
IONMODE: Negative
Comment: registered in RIKEN PlaSMA
Num Peaks: 35
93.03564	9
107.01392	8
108.02	10
109.03062	6
121.02702	5
131.04938	9
135.00694	6
151.00293	20
154.03976	11
155.04842	5
157.03069	8
157.06587	6
158.03716	7
159.0451	11
161.02229	7
167.04782	11
169.06046	10
171.0459	12
182.03043	5
184.05191	7
185.05971	20
187.03807	17
195.0459	5
210.0316	6
211.03442	11
211.04431	8
213.05322	7
215.02875	5
229.04822	12
240.03011	7
255.02428	5
255.03337	7
257.04352	18
285.03903	1000
285.08588	5

NAME: Daidzein-8-C-glucoside
PRECURSORMZ: 415.10345574783
PRECURSORTYPE: [M-H]-
INSTRUMENTTYPE: LC-ESI-QTOF
SMILES: OCC1OC(C(O)C(O)C1O)C1=C(O)C=CC2=C1OC=C(C2=O)C1=CC=C(O)C=C1
INCHIKEY: HKEAFJYKMMKDOR-UHFFFAOYNA-N
Ontology: Isoflavonoid C-glycosides
COLLISIONENERGY: 10
FORMULA: C21H20O9
RETENTIONTIME: 3.2688
IONMODE: Negative
Comment: registered in RIKEN PlaSMA
Num Peaks: 4
267.06378	5
295.05966	126
296.06262	27
415.10223	1000

NAME: Luteolin-8-C-glucoside
PRECURSORMZ: 447.09328504783
PRECURSORTYPE: [M-H]-
INSTRUMENTTYPE: LC-ESI-QTOF
SMILES: OCC1OC(C(O)C(O)C1O)C1=C(O)C=C(O)C2=C1OC(=CC2=O)C1=CC(O)=C(O)C=C1
INCHIKEY: PLAPMLGJVGLZOV-UHFFFAOYNA-N
Ontology: Flavonoid 8-C-glycosides
COLLISIONENERGY: 10
FORMULA: C21H20O11
RETENTIONTIME: 3.7038
IONMODE: Negative
Comment: registered in RIKEN PlaSMA
Num Peaks: 19
297.04718	6
313.03815	14
327.05063	531
328.05206	74
329.06314	16
352.85431	5
357.0611	199
357.08359	9
358.05676	18
358.06973	34
369.06372	5
370.05652	7
393.06125	8
411.07642	7
430.07556	5
445.06848	11
445.09058	15
446.08331	69
447.09314	1000

NAME: Syringetin-3-O-glucoside
PRECURSORMZ: 507.11441434783
PRECURSORTYPE: [M-H]-
INSTRUMENTTYPE: LC-ESI-QTOF
SMILES: COC1=CC(=CC(OC)=C1O)C1=C(OC2OC(CO)C(O)C(O)C2O)C(=O)C2=C(O)C=C(O)C=C2O1
INCHIKEY: JMFWYRWPJVEZPV-UHFFFAOYNA-N
Ontology: Flavonoid-3-O-glycosides
COLLISIONENERGY: 10
FORMULA: C23H24O13
RETENTIONTIME: 4.373384
IONMODE: Negative
Comment: registered in RIKEN PlaSMA
Num Peaks: 3
344.0502	15
345.05566	18
507.11414	1000

NAME: isosakuranetin-7-O-rutinoside
PRECURSORMZ: 593.18757934783
PRECURSORTYPE: [M-H]-
INSTRUMENTTYPE: LC-ESI-QTOF
SMILES: COC1=CC=C(C=C1)C1CC(=O)C2=C(O)C=C(OC3OC(COC4OC(C)C(O)C(O)C4O)C(O)C(O)C3O)C=C2O1
INCHIKEY: RMCRQBAILCLJGU-UHFFFAOYNA-N
Ontology: Flavonoid-7-O-glycosides
COLLISIONENERGY: 10
FORMULA: C28H34O14
RETENTIONTIME: 5.356184
IONMODE: Negative
Comment: registered in RIKEN PlaSMA
Num Peaks: 3
285.0769	258
286.07996	56
593.18781	1000

NAME: 2-Methoxycinnamic acid
PRECURSORMZ: 177.05571774783
PRECURSORTYPE: [M-H]-
INSTRUMENTTYPE: LC-ESI-QTOF
SMILES: COC1=CC=CC=C1C=CC(O)=O
INCHIKEY: FEGVSPGUHMGGBO-UHFFFAOYSA-N
Ontology: Coumaric acids
COLLISIONENERGY: 10
FORMULA: C10H10O3
RETENTIONTIME: 6.11525
IONMODE: Negative
Comment: registered in RIKEN PlaSMA
Num Peaks: 14
103.05481	209
117.02573	45
117.03348	154
131.04791	78
133.06352	1000
134.06061	78
134.06702	101
145.01949	67
145.02766	134
159.89384	56
161.89107	64
176.84808	179
177.05042	176
177.05949	212

NAME: Kaempferol
PRECURSORMZ: 285.04046154783
PRECURSORTYPE: [M-H]-
INSTRUMENTTYPE: LC-ESI-QTOF
SMILES: OC1=CC=C(C=C1)C1=C(O)C(=O)C2=C(O)C=C(O)C=C2O1
INCHIKEY: IYRMWMYZSQPJKC-UHFFFAOYSA-N
Ontology: Flavonols
COLLISIONENERGY: 10
FORMULA: C15H10O6
RETENTIONTIME: 5.995067
IONMODE: Negative
Comment: registered in RIKEN PlaSMA
Num Peaks: 2
151.00029	12
285.03952	1000

NAME: Daidzein-8-C-glucoside
PRECURSORMZ: 415.10345574783
PRECURSORTYPE: [M-H]-
INSTRUMENTTYPE: LC-ESI-QTOF
SMILES: OCC1OC(C(O)C(O)C1O)C1=C(O)C=CC2=C1OC=C(C2=O)C1=CC=C(O)C=C1
INCHIKEY: HKEAFJYKMMKDOR-UHFFFAOYNA-N
Ontology: Isoflavonoid C-glycosides
COLLISIONENERGY: 30
FORMULA: C21H20O9
RETENTIONTIME: 3.2688
IONMODE: Negative
Comment: registered in RIKEN PlaSMA
Num Peaks: 22
133.02798	12
208.05147	5
222.06598	7
223.07323	22
224.04388	9
237.05595	7
238.05833	7
239.07309	8
253.05077	39
265.0499	13
266.05664	11
267.06522	1000
268.06754	221
269.06772	13
269.07956	11
277.04919	101
278.05325	17
279.06833	13
293.04523	9
295.06039	203
296.06403	34
307.06183	29

NAME: Luteolin-8-C-glucoside
PRECURSORMZ: 447.09328504783
PRECURSORTYPE: [M-H]-
INSTRUMENTTYPE: LC-ESI-QTOF
SMILES: OCC1OC(C(O)C(O)C1O)C1=C(O)C=C(O)C2=C1OC(=CC2=O)C1=CC(O)=C(O)C=C1
INCHIKEY: PLAPMLGJVGLZOV-UHFFFAOYNA-N
Ontology: Flavonoid 8-C-glycosides
COLLISIONENERGY: 30
FORMULA: C21H20O11
RETENTIONTIME: 3.7038
IONMODE: Negative
Comment: registered in RIKEN PlaSMA
Num Peaks: 161
83.01039	8
105.03298	7
109.02959	11
125.20998	10
133.02583	52
133.03461	28
134.02969	13
135.04169	9
143.08342	12
145.02902	5
147.04192	47
148.01547	16
148.04741	11
151.04068	7
155.09145	6
160.00896	8
161.02242	9
162.02551	12
162.99956	21
163.03703	47
164.01759	9
165.01752	55
165.03197	6
173.15916	8
174.02553	6
175.03069	14
175.03712	30
175.04755	21
175.07889	6
177.01207	5
177.01797	10
177.05154	6
178.99492	7
179.03568	24
181.0571	5
189.01738	6
190.02959	6
190.99101	5
191.02979	58
191.04761	10
192.04037	7
193.00298	7
193.01949	10
193.07219	7
193.42912	7
195.04544	8
197.02174	13
197.05655	7
199.03351	12
199.0423	19
201.02048	11
203.03616	13
205.01666	9
205.05455	5
211.03427	5
211.07306	5
212.04149	6
212.04961	5
212.07477	6
213.0428	15
213.05586	6
215.02917	12
215.04715	7
217.04729	6
217.05502	13
221.0352	6
223.08354	7
225.04845	9
226.97324	13
227.03384	17
227.06593	8
227.13609	7
229.04259	5
230.04178	5
230.69174	7
231.02737	7
231.05859	7
231.07445	6
233.06262	6
234.03545	5
239.03157	5
240.03542	12
240.05238	5
241.04019	17
242.01067	6
242.02435	6
242.05063	7
243.02153	13
243.05464	14
251.03812	8
253.03593	8
253.04874	16
254.06702	7
255.03136	21
255.0533	7
255.06511	30
256.02826	10
257.03598	6
261.37604	5
265.05548	7
267.03281	6
269.04193	34
270.05679	6
281.04916	5
282.05423	5
283.0531	23
283.06784	5
284.03372	166
284.0546	7
285.01901	14
285.04111	181
286.02979	8
286.04422	14
287.02472	7
287.06357	7
293.03305	5
295.06064	8
295.30603	5
297.0289	93
297.03949	373
297.07928	5
298.04456	255
298.991	8
299.05606	531
299.39041	5
300.05832	82
301.05493	10
302.05515	5
309.03708	17
311.05408	106
312.05618	12
312.07022	6
313.04675	6
314.03619	6
324.02182	35
324.0383	5
325.02414	6
325.04013	18
326.04715	6
327.05005	1000
327.08932	6
328.05322	178
329.04172	9
329.05219	12
329.06564	19
330.06592	6
337.03784	8
337.06094	8
338.08243	6
339.04092	38
339.05707	28
340.04349	16
355.08368	5
357.02795	6
357.05826	103
357.07663	37
358.04056	5
369.04865	6
369.0636	20
393.05847	6
418.09982	12

NAME: Syringetin-3-O-glucoside
PRECURSORMZ: 507.11441434783
PRECURSORTYPE: [M-H]-
INSTRUMENTTYPE: LC-ESI-QTOF
SMILES: COC1=CC(=CC(OC)=C1O)C1=C(OC2OC(CO)C(O)C(O)C2O)C(=O)C2=C(O)C=C(O)C=C2O1
INCHIKEY: JMFWYRWPJVEZPV-UHFFFAOYNA-N
Ontology: Flavonoid-3-O-glycosides
COLLISIONENERGY: 30
FORMULA: C23H24O13
RETENTIONTIME: 4.373384
IONMODE: Negative
Comment: registered in RIKEN PlaSMA
Num Peaks: 64
135.03877	5
151.00012	32
151.00861	12
152.00864	7
153.01242	9
153.02087	7
169.01688	6
178.99586	6
180.00517	6
202.02509	9
234.05196	13
241.01219	47
242.02165	88
243.0361	26
257.01483	6
258.01257	65
258.02261	22
259.0162	16
269.00671	37
270.0173	25
270.03256	5
271.01395	6
271.02759	8
272.02475	9
272.03781	6
273.03857	419
274.00589	6
274.04462	48
283.13461	5
285.00339	7
285.03894	6
286.01004	47
287.01923	13
287.05453	135
288.06296	9
299.01413	6
300.06165	7
301.03467	294
302.02921	26
302.04395	20
303.04102	18
315.01437	23
315.0527	39
316.01257	8
316.05756	187
316.08023	8
317.05338	32
317.0687	13
319.08752	6
329.02863	158
329.05954	12
330.03598	111
331.04062	18
332.05219	6
343.0491	24
344.05273	1000
345.05878	341
346.06049	47
347.07007	9
357.05579	5
359.07654	6
387.06796	17
417.07257	6
507.11472	58

NAME: isosakuranetin-7-O-rutinoside
PRECURSORMZ: 593.18757934783
PRECURSORTYPE: [M-H]-
INSTRUMENTTYPE: LC-ESI-QTOF
SMILES: COC1=CC=C(C=C1)C1CC(=O)C2=C(O)C=C(OC3OC(COC4OC(C)C(O)C(O)C4O)C(O)C(O)C3O)C=C2O1
INCHIKEY: RMCRQBAILCLJGU-UHFFFAOYNA-N
Ontology: Flavonoid-7-O-glycosides
COLLISIONENERGY: 30
FORMULA: C28H34O14
RETENTIONTIME: 5.356184
IONMODE: Negative
Comment: registered in RIKEN PlaSMA
Num Peaks: 16
151.00362	10
164.01115	14
241.08324	13
242.08696	9
243.06731	11
255.06647	6
270.04834	11
285.07446	1000
286.07837	203
287.08426	17
288.08536	8
299.09381	15
309.07443	82
310.08243	14
327.08621	52
328.0845	5

NAME: isosakuranetin-7-O-rutinoside
PRECURSORMZ: 639.19305865183
PRECURSORTYPE: [M+FA-H]-
INSTRUMENTTYPE: LC-ESI-QTOF
SMILES: COC1=CC=C(C=C1)C1CC(=O)C2=C(O)C=C(OC3OC(COC4OC(C)C(O)C(O)C4O)C(O)C(O)C3O)C=C2O1
INCHIKEY: RMCRQBAILCLJGU-UHFFFAOYNA-N
Ontology: Flavonoid-7-O-glycosides
COLLISIONENERGY: 30
FORMULA: C28H34O14
RETENTIONTIME: 5.356184
IONMODE: Negative
Comment: registered in RIKEN PlaSMA
Num Peaks: 22
112.53156	7
150.99934	6
197.85764	5
241.08478	13
243.06729	6
285.07477	1000
285.12134	7
286.08191	129
287.07684	19
287.09299	6
309.06439	22
309.07806	23
310.07745	7
327.08752	25
339.095	10
449.69662	6
529.17596	6
575.21289	6
593.18384	18
593.20599	6
594.19025	6
611.9126	6

NAME: Kaempferol
PRECURSORMZ: 285.04046154783
PRECURSORTYPE: [M-H]-
INSTRUMENTTYPE: LC-ESI-QTOF
SMILES: OC1=CC=C(C=C1)C1=C(O)C(=O)C2=C(O)C=C(O)C=C2O1
INCHIKEY: IYRMWMYZSQPJKC-UHFFFAOYSA-N
Ontology: Flavonols
COLLISIONENERGY: 30
FORMULA: C15H10O6
RETENTIONTIME: 5.995067
IONMODE: Negative
Comment: registered in RIKEN PlaSMA
Num Peaks: 204
53.64627	30
63.01734	23
63.0237	138
65.00063	87
79.01598	29
81.03125	30
83.00649	21
83.01234	136
89.03407	28
91.0163	69
92.0276	134
92.9914	21
93.03376	577
93.999	28
95.01176	82
95.01649	36
95.03555	41
96.01356	29
101.03481	23
103.05641	35
105.02984	74
105.04145	29
106.91168	22
107.01111	325
108.01707	199
108.02193	186
109.02617	295
109.77622	30
114.21191	23
115.0498	27
115.0566	50
117.03434	368
118.03796	82
119.01536	103
119.03259	32
119.0475	151
119.05638	27
120.01946	56
120.05084	28
121.02718	91
122.04163	23
123.00461	23
123.01289	49
123.04446	29
127.05532	27
129.02907	53
129.07025	36
129.22562	27
130.03571	56
130.0443	63
131.04852	290
131.05675	43
132.01704	55
132.04842	74
133.02873	240
133.05046	29
133.06554	34
134.47523	27
134.58742	28
135.00546	229
135.01219	118
135.04396	41
136.01215	91
136.01709	220
137.0242	229
137.06932	25
139.05698	30
141.06625	87
142.65337	33
143.0491	570
143.063	21
143.07704	22
144.05334	30
145.02748	634
145.03323	188
145.05342	39
145.06534	101
146.02896	45
146.0379	76
147.00667	54
147.03635	29
148.9864	23
151.00166	299
151.03708	47
154.04053	239
154.04692	95
155.05344	245
155.70155	21
156.05229	267
157.02805	125
157.03471	98
157.06281	280
157.7392	29
157.79567	21
158.02614	86
158.03822	365
158.06693	116
158.07652	30
159.0428	1000
160.01619	25
160.04495	156
161.01775	130
161.02409	219
161.05511	33
161.06577	30
162.02908	73
163.00172	161
163.03909	28
164.00955	333
165.01758	170
167.04623	209
167.05771	36
168.05644	168
168.06757	23
169.02876	84
169.06299	234
171.02126	28
171.0435	271
172.04382	47
172.05577	61
173.02165	121
173.05455	73
174.02165	25
174.03156	87
174.07216	27
175.03796	82
175.04391	29
179.04463	27
180.04938	41
181.0293	33
182.03123	113
182.04294	25
183.04442	401
183.06177	23
184.0432	122
184.05769	195
185.02502	53
185.05214	199
185.06082	413
186.05219	22
186.06517	49
187.03865	587
188.04163	117
188.06332	23
190.06323	27
190.99287	91
190.99892	33
191.0403	39
191.99846	90
192.00824	32
193.02068	25
195.03389	40
195.04219	22
196.04861	87
196.06279	25
196.19124	38
196.47595	26
198.03206	60
199.03897	40
200.04308	38
201.04916	80
201.05898	109
202.03001	39
202.05948	63
210.03053	74
211.03682	481
211.04906	111
212.03569	118
212.05008	40
213.00871	48
213.02284	76
213.04677	95
214.01715	86
214.02759	159
215.03517	28
216.03256	23
219.03279	32
220.02745	27
221.03796	39
227.03134	728
227.11804	22
228.03448	34
228.04695	69
229.05492	185
230.24271	46
238.02827	27
239.01891	22
239.03339	325
240.02943	144
240.05324	32
241.0484	83
243.02628	127
243.03665	43
255.02824	374
256.03036	53
256.04065	129
257.03662	32
266.0322	25
267.03152	186
268.03534	174
269.0415	36
279.2204	21
284.04147	21
285.04108	947

NAME: Daidzein-8-C-glucoside
PRECURSORMZ: 415.10345574783
PRECURSORTYPE: [M-H]-
INSTRUMENTTYPE: LC-ESI-QTOF
SMILES: OCC1OC(C(O)C(O)C1O)C1=C(O)C=CC2=C1OC=C(C2=O)C1=CC=C(O)C=C1
INCHIKEY: HKEAFJYKMMKDOR-UHFFFAOYNA-N
Ontology: Isoflavonoid C-glycosides
COLLISIONENERGY: 50
FORMULA: C21H20O9
RETENTIONTIME: 3.2688
IONMODE: Negative
Comment: registered in RIKEN PlaSMA
Num Peaks: 182
51.15964	21
59.00922	16
67.01968	9
78.04665	17
89.00638	13
89.04067	29
90.04375	9
91.01968	18
93.03207	20
95.00992	14
103.01171	14
103.01982	12
104.02925	33
105.0332	230
106.03203	10
106.03941	41
106.16695	9
116.02666	12
117.0306	123
117.03606	71
118.0359	43
119.04683	20
119.05208	42
120.0187	11
120.05669	22
121.02865	15
129.04025	10
130.04454	41
131.01357	17
131.0457	11
132.02026	325
133.02786	739
134.03104	14
134.03822	9
135.00217	11
135.01068	34
135.01454	12
135.03694	24
143.04289	13
143.05159	9
145.02039	26
145.02855	43
145.04164	10
146.0265	10
146.03648	41
147.03654	10
148.04254	10
149.02187	119
150.17285	12
151.05669	12
151.78618	14
155.05032	17
158.02797	16
158.04034	14
160.48799	13
161.01857	10
164.05055	10
165.07248	15
167.04486	24
167.05484	12
167.08693	9
168.04845	16
169.05991	16
169.06786	29
169.07355	10
170.06787	10
170.78197	27
172.08533	13
173.02048	14
173.03188	18
174.0303	14
174.03966	16
175.11813	9
176.06609	15
177.07048	9
178.08319	11
180.05653	80
181.06459	79
182.02863	15
182.05768	14
182.07349	39
183.0387	16
183.05182	22
184.02148	26
184.80339	10
187.03297	17
191.05208	13
191.09105	11
192.05519	10
193.06213	246
194.05867	10
194.07246	162
195.04071	104
195.07639	70
196.05215	172
196.08136	13
196.09297	12
197.05072	10
197.18431	16
198.06279	10
200.00528	9
203.04907	17
204.05711	41
205.06488	41
208.05534	204
208.27155	12
209.05927	382
210.05914	24
210.06915	59
211.03853	23
211.06259	9
211.07278	20
211.08249	25
212.04414	12
212.07364	17
212.08418	25
219.05013	21
220.04103	9
220.05667	30
221.05673	233
221.06494	109
221.08882	11
222.06757	758
222.229	9
222.41499	17
223.03134	66
223.04198	181
223.07155	445
224.04668	387
224.07033	30
224.08047	37
225.05141	103
225.07791	12
228.52184	14
233.0507	10
234.0873	21
235.0442	24
235.07066	23
236.03249	13
236.05156	46
236.10191	14
236.11519	18
237.0531	386
238.05562	73
238.0634	106
239.06775	261
239.07941	63
239.65192	9
240.06921	11
240.46046	15
240.93292	9
247.04144	39
248.04517	43
248.15259	9
249.05475	75
251.04005	62
252.03818	42
253.04718	94
255.06244	10
260.04846	10
260.05753	11
264.0455	10
265.05185	15
265.06268	23
266.05444	43
266.06735	22
267.06506	1000
268.06421	77
268.07181	144
269.07333	33
269.08597	34
270.07001	14
275.03308	9
277.03659	17
277.05511	34
278.04816	32
279.05045	17
279.0654	10
293.07397	11
293.10303	16
308.06305	9
380.25244	11

NAME: Luteolin-8-C-glucoside
PRECURSORMZ: 447.09328504783
PRECURSORTYPE: [M-H]-
INSTRUMENTTYPE: LC-ESI-QTOF
SMILES: OCC1OC(C(O)C(O)C1O)C1=C(O)C=C(O)C2=C1OC(=CC2=O)C1=CC(O)=C(O)C=C1
INCHIKEY: PLAPMLGJVGLZOV-UHFFFAOYNA-N
Ontology: Flavonoid 8-C-glycosides
COLLISIONENERGY: 50
FORMULA: C21H20O11
RETENTIONTIME: 3.7038
IONMODE: Negative
Comment: registered in RIKEN PlaSMA
Num Peaks: 169
68.99641	32
69.03542	19
69.03889	16
77.03917	46
79.01924	66
81.03418	17
92.02308	17
93.02969	33
95.01244	22
97.02301	15
104.01655	18
105.03228	20
107.00789	47
107.04539	19
108.01682	55
109.02889	51
109.03513	20
111.01141	17
113.05575	17
115.05983	19
119.01099	19
119.01979	19
119.04655	31
121.0265	43
122.0322	50
123.00648	24
125.01427	42
125.02414	52
129.02986	32
130.03947	23
131.0502	16
132.01672	22
132.0226	18
133.02803	1000
133.04605	22
134.03532	195
135.00368	19
135.01187	20
135.03365	64
135.04323	114
137.02582	43
143.04774	15
144.01892	20
145.03033	43
146.03165	31
147.00874	20
148.01294	15
149.01797	28
149.02647	42
150.99678	28
151.0034	25
151.03748	84
151.63457	21
153.06682	18
155.04984	19
155.09058	19
157.06503	18
158.03516	19
159.04881	17
161.01854	67
161.02467	62
161.98888	13
162.03122	14
162.99789	51
163.00389	170
163.02995	41
163.04208	100
164.006	51
165.01888	19
167.04422	14
168.05428	13
169.06184	37
171.04439	17
172.03818	33
172.05157	24
174.02544	14
175.00284	25
175.03419	173
176.01904	20
179.04938	25
181.0591	33
183.04233	74
184.0498	15
185.02098	18
186.02505	17
187.01001	19
187.03615	13
187.08038	17
188.05582	22
189.04303	27
193.01294	29
195.04024	19
196.03883	13
196.04912	40
197.02596	25
197.06073	75
199.03035	22
199.03925	34
199.08202	16
200.04408	16
201.01131	104
201.01997	55
201.04417	18
201.0535	21
202.01669	20
202.0554	13
203.03685	18
209.05544	37
210.02806	16
210.03722	20
211.03171	43
211.04678	69
212.0396	29
213.04916	14
213.05774	23
213.08168	20
214.02145	13
214.06374	20
215.03587	17
217.06226	15
223.0383	22
224.04771	64
225.04585	13
225.05602	63
227.02966	58
227.06393	16
228.02901	19
228.03943	21
229.04045	14
229.05272	16
231.06592	18
238.01947	45
238.06322	21
239.03278	28
240.04089	28
241.04683	75
244.0731	16
253.04951	73
253.0634	13
255.01939	19
255.03461	21
255.05585	21
256.03564	61
257.04346	15
266.06207	22
269.03168	45
269.04971	43
270.05103	31
271.06494	55
279.02759	25
281.05103	41
281.69269	20
282.04755	16
283.01968	27
283.0293	19
284.02689	173
285.03699	13
285.05444	18
286.03622	16
297.03198	15
297.04562	75
298.03555	105
298.05453	19
299.05493	123
300.05313	15
328.04602	16
330.15594	22
385.69397	15
447.09589	15

NAME: Syringetin-3-O-glucoside
PRECURSORMZ: 507.11441434783
PRECURSORTYPE: [M-H]-
INSTRUMENTTYPE: LC-ESI-QTOF
SMILES: COC1=CC(=CC(OC)=C1O)C1=C(OC2OC(CO)C(O)C(O)C2O)C(=O)C2=C(O)C=C(O)C=C2O1
INCHIKEY: JMFWYRWPJVEZPV-UHFFFAOYNA-N
Ontology: Flavonoid-3-O-glycosides
COLLISIONENERGY: 50
FORMULA: C23H24O13
RETENTIONTIME: 4.373384
IONMODE: Negative
Comment: registered in RIKEN PlaSMA
Num Peaks: 147
84.01385	7
119.04759	5
125.38456	6
127.24556	5
130.03845	8
131.04546	6
135.01849	16
138.02618	5
142.04199	6
143.05319	8
146.03104	6
146.03848	15
148.01663	7
150.02611	7
151.00322	28
155.04498	6
158.03883	10
159.00262	7
159.04901	7
162.95825	7
162.99536	8
163.02852	6
171.04433	5
172.50566	9
174.03011	118
174.0414	15
175.02945	14
175.03902	13
176.00882	5
178.02827	6
183.04535	7
185.01743	14
185.02821	21
185.96112	7
186.02228	21
186.0321	25
187.04248	7
190.02458	11
192.00656	5
197.01903	9
198.02821	8
198.04398	8
198.38531	7
199.03789	26
200.01041	10
200.04454	5
201.01501	22
202.00586	9
202.02684	203
203.02916	18
203.03955	21
204.0334	7
211.03773	6
213.00999	24
213.01985	82
214.02646	60
214.03427	21
215.03221	35
216.03709	7
217.01065	7
217.0213	14
217.04462	11
218.01701	11
223.88986	8
226.01733	6
226.02664	8
226.03696	5
226.99268	5
227.03598	31
229.00824	54
229.05087	8
230.00966	24
230.0219	155
230.03372	45
230.82619	7
231.02666	44
231.21393	7
232.66293	7
233.03932	7
237.21063	7
237.46175	5
241.0153	318
242.02122	1000
242.04456	9
242.50429	6
243.02675	181
243.3968	12
244.01126	7
244.02515	27
244.03865	5
245.03	7
247.64767	7
251.66228	6
254.02223	13
256.04626	5
257.00845	123
257.02353	11
257.04013	13
258.01654	812
259.02145	152
260.02054	44
260.07181	17
267.6554	7
269.01068	36
270.0144	240
270.03738	7
271.00931	10
271.02536	85
272.03323	129
273.03909	130
273.33069	7
274.02985	12
274.04413	19
274.06705	6
283.03802	6
285.00299	8
285.01944	6
286.01303	543
287.00153	8
287.01855	126
287.05603	44
288.02164	14
288.05847	8
289.01297	6
289.05917	7
297.99341	7
298.017	13
299.02176	36
299.54764	5
300.02469	30
300.03876	12
301.03281	175
302.02826	6
302.04303	12
305.60828	5
311.30832	9
314.0083	33
314.02521	7
315.01694	55
315.04004	5
316.06961	5
317.05219	8
329.02792	7
329.04092	30
330.03665	5
331.03006	8
333.0372	7

NAME: isosakuranetin-7-O-rutinoside
PRECURSORMZ: 593.18757934783
PRECURSORTYPE: [M-H]-
INSTRUMENTTYPE: LC-ESI-QTOF
SMILES: COC1=CC=C(C=C1)C1CC(=O)C2=C(O)C=C(OC3OC(COC4OC(C)C(O)C(O)C4O)C(O)C(O)C3O)C=C2O1
INCHIKEY: RMCRQBAILCLJGU-UHFFFAOYNA-N
Ontology: Flavonoid-7-O-glycosides
COLLISIONENERGY: 50
FORMULA: C28H34O14
RETENTIONTIME: 5.356184
IONMODE: Negative
Comment: registered in RIKEN PlaSMA
Num Peaks: 177
58.29285	5
66.00457	5
73.04742	9
83.01042	15
83.01489	21
84.01353	7
85.02482	5
86.00257	5
93.0318	12
97.02779	6
107.00732	15
107.01208	38
108.01971	70
108.0263	15
115.03826	9
117.03416	6
119.04909	43
120.02168	15
121.99722	5
122.00397	12
122.75179	6
124.01194	10
124.01831	15
125.02669	31
126.03074	9
127.97103	5
130.03973	5
131.01587	17
133.02528	17
133.02977	7
136.01434	179
137.02371	16
138.03185	11
145.02687	18
149.01701	6
149.02419	15
150.02818	5
151.00197	515
152.0047	54
156.05345	7
156.05956	5
157.05885	5
158.04109	5
160.05457	33
162.99402	12
163.00435	29
163.50804	6
163.97392	6
164.01009	1000
164.02971	5
164.04396	6
165.01282	95
166.01207	6
169.06877	13
171.05006	6
172.03592	7
172.05368	10
172.82489	8
173.05429	5
174.24385	6
175.00223	111
175.07539	135
176.01057	6
177.01428	10
177.02248	15
177.05301	6
182.06775	6
182.07484	5
183.03477	6
183.04292	6
183.05972	6
184.04263	7
184.05357	17
185.05754	6
186.02878	62
187.03465	49
187.04298	16
187.99852	6
188.00816	30
188.04649	28
189.02255	8
190.02626	6
191.03523	6
191.84253	6
195.08334	9
197.06068	34
197.08717	7
198.06898	79
199.07381	68
200.07986	8
200.08914	7
201.05545	107
201.07489	7
202.05844	28
202.07458	7
203.0686	23
204.06532	5
204.07489	6
205.01019	5
206.02556	8
207.0217	6
208.29506	7
209.05911	6
211.07863	11
213.08655	6
214.05957	8
214.06894	6
214.088	6
214.09531	6
215.07466	11
217.08513	95
220.02679	7
223.07376	10
224.05058	10
225.04944	6
225.05667	14
226.05765	42
226.06667	56
227.03047	13
227.05304	9
228.0368	49
228.07631	18
229.87883	8
236.05617	6
238.05806	6
238.41737	5
239.15662	8
240.03941	10
241.0484	13
241.08441	185
242.04585	10
242.06102	5
242.08913	9
243.06557	197
244.06947	33
244.42186	5
245.06563	5
248.08592	7
249.04718	7
251.07736	6
253.05737	5
255.0284	5
255.07153	10
256.07614	10
257.08688	12
265.04636	14
266.05432	10
267.06412	6
268.04245	8
269.04507	16
269.0535	20
269.07642	6
270.05136	318
270.07977	8
271.05508	61
272.05386	8
276.33853	5
278.09473	8
283.05984	33
284.0636	19
284.07697	12
285.07681	836
286.08093	182
287.07083	6
287.08484	14
293.04291	11
294.03726	5
294.0611	5
295.05908	15
299.09763	16
309.07312	16
309.0853	5
310.08926	8
312.04935	5
319.05991	5
327.08585	13
404.76776	5

NAME: Kaempferol
PRECURSORMZ: 285.04046154783
PRECURSORTYPE: [M-H]-
INSTRUMENTTYPE: LC-ESI-QTOF
SMILES: OC1=CC=C(C=C1)C1=C(O)C(=O)C2=C(O)C=C(O)C=C2O1
INCHIKEY: IYRMWMYZSQPJKC-UHFFFAOYSA-N
Ontology: Flavonols
COLLISIONENERGY: 50
FORMULA: C15H10O6
RETENTIONTIME: 5.995067
IONMODE: Negative
Comment: registered in RIKEN PlaSMA
Num Peaks: 47
65.00667	42
68.02043	70
77.03919	82
79.02042	44
83.01196	51
91.99194	68
92.02562	189
93.03444	298
95.00851	56
101.04224	77
105.03295	47
108.01909	142
109.02055	68
115.05634	47
116.02187	93
117.03345	1000
118.03951	65
119.01049	54
121.03097	110
128.03026	63
129.0386	112
129.06631	91
130.0424	364
131.04337	149
132.01617	117
133.03638	51
141.02739	103
143.04861	47
145.02893	96
147.00786	47
151.05774	42
154.03867	54
155.04469	70
156.02412	56
156.06395	44
160.0123	68
161.02031	138
182.02641	47
182.03592	68
183.04306	198
185.0265	93
185.06853	100
187.04897	77
200.05086	42
213.02008	56
223.03998	105
267.03107	47

NAME: Daidzein-8-C-glucoside
PRECURSORMZ: 415.10345574783
PRECURSORTYPE: [M-H]-
INSTRUMENTTYPE: LC-ESI-QTOF
SMILES: OCC1OC(C(O)C(O)C1O)C1=C(O)C=CC2=C1OC=C(C2=O)C1=CC=C(O)C=C1
INCHIKEY: HKEAFJYKMMKDOR-UHFFFAOYNA-N
Ontology: Isoflavonoid C-glycosides
COLLISIONENERGY: 10
FORMULA: C21H20O9
RETENTIONTIME: 3.2688
IONMODE: Negative
Comment: registered in RIKEN PlaSMA
Num Peaks: 34
133.02579	10
133.03183	6
208.05286	8
209.05876	21
222.06335	10
223.03618	8
223.06001	5
223.06725	19
223.07573	9
224.03824	6
224.04726	21
224.06604	6
237.05243	10
238.06194	16
239.07115	11
253.05002	30
265.0484	21
266.06802	9
267.06519	798
268.069	170
269.07153	20
277.04935	84
278.05655	19
295.06027	686
296.06345	137
297.06519	5
297.07849	9
307.0574	30
309.07199	7
325.06177	8
325.0759	7
338.07031	9
415.10297	1000
415.15189	6

NAME: Luteolin-8-C-glucoside
PRECURSORMZ: 447.09328504783
PRECURSORTYPE: [M-H]-
INSTRUMENTTYPE: LC-ESI-QTOF
SMILES: OCC1OC(C(O)C(O)C1O)C1=C(O)C=C(O)C2=C1OC(=CC2=O)C1=CC(O)=C(O)C=C1
INCHIKEY: PLAPMLGJVGLZOV-UHFFFAOYNA-N
Ontology: Flavonoid 8-C-glycosides
COLLISIONENERGY: 10
FORMULA: C21H20O11
RETENTIONTIME: 3.7038
IONMODE: Negative
Comment: registered in RIKEN PlaSMA
Num Peaks: 69
133.02701	39
135.03871	6
147.04245	14
148.02179	6
161.03003	9
163.00673	5
163.04091	11
165.01762	12
168.55873	6
175.00056	5
175.03687	15
176.04245	6
177.01408	13
191.03352	10
199.03854	7
201.01448	6
210.09587	7
211.03653	5
211.04546	6
213.0499	8
213.05887	5
217.01038	6
225.05779	13
227.0378	16
239.06682	8
240.03235	5
251.03836	10
253.04941	9
254.05225	13
257.04987	6
270.05734	6
271.04984	10
284.03204	51
285.03864	89
297.03729	89
297.58414	5
298.04529	72
299.05246	89
299.07721	9
300.05093	8
300.06592	8
301.0643	6
301.55624	7
311.04279	14
311.06567	28
313.04861	6
313.99817	6
323.90411	6
326.03391	11
327.05252	1000
328.05322	108
329.05154	53
339.05353	17
341.0563	6
357.06168	202
358.06439	18
358.07553	14
359.06891	5
367.08304	7
369.06705	27
370.06894	6
417.08954	5
419.09637	6
429.08655	6
445.0762	9
445.09695	10
446.09122	35
447.09436	338
447.1217	14

NAME: Syringetin-3-O-glucoside
PRECURSORMZ: 507.11441434783
PRECURSORTYPE: [M-H]-
INSTRUMENTTYPE: LC-ESI-QTOF
SMILES: COC1=CC(=CC(OC)=C1O)C1=C(OC2OC(CO)C(O)C(O)C2O)C(=O)C2=C(O)C=C(O)C=C2O1
INCHIKEY: JMFWYRWPJVEZPV-UHFFFAOYNA-N
Ontology: Flavonoid-3-O-glycosides
COLLISIONENERGY: 10
FORMULA: C23H24O13
RETENTIONTIME: 4.373384
IONMODE: Negative
Comment: registered in RIKEN PlaSMA
Num Peaks: 45
125.02468	9
151.00061	15
178.99321	5
219.02939	8
241.00945	24
241.02353	7
242.01862	38
243.02863	24
257.0025	9
258.00659	14
258.01758	35
269.00217	7
270.02209	23
271.01755	7
272.03357	7
273.03857	151
274.043	17
275.04224	9
286.00912	54
287.01926	7
287.05093	30
288.05008	5
288.06439	7
301.03278	122
302.03668	12
303.04239	7
315.01483	34
315.05255	14
316.05515	39
316.07352	9
317.05798	9
329.03149	48
329.0451	19
330.03702	24
331.03781	9
343.04077	14
343.05005	5
344.05353	372
345.05756	176
346.04965	5
346.06827	19
387.07312	8
388.07248	5
507.11493	1000
507.15576	6

NAME: isosakuranetin-7-O-rutinoside
PRECURSORMZ: 593.18757934783
PRECURSORTYPE: [M-H]-
INSTRUMENTTYPE: LC-ESI-QTOF
SMILES: COC1=CC=C(C=C1)C1CC(=O)C2=C(O)C=C(OC3OC(COC4OC(C)C(O)C(O)C4O)C(O)C(O)C3O)C=C2O1
INCHIKEY: RMCRQBAILCLJGU-UHFFFAOYNA-N
Ontology: Flavonoid-7-O-glycosides
COLLISIONENERGY: 10
FORMULA: C28H34O14
RETENTIONTIME: 5.356184
IONMODE: Negative
Comment: registered in RIKEN PlaSMA
Num Peaks: 16
151.00385	16
164.01134	22
241.08513	14
243.06107	8
270.04892	11
270.05853	9
284.06149	6
285.07574	1000
286.07944	158
287.08179	22
294.05713	5
309.07217	59
327.08472	48
328.09631	7
351.08908	7
593.18695	411

NAME: isosakuranetin-7-O-rutinoside
PRECURSORMZ: 639.19305865183
PRECURSORTYPE: [M+FA-H]-
INSTRUMENTTYPE: LC-ESI-QTOF
SMILES: COC1=CC=C(C=C1)C1CC(=O)C2=C(O)C=C(OC3OC(COC4OC(C)C(O)C(O)C4O)C(O)C(O)C3O)C=C2O1
INCHIKEY: RMCRQBAILCLJGU-UHFFFAOYNA-N
Ontology: Flavonoid-7-O-glycosides
COLLISIONENERGY: 10
FORMULA: C28H34O14
RETENTIONTIME: 5.356184
IONMODE: Negative
Comment: registered in RIKEN PlaSMA
Num Peaks: 25
104.90225	14
136.01407	7
147.21419	6
164.00679	11
205.06825	7
205.43408	12
230.03053	8
243.05945	8
285.07648	1000
286.07458	115
286.08832	55
287.08044	42
295.1763	9
309.07458	40
310.09009	7
311.07986	6
351.09259	6
593.18604	820
593.22919	13
593.29352	9
594.1864	167
595.19507	7
595.20831	19
596.16357	8
596.1911	15

NAME: 2-Methoxycinnamic acid
PRECURSORMZ: 177.05571774783
PRECURSORTYPE: [M-H]-
INSTRUMENTTYPE: LC-ESI-QTOF
SMILES: COC1=CC=CC=C1C=CC(O)=O
INCHIKEY: FEGVSPGUHMGGBO-UHFFFAOYSA-N
Ontology: Coumaric acids
COLLISIONENERGY: 10
FORMULA: C10H10O3
RETENTIONTIME: 6.11525
IONMODE: Negative
Comment: registered in RIKEN PlaSMA
Num Peaks: 8
70.85558	107
103.05174	102
107.01357	130
117.03198	249
131.23848	147
133.06395	1000
151.00174	141
177.05446	141

NAME: Kaempferol
PRECURSORMZ: 285.04046154783
PRECURSORTYPE: [M-H]-
INSTRUMENTTYPE: LC-ESI-QTOF
SMILES: OC1=CC=C(C=C1)C1=C(O)C(=O)C2=C(O)C=C(O)C=C2O1
INCHIKEY: IYRMWMYZSQPJKC-UHFFFAOYSA-N
Ontology: Flavonols
COLLISIONENERGY: 10
FORMULA: C15H10O6
RETENTIONTIME: 5.995067
IONMODE: Negative
Comment: registered in RIKEN PlaSMA
Num Peaks: 42
83.01339	6
91.02151	5
93.03204	14
107.01038	7
117.03409	6
123.00664	6
135.00505	7
136.01842	6
143.04915	11
145.02892	14
151.00232	42
154.04308	6
155.04703	12
156.05276	6
159.04361	20
161.01996	6
165.01677	6
167.0481	6
169.0592	5
171.04063	11
171.04726	15
173.0213	10
182.03644	5
183.04736	6
184.04762	9
184.05374	6
185.05234	7
185.06113	24
187.03716	17
195.04407	5
211.0394	14
213.02319	9
214.02109	7
215.03072	6
227.03203	19
229.05266	22
239.02945	14
243.02707	10
255.02954	11
257.04749	12
284.03302	6
285.03909	1000

NAME: Daidzein-8-C-glucoside
PRECURSORMZ: 415.10345574783
PRECURSORTYPE: [M-H]-
INSTRUMENTTYPE: LC-ESI-QTOF
SMILES: OCC1OC(C(O)C(O)C1O)C1=C(O)C=CC2=C1OC=C(C2=O)C1=CC=C(O)C=C1
INCHIKEY: HKEAFJYKMMKDOR-UHFFFAOYNA-N
Ontology: Isoflavonoid C-glycosides
COLLISIONENERGY: 10
FORMULA: C21H20O9
RETENTIONTIME: 3.2688
IONMODE: Negative
Comment: registered in RIKEN PlaSMA
Num Peaks: 4
267.06454	8
295.05908	125
296.0618	33
415.10165	1000

NAME: Luteolin-8-C-glucoside
PRECURSORMZ: 447.09328504783
PRECURSORTYPE: [M-H]-
INSTRUMENTTYPE: LC-ESI-QTOF
SMILES: OCC1OC(C(O)C(O)C1O)C1=C(O)C=C(O)C2=C1OC(=CC2=O)C1=CC(O)=C(O)C=C1
INCHIKEY: PLAPMLGJVGLZOV-UHFFFAOYNA-N
Ontology: Flavonoid 8-C-glycosides
COLLISIONENERGY: 10
FORMULA: C21H20O11
RETENTIONTIME: 3.7038
IONMODE: Negative
Comment: registered in RIKEN PlaSMA
Num Peaks: 18
285.03384	6
299.05078	5
317.19745	5
327.04926	509
328.05704	94
329.06116	10
357.06021	176
358.05621	32
359.05951	6
369.05289	34
369.07245	6
393.06665	9
394.06949	6
411.07431	6
445.07376	17
446.07306	68
446.08432	31
447.0928	1000

NAME: Syringetin-3-O-glucoside
PRECURSORMZ: 507.11441434783
PRECURSORTYPE: [M-H]-
INSTRUMENTTYPE: LC-ESI-QTOF
SMILES: COC1=CC(=CC(OC)=C1O)C1=C(OC2OC(CO)C(O)C(O)C2O)C(=O)C2=C(O)C=C(O)C=C2O1
INCHIKEY: JMFWYRWPJVEZPV-UHFFFAOYNA-N
Ontology: Flavonoid-3-O-glycosides
COLLISIONENERGY: 10
FORMULA: C23H24O13
RETENTIONTIME: 4.373384
IONMODE: Negative
Comment: registered in RIKEN PlaSMA
Num Peaks: 5
344.04474	7
344.0589	6
345.05963	10
506.10217	5
507.11203	1000

NAME: isosakuranetin-7-O-rutinoside
PRECURSORMZ: 593.18757934783
PRECURSORTYPE: [M-H]-
INSTRUMENTTYPE: LC-ESI-QTOF
SMILES: COC1=CC=C(C=C1)C1CC(=O)C2=C(O)C=C(OC3OC(COC4OC(C)C(O)C(O)C4O)C(O)C(O)C3O)C=C2O1
INCHIKEY: RMCRQBAILCLJGU-UHFFFAOYNA-N
Ontology: Flavonoid-7-O-glycosides
COLLISIONENERGY: 10
FORMULA: C28H34O14
RETENTIONTIME: 5.356184
IONMODE: Negative
Comment: registered in RIKEN PlaSMA
Num Peaks: 4
285.07602	223
286.07724	43
287.08377	7
593.1875	1000

NAME: isosakuranetin-7-O-rutinoside
PRECURSORMZ: 639.19305865183
PRECURSORTYPE: [M+FA-H]-
INSTRUMENTTYPE: LC-ESI-QTOF
SMILES: COC1=CC=C(C=C1)C1CC(=O)C2=C(O)C=C(OC3OC(COC4OC(C)C(O)C(O)C4O)C(O)C(O)C3O)C=C2O1
INCHIKEY: RMCRQBAILCLJGU-UHFFFAOYNA-N
Ontology: Flavonoid-7-O-glycosides
COLLISIONENERGY: 10
FORMULA: C28H34O14
RETENTIONTIME: 5.356184
IONMODE: Negative
Comment: registered in RIKEN PlaSMA
Num Peaks: 11
285.06674	14
285.07849	50
285.0965	6
286.08148	18
368.02295	6
531.67188	6
593.18634	1000
594.19214	233
595.20129	77
596.20398	5
639.19714	45

NAME: 2-Methoxycinnamic acid
PRECURSORMZ: 177.05571774783
PRECURSORTYPE: [M-H]-
INSTRUMENTTYPE: LC-ESI-QTOF
SMILES: COC1=CC=CC=C1C=CC(O)=O
INCHIKEY: FEGVSPGUHMGGBO-UHFFFAOYSA-N
Ontology: Coumaric acids
COLLISIONENERGY: 10
FORMULA: C10H10O3
RETENTIONTIME: 6.11525
IONMODE: Negative
Comment: registered in RIKEN PlaSMA
Num Peaks: 10
92.02042	108
103.05972	361
104.05898	103
117.03392	149
133.06419	1000
133.07437	134
145.02878	376
146.0274	170
176.84265	196
177.05095	644

NAME: Kaempferol
PRECURSORMZ: 285.04046154783
PRECURSORTYPE: [M-H]-
INSTRUMENTTYPE: LC-ESI-QTOF
SMILES: OC1=CC=C(C=C1)C1=C(O)C(=O)C2=C(O)C=C(O)C=C2O1
INCHIKEY: IYRMWMYZSQPJKC-UHFFFAOYSA-N
Ontology: Flavonols
COLLISIONENERGY: 10
FORMULA: C15H10O6
RETENTIONTIME: 5.995067
IONMODE: Negative
Comment: registered in RIKEN PlaSMA
Num Peaks: 3
151.00333	7
285.03839	1000
285.08511	6

NAME: Daidzein-8-C-glucoside
PRECURSORMZ: 415.10345574783
PRECURSORTYPE: [M-H]-
INSTRUMENTTYPE: LC-ESI-QTOF
SMILES: OCC1OC(C(O)C(O)C1O)C1=C(O)C=CC2=C1OC=C(C2=O)C1=CC=C(O)C=C1
INCHIKEY: HKEAFJYKMMKDOR-UHFFFAOYNA-N
Ontology: Isoflavonoid C-glycosides
COLLISIONENERGY: 30
FORMULA: C21H20O9
RETENTIONTIME: 3.2688
IONMODE: Negative
Comment: registered in RIKEN PlaSMA
Num Peaks: 21
221.06541	6
222.06816	12
223.073	16
224.04597	11
237.05573	6
239.06322	6
253.04938	29
265.0462	7
266.05478	12
267.06494	1000
268.06842	171
269.07117	19
277.05051	91
278.04749	9
278.05667	15
279.06812	5
293.04977	9
295.05966	177
296.06006	34
307.05798	29
308.06671	6

NAME: Luteolin-8-C-glucoside
PRECURSORMZ: 447.09328504783
PRECURSORTYPE: [M-H]-
INSTRUMENTTYPE: LC-ESI-QTOF
SMILES: OCC1OC(C(O)C(O)C1O)C1=C(O)C=C(O)C2=C1OC(=CC2=O)C1=CC(O)=C(O)C=C1
INCHIKEY: PLAPMLGJVGLZOV-UHFFFAOYNA-N
Ontology: Flavonoid 8-C-glycosides
COLLISIONENERGY: 30
FORMULA: C21H20O11
RETENTIONTIME: 3.7038
IONMODE: Negative
Comment: registered in RIKEN PlaSMA
Num Peaks: 142
107.01186	11
109.02636	12
117.03165	5
119.04965	6
121.02659	13
124.05758	6
125.025	7
133.02615	88
134.02946	11
135.04333	14
138.36574	5
145.03627	12
147.04076	9
147.0462	13
148.04443	6
149.02071	24
152.91122	5
158.02916	6
161.0244	31
162.02643	6
162.99614	8
163.00584	7
163.03514	21
163.04472	13
163.05376	7
163.09674	5
164.00732	6
164.04607	11
165.01749	7
173.022	11
173.05545	6
174.03566	5
175.05154	10
176.03758	6
178.02396	8
186.0697	8
188.01392	7
189.01736	9
189.99469	6
191.03075	58
193.00229	7
193.01154	16
193.01826	19
193.11539	5
194.00607	6
194.01619	9
196.04405	5
197.06017	11
199.02722	7
199.03856	30
200.03993	11
201.01213	32
201.02882	7
203.03021	6
213.01338	5
213.04434	16
213.05609	28
213.08774	8
215.04652	5
217.06062	6
219.02396	7
221.04283	6
222.0482	7
224.04875	13
226.05287	9
227.0383	5
227.06342	13
229.01274	27
229.02122	10
231.07109	6
237.05331	5
238.05121	5
239.06116	5
240.03627	6
240.04446	6
241.03999	14
241.05722	11
242.04346	6
243.06422	6
253.04559	24
255.02956	40
255.06592	20
257.04132	16
257.0722	9
266.02649	12
267.04205	6
267.056	5
269.04294	24
270.03906	12
270.06168	5
271.04907	11
272.06619	5
273.33179	5
281.04861	15
283.05432	6
284.01144	10
284.03278	194
285.03729	184
285.07053	5
286.04318	13
286.05313	19
297.03961	350
298.04694	215
299.02939	14
299.05472	556
299.08514	7
300.052	72
301.0589	9
301.08289	6
309.04041	26
311.04834	66
311.06262	23
312.05807	10
313.0361	31
314.04004	24
321.03717	7
323.06592	6
324.0264	23
325.02667	6
325.039	6
326.02029	5
327.04877	1000
328.04767	138
329.03204	10
329.05679	16
329.07086	15
338.08597	7
338.34637	5
339.0437	64
340.04642	6
341.06656	11
341.08603	6
342.06735	8
349.07251	7
355.04471	5
357.06522	85
358.06158	6
358.07349	8
365.06839	8
370.06924	7
393.07138	5
418.07291	6

NAME: Syringetin-3-O-glucoside
PRECURSORMZ: 507.11441434783
PRECURSORTYPE: [M-H]-
INSTRUMENTTYPE: LC-ESI-QTOF
SMILES: COC1=CC(=CC(OC)=C1O)C1=C(OC2OC(CO)C(O)C(O)C2O)C(=O)C2=C(O)C=C(O)C=C2O1
INCHIKEY: JMFWYRWPJVEZPV-UHFFFAOYNA-N
Ontology: Flavonoid-3-O-glycosides
COLLISIONENERGY: 30
FORMULA: C23H24O13
RETENTIONTIME: 4.373384
IONMODE: Negative
Comment: registered in RIKEN PlaSMA
Num Peaks: 65
107.01511	11
125.02353	11
135.00877	5
151.0002	22
151.00684	18
152.00549	11
163.03725	6
178.99699	13
180.00172	7
202.02084	6
219.04024	6
241.01103	52
242.01918	47
243.02243	36
243.03157	19
244.02443	6
245.04599	7
247.06349	10
257.01086	6
258.00082	17
258.01389	40
269.00931	42
270.01926	38
271.02386	13
272.02661	7
273.03888	420
274.04343	77
275.04666	14
286.00955	38
286.02197	7
287.05496	109
288.04944	20
288.06235	6
289.0665	9
299.02679	7
300.02039	9
300.03241	6
300.07114	7
301.02686	106
301.03653	266
301.06534	5
302.0368	52
303.04019	14
315.01108	39
315.05267	69
316.05835	184
317.06	62
318.06958	8
328.03668	9
329.02863	225
329.05701	12
330.03769	76
331.02759	12
331.04489	20
343.0451	9
344.05237	1000
344.0856	12
345.05716	357
346.05515	32
346.07324	16
347.05246	7
357.05783	6
372.05411	10
387.06882	13
507.11197	78

NAME: isosakuranetin-7-O-rutinoside
PRECURSORMZ: 593.18757934783
PRECURSORTYPE: [M-H]-
INSTRUMENTTYPE: LC-ESI-QTOF
SMILES: COC1=CC=C(C=C1)C1CC(=O)C2=C(O)C=C(OC3OC(COC4OC(C)C(O)C(O)C4O)C(O)C(O)C3O)C=C2O1
INCHIKEY: RMCRQBAILCLJGU-UHFFFAOYNA-N
Ontology: Flavonoid-7-O-glycosides
COLLISIONENERGY: 30
FORMULA: C28H34O14
RETENTIONTIME: 5.356184
IONMODE: Negative
Comment: registered in RIKEN PlaSMA
Num Peaks: 16
150.99792	6
164.00816	15
241.08768	24
270.05212	23
283.05997	6
285.0755	1000
286.07852	197
287.08322	18
294.05637	5
299.09079	18
309.07581	69
310.07123	8
310.0849	11
327.0867	49
328.08942	16
339.08734	10

NAME: isosakuranetin-7-O-rutinoside
PRECURSORMZ: 639.19305865183
PRECURSORTYPE: [M+FA-H]-
INSTRUMENTTYPE: LC-ESI-QTOF
SMILES: COC1=CC=C(C=C1)C1CC(=O)C2=C(O)C=C(OC3OC(COC4OC(C)C(O)C(O)C4O)C(O)C(O)C3O)C=C2O1
INCHIKEY: RMCRQBAILCLJGU-UHFFFAOYNA-N
Ontology: Flavonoid-7-O-glycosides
COLLISIONENERGY: 30
FORMULA: C28H34O14
RETENTIONTIME: 5.356184
IONMODE: Negative
Comment: registered in RIKEN PlaSMA
Num Peaks: 24
90.02695	7
145.04295	10
205.06403	12
211.86124	7
257.07697	5
270.05203	13
285.07623	1000
286.07391	107
286.08286	43
286.09836	5
287.0683	15
287.08029	11
291.06427	7
309.07346	19
309.08618	13
310.07462	18
327.08612	39
329.09628	5
351.09158	11
593.16791	13
593.18976	18
593.21808	12
594.19275	6
595.17688	5

NAME: Kaempferol
PRECURSORMZ: 285.04046154783
PRECURSORTYPE: [M-H]-
INSTRUMENTTYPE: LC-ESI-QTOF
SMILES: OC1=CC=C(C=C1)C1=C(O)C(=O)C2=C(O)C=C(O)C=C2O1
INCHIKEY: IYRMWMYZSQPJKC-UHFFFAOYSA-N
Ontology: Flavonols
COLLISIONENERGY: 30
FORMULA: C15H10O6
RETENTIONTIME: 5.995067
IONMODE: Negative
Comment: registered in RIKEN PlaSMA
Num Peaks: 176
65.00423	33
75.00185	23
79.01414	30
83.00709	27
83.01256	85
89.04137	30
92.02598	101
93.03386	783
94.03882	80
94.92642	42
95.01345	138
95.11452	26
105.03648	77
107.01266	234
107.04968	35
108.01958	441
108.8567	26
108.99429	26
109.01911	37
109.02985	303
109.23289	29
110.03067	31
115.05444	134
117.03251	401
117.07143	35
118.03491	163
119.01012	86
119.04852	93
120.02045	200
121.02492	47
121.03152	39
121.99796	31
123.00694	27
129.02673	37
129.07503	31
130.03304	34
130.04295	244
131.04784	420
132.02109	65
132.0509	33
133.0247	148
133.03172	127
133.06706	33
135.00494	253
135.04718	89
136.02116	23
136.04366	43
137.02278	187
137.78903	38
139.05338	27
141.06822	61
141.07507	27
143.05098	738
144.05421	37
145.02707	307
145.0638	31
145.13754	26
146.03099	56
146.03984	43
147.00194	35
147.03656	46
147.04407	127
149.02408	26
150.98958	26
151.00333	235
151.03694	30
152.01047	30
153.01393	26
154.03981	91
155.047	232
156.0556	183
156.0645	29
157.02603	108
157.03239	102
157.06479	307
158.02594	22
158.03418	78
158.03935	161
158.06793	29
159.03273	52
159.04382	604
159.05574	29
161.02542	257
162.731	26
163.0014	55
164.00626	184
164.0144	38
165.00789	33
165.01749	34
165.02666	31
167.05014	208
168.05701	65
169.02634	25
169.06168	185
170.03145	54
171.04233	595
171.05692	38
172.04494	82
172.64088	27
173.02538	195
173.04651	56
173.06192	33
174.02856	137
175.02798	31
175.0343	114
176.00493	31
180.05852	39
183.0433	290
184.04958	187
184.06073	56
185.01552	44
185.02469	27
185.05522	279
185.06517	265
186.03474	23
186.05231	64
186.06616	112
187.03108	232
187.037	531
188.03954	54
190.99966	166
191.03244	73
195.043	197
195.05011	61
196.03682	46
198.03227	39
199.03127	56
200.04437	37
200.93216	46
201.05493	222
210.0295	30
210.03899	55
211.03604	440
211.04376	273
211.6972	38
212.04071	133
212.05171	22
213.02473	59
213.05948	124
213.30521	43
214.02028	86
214.03096	163
215.03223	114
215.04614	30
216.03014	26
216.04805	30
217.01341	35
219.02762	67
219.03369	104
224.04646	26
225.04254	38
226.02049	81
226.03908	46
227.03462	655
227.11261	26
228.02994	54
228.04561	29
229.05209	200
230.04517	33
239.0192	31
239.03574	556
240.04103	72
240.04715	35
242.02109	27
243.02864	154
244.02942	40
244.16397	26
244.84322	25
255.02516	179
256.03214	29
267.03271	50
268.0278	106
268.04022	121
269.0477	67
284.03439	72
285.0412	1000

NAME: Daidzein-8-C-glucoside
PRECURSORMZ: 415.10345574783
PRECURSORTYPE: [M-H]-
INSTRUMENTTYPE: LC-ESI-QTOF
SMILES: OCC1OC(C(O)C(O)C1O)C1=C(O)C=CC2=C1OC=C(C2=O)C1=CC=C(O)C=C1
INCHIKEY: HKEAFJYKMMKDOR-UHFFFAOYNA-N
Ontology: Isoflavonoid C-glycosides
COLLISIONENERGY: 50
FORMULA: C21H20O9
RETENTIONTIME: 3.2688
IONMODE: Negative
Comment: registered in RIKEN PlaSMA
Num Peaks: 179
59.01371	42
67.84115	12
69.70445	14
71.01007	10
77.03429	16
77.04077	58
82.59642	13
89.03709	68
91.01784	59
92.0248	14
93.03166	76
94.03522	15
103.01643	13
103.02258	17
104.02709	31
105.03336	252
107.03642	13
109.78358	16
115.01329	10
116.02422	13
117.03409	206
118.0344	11
119.04233	23
119.05158	57
130.03809	12
131.04552	12
131.05406	15
132.0204	394
132.05362	19
133.02855	618
134.02763	91
134.03546	44
134.83842	12
134.99782	14
135.04308	13
135.84473	10
139.0537	14
141.07622	19
142.04733	18
145.03087	92
146.02985	26
147.03734	28
147.04547	24
149.02122	209
149.84569	14
150.03374	12
151.0546	25
152.0556	17
154.04225	13
157.60294	17
158.03792	25
160.01666	17
163.03603	16
167.04749	18
168.05452	12
169.0666	50
170.8557	12
171.04475	12
173.02397	25
174.03375	14
179.04674	39
179.09335	12
180.05368	72
181.06204	12
182.04216	14
182.07158	12
183.04207	21
183.07983	39
184.04076	17
185.02151	16
189.01645	16
192.05249	16
193.06458	219
193.07214	64
194.05873	11
194.07336	119
195.04517	127
195.06694	31
195.07753	104
196.04814	28
196.05775	27
197.05255	30
197.065	19
203.05496	14
204.05351	16
204.06467	14
205.06192	40
205.07016	86
205.08694	12
206.04079	12
206.07321	26
208.05287	256
208.06862	14
209.05862	271
209.06897	45
210.03456	31
210.07219	13
211.03525	13
211.07762	82
211.08749	23
213.0471	15
217.06648	14
218.33083	12
219.04668	29
220.0509	12
220.06032	12
221.04555	12
221.0607	79
221.22395	12
221.60498	16
222.06691	701
223.03656	326
223.07292	329
223.09412	12
223.23438	14
223.59813	10
223.8801	10
224.04294	252
224.05185	100
224.0681	14
224.08189	21
225.04956	80
225.06235	16
225.07806	28
227.83675	18
228.06227	24
229.07957	12
231.07671	16
232.05138	13
234.0631	66
235.03613	22
235.04745	32
235.07404	28
236.04242	52
236.05145	41
237.05507	367
238.05872	163
238.07254	34
239.06773	154
239.08279	25
239.23885	13
240.06367	11
240.07619	32
241.03294	13
241.3492	14
247.04425	31
248.04659	106
249.05374	70
250.06747	13
251.02493	38
251.04501	19
252.03728	14
253.01727	13
253.04927	146
254.04842	18
255.05457	13
263.03638	38
265.04968	12
266.04724	12
266.06369	37
266.08313	10
267.06525	1000
267.26791	11
268.06943	167
269.06329	16
269.07755	55
270.07401	10
273.04752	15
274.0683	12
276.04233	14
277.04236	38
277.05551	40
279.06189	45
279.07492	10
279.18021	14
291.02798	10
293.03592	12
293.04703	16
303.0788	12

NAME: Luteolin-8-C-glucoside
PRECURSORMZ: 447.09328504783
PRECURSORTYPE: [M-H]-
INSTRUMENTTYPE: LC-ESI-QTOF
SMILES: OCC1OC(C(O)C(O)C1O)C1=C(O)C=C(O)C2=C1OC(=CC2=O)C1=CC(O)=C(O)C=C1
INCHIKEY: PLAPMLGJVGLZOV-UHFFFAOYNA-N
Ontology: Flavonoid 8-C-glycosides
COLLISIONENERGY: 50
FORMULA: C21H20O11
RETENTIONTIME: 3.7038
IONMODE: Negative
Comment: registered in RIKEN PlaSMA
Num Peaks: 174
65.0042	29
78.0396	12
79.02193	25
81.90038	18
95.04657	11
95.05122	20
97.02685	12
97.03656	13
97.52367	21
103.01415	20
105.03107	26
106.04445	29
108.0252	14
109.02709	54
110.03657	14
115.0565	20
117.0332	29
118.03641	14
119.01063	44
119.01741	16
119.05119	83
119.15403	12
121.02364	20
121.03129	61
123.00842	22
125.01962	33
126.02946	12
127.05296	22
129.06561	28
131.01619	16
131.04549	19
133.02876	1000
134.03358	160
135.00975	85
135.04147	102
136.0063	12
136.01149	40
137.02502	29
137.03058	18
139.04608	17
141.02539	12
142.04425	16
143.0468	19
143.05307	25
145.02396	22
145.03024	37
145.59393	17
146.03537	11
146.07326	21
147.04031	40
147.05258	12
148.00313	12
148.01518	34
149.02632	55
151.00223	90
151.03786	39
152.03963	12
153.07076	15
155.05266	13
157.07265	20
158.03488	11
158.06151	18
159.04076	11
161.01514	48
161.02744	115
162.03268	18
163.00314	177
163.02896	32
163.03636	15
163.52853	24
164.0126	50
165.0181	54
169.07018	19
171.04076	35
173.06482	14
175.00388	48
175.03964	190
175.05919	13
176.00887	20
176.04536	23
176.98714	12
177.0155	30
177.0247	24
183.03809	34
184.05284	35
185.02594	14
185.05858	12
187.03955	49
187.07663	17
188.04427	34
189.01274	29
189.02419	12
189.0513	33
189.05782	15
190.02086	12
192.04366	15
194.03287	25
195.04698	12
196.04591	17
196.06107	14
197.02315	13
197.06142	44
198.03339	16
198.06573	14
199.04102	66
201.01534	62
201.02367	65
203.03224	18
203.03979	14
203.0811	12
209.06433	17
210.02968	15
210.05482	14
210.06989	29
211.0334	53
211.0453	11
212.03751	34
212.05202	53
213.0188	12
213.05064	52
214.0209	14
214.05382	11
215.04752	17
219.04626	14
222.06424	19
225.0495	60
226.03566	15
227.0321	28
227.04243	48
227.07285	12
228.0457	17
229.0528	17
230.05521	19
231.05247	16
235.04196	30
236.91734	12
237.05296	12
239.03934	14
240.03954	15
241.04964	69
242.05717	12
243.0363	12
248.98943	12
251.02054	12
251.0334	14
253.04463	15
253.05885	21
254.05061	12
255.01808	11
255.03279	57
255.06952	24
256.03275	16
266.01303	14
268.0184	14
269.04501	30
270.05734	43
280.03235	16
281.03586	15
282.02261	32
283.0556	28
284.03137	162
285.03455	41
286.05093	14
287.05057	11
295.02899	15
296.93765	14
297.03384	34
297.04459	81
298.04837	102
299.04825	16
309.04489	12
310.04669	25
327.04926	11
349.16507	19

NAME: Syringetin-3-O-glucoside
PRECURSORMZ: 507.11441434783
PRECURSORTYPE: [M-H]-
INSTRUMENTTYPE: LC-ESI-QTOF
SMILES: COC1=CC(=CC(OC)=C1O)C1=C(OC2OC(CO)C(O)C(O)C2O)C(=O)C2=C(O)C=C(O)C=C2O1
INCHIKEY: JMFWYRWPJVEZPV-UHFFFAOYNA-N
Ontology: Flavonoid-3-O-glycosides
COLLISIONENERGY: 50
FORMULA: C23H24O13
RETENTIONTIME: 4.373384
IONMODE: Negative
Comment: registered in RIKEN PlaSMA
Num Peaks: 136
96.0218	8
98.00773	9
108.01961	10
115.04452	8
124.01165	9
125.01797	8
126.26404	9
127.5042	7
130.043	9
131.03723	13
135.0079	7
138.03931	9
142.7635	7
145.02867	9
146.03313	19
146.14244	12
151.0033	8
152.83614	8
153.02336	8
158.03622	32
160.045	8
162.03888	11
162.99518	8
165.02547	8
165.05125	6
165.66942	6
173.02213	7
174.02638	59
174.03314	140
181.70067	7
182.73555	9
184.83269	10
186.03259	73
186.43271	7
186.81804	9
186.99619	7
198.02864	15
199.03825	8
201.0127	17
202.026	265
203.03009	19
203.04189	13
203.44353	6
204.03104	10
213.0128	94
213.02553	24
214.02419	102
214.03772	31
215.03339	43
216.0061	17
220.67523	9
224.55127	7
225.02414	9
225.36087	6
226.02676	20
227.02687	8
228.00714	9
228.04327	28
229.00858	21
229.0217	7
229.0479	16
230.0211	272
230.18262	7
231.0265	35
231.03654	9
232.02562	8
239.18671	9
241.01385	244
241.03194	9
242.02071	1000
243.02518	265
244.02351	65
248.90526	9
249.5334	8
254.0083	8
255.02972	7
257.01105	158
257.04996	13
257.93399	8
258.0163	860
259.01062	42
259.01987	157
259.04074	7
260.01923	15
260.03339	9
260.07056	11
261.96301	8
269.01486	15
270.01404	246
271.0238	45
271.06317	8
272.02457	92
272.03433	123
272.91522	6
272.94336	7
273.03659	127
274.03577	8
274.05038	15
282.70053	19
283.01437	14
283.02414	8
284.9881	9
285.00476	56
285.035	7
285.04681	9
286.00702	258
286.01724	174
286.03043	38
286.43893	14
287.01334	129
287.0275	56
287.05945	65
288.04633	7
288.06897	15
289.06674	6
298.01465	7
299.01553	15
300.02023	11
300.0387	7
301.01538	13
301.03433	172
301.7926	12
302.01981	6
302.04276	24
303.02844	9
313.9986	56
314.99689	15
315.02005	56
315.04407	33
316.01062	16
316.0658	8
329.02188	28
329.03757	6
330.03101	7
334.52786	8
344.04636	8

NAME: isosakuranetin-7-O-rutinoside
PRECURSORMZ: 593.18757934783
PRECURSORTYPE: [M-H]-
INSTRUMENTTYPE: LC-ESI-QTOF
SMILES: COC1=CC=C(C=C1)C1CC(=O)C2=C(O)C=C(OC3OC(COC4OC(C)C(O)C(O)C4O)C(O)C(O)C3O)C=C2O1
INCHIKEY: RMCRQBAILCLJGU-UHFFFAOYNA-N
Ontology: Flavonoid-7-O-glycosides
COLLISIONENERGY: 50
FORMULA: C28H34O14
RETENTIONTIME: 5.356184
IONMODE: Negative
Comment: registered in RIKEN PlaSMA
Num Peaks: 173
63.02149	15
65.0015	8
83.01039	28
86.77399	6
89.03894	10
93.02738	6
97.02568	13
97.03014	13
106.04414	10
107.01227	114
107.04644	5
108.02016	42
108.9895	6
111.01151	6
117.03902	6
119.04996	27
120.01861	6
122.00002	19
122.02995	7
122.03848	8
123.00481	9
124.01627	16
125.02179	17
125.02999	7
131.00929	5
131.01704	6
131.03026	6
132.02452	9
133.0269	5
133.0529	6
133.06566	7
133.07582	6
134.04318	5
135.01033	8
136.01498	178
137.02196	11
138.02786	5
144.08078	6
145.02654	6
145.11142	5
146.03894	8
148.01003	10
149.01424	10
149.02617	5
149.98816	6
150.00107	6
150.03395	15
151.0014	501
152.00626	77
158.06619	5
160.05142	22
163.00186	31
163.04071	11
164.0089	1000
164.99312	10
165.01154	108
165.0199	38
165.5434	5
166.01901	10
166.96988	5
169.05904	13
171.04207	15
172.04533	13
173.02861	5
174.99809	20
175.00572	31
175.062	10
175.07796	121
176.07556	9
177.01628	25
180.05728	8
181.06895	7
181.59431	10
183.06706	6
184.0442	10
184.05536	31
186.02972	53
187.03619	57
188.00256	8
188.01476	19
188.04199	7
189.01808	6
189.04948	5
190.02473	13
190.09793	8
193.01138	31
195.00716	7
195.08105	6
197.04877	11
197.05788	12
198.06641	138
199.06987	34
199.08072	34
200.04454	11
200.05295	22
200.07724	18
201.01625	6
201.02707	14
201.05309	99
202.05235	16
202.06218	20
203.06569	11
203.07469	5
204.07407	6
208.05441	21
209.05728	5
210.06052	10
210.07062	6
213.05392	9
213.08742	13
214.02342	5
215.07005	27
217.08296	58
218.08533	11
219.02681	10
219.08951	9
223.07538	5
224.07773	12
225.04622	6
225.05864	23
225.07394	7
226.06389	114
226.71437	8
227.03508	10
227.06129	17
227.1089	6
228.04439	18
229.03662	6
229.08347	7
230.095	6
237.05862	29
241.05075	6
241.08369	198
242.05028	7
242.05827	21
242.08868	22
243.0665	191
243.08855	6
244.0602	10
244.07057	38
246.06877	6
257.08536	14
265.03894	5
266.05276	6
268.07135	5
269.04608	28
269.08551	5
270.04874	203
270.06003	137
270.82166	5
271.05786	35
271.09256	13
272.05496	11
276.03528	13
278.04346	5
278.41531	6
283.05756	13
284.06766	16
285.07617	912
286.0791	122
287.07684	23
287.09448	6
288.07986	6
293.0423	9
294.04868	24
297.04181	6
299.09009	10
307.06693	7
309.06894	15
311.04672	5
312.06519	5
327.0882	17
336.05899	7

NAME: Kaempferol
PRECURSORMZ: 285.04046154783
PRECURSORTYPE: [M-H]-
INSTRUMENTTYPE: LC-ESI-QTOF
SMILES: OC1=CC=C(C=C1)C1=C(O)C(=O)C2=C(O)C=C(O)C=C2O1
INCHIKEY: IYRMWMYZSQPJKC-UHFFFAOYSA-N
Ontology: Flavonols
COLLISIONENERGY: 50
FORMULA: C15H10O6
RETENTIONTIME: 5.995067
IONMODE: Negative
Comment: registered in RIKEN PlaSMA
Num Peaks: 32
63.0233	112
64.0248	140
66.00675	162
89.00232	251
92.02476	128
92.99616	201
93.02764	201
93.03422	1000
116.0243	168
117.03264	654
118.03656	352
132.0134	151
132.0193	207
141.03487	207
143.04387	257
143.05388	151
144.01317	112
144.02087	151
154.04416	134
155.0482	430
157.06822	101
158.03116	117
171.03899	128
182.03264	117
183.05013	257
197.02457	112
201.01497	112
210.0193	151
210.04021	168
211.04187	212
228.03398	140
239.03761	134

NAME: Pelargonidin-3,5-di-beta-D-glucoside
PRECURSORMZ: 593.15064521576
PRECURSORTYPE: [M-2H]-
INSTRUMENTTYPE: LC-ESI-QTOF
SMILES: OCC1OC(OC2=CC(O)=CC3=C2C=C(OC2OC(CO)C(O)C(O)C2O)C(=[O+]3)C2=CC=C(O)C=C2)C(O)C(O)C1O
INCHIKEY: SLCKJKWFULXZBD-UHFFFAOYNA-O
Ontology: Anthocyanidin-5-O-glycosides
COLLISIONENERGY: 10
FORMULA: C27H31O15
RETENTIONTIME: 2.720083
IONMODE: Negative
Comment: registered in RIKEN PlaSMA
Num Peaks: 23
134.85536	42
175.0079	36
198.03157	42
241.049	66
267.03098	82
267.04388	46
268.02322	100
268.03577	96
269.04501	1000
270.04517	84
270.05457	126
271.05246	52
271.06253	36
430.09296	210
431.07513	80
431.09793	970
431.11685	136
431.18945	40
432.09332	158
432.12207	146
593.00623	56
593.15118	130
593.17767	40

NAME: Cyanidin-3-O-galactoside
PRECURSORMZ: 447.09273641576
PRECURSORTYPE: [M-2H]-
INSTRUMENTTYPE: LC-ESI-QTOF
SMILES: OCC1OC(OC2=C([O+]=C3C=C(O)C=C(O)C3=C2)C2=CC(O)=C(O)C=C2)C(O)C(O)C1O
INCHIKEY: RKWHWFONKJEUEF-UHFFFAOYNA-O
Ontology: Anthocyanidin-3-O-glycosides
COLLISIONENERGY: 10
FORMULA: C21H21O11
RETENTIONTIME: 2.85235
IONMODE: Negative
Comment: registered in RIKEN PlaSMA
Num Peaks: 40
75.01157	16
109.02976	18
125.02102	17
125.02546	44
126.03072	32
147.00734	15
164.02254	38
175.00316	20
175.04129	32
195.04218	18
196.05333	17
200.01637	19
211.0387	73
214.04982	34
217.04878	66
226.04741	18
227.02779	34
240.03723	64
240.05145	21
241.04562	18
255.03169	129
256.03351	101
256.08286	25
257.04938	17
273.06946	25
275.4787	15
283.02316	35
284.03293	1000
284.96838	16
285.03555	291
286.03915	85
299.05209	21
299.06644	37
321.05893	23
326.03094	28
357.66391	36
399.79361	16
429.07687	15
429.09583	18
447.0946	575

NAME: Apigenin-7-O-neohesperidoside
PRECURSORMZ: 577.15627914783
PRECURSORTYPE: [M-H]-
INSTRUMENTTYPE: LC-ESI-QTOF
SMILES: CC1OC(OC2C(O)C(O)C(CO)OC2OC2=CC(O)=C3C(=O)C=C(OC3=C2)C2=CC=C(O)C=C2)C(O)C(O)C1O
INCHIKEY: RPMNUQRUHXIGHK-UHFFFAOYNA-N
Ontology: Flavonoid-7-O-glycosides
COLLISIONENERGY: 10
FORMULA: C27H30O14
RETENTIONTIME: 4.3424
IONMODE: Negative
Comment: registered in RIKEN PlaSMA
Num Peaks: 7
268.026	25
268.0361	102
269.04303	1000
270.04791	176
271.05219	17
311.05261	8
577.15601	983

NAME: 4-Deoxyphloridzin
PRECURSORMZ: 419.13475594783
PRECURSORTYPE: [M-H]-
INSTRUMENTTYPE: LC-ESI-QTOF
SMILES: OCC1OC(OC2=CC(O)=CC(O)=C2C(=O)CCC2=CC=CC=C2)C(O)C(O)C1O
INCHIKEY: NLGUKXQDDTZCDG-UHFFFAOYNA-N
Ontology: Flavonoid O-glycosides
COLLISIONENERGY: 10
FORMULA: C21H24O9
RETENTIONTIME: 4.84605
IONMODE: Negative
Comment: registered in RIKEN PlaSMA
Num Peaks: 16
83.0134	5
93.03247	16
135.00496	29
135.01523	6
136.01042	9
151.03888	584
152.03729	23
152.04398	41
163.03952	121
164.03893	16
239.07312	18
257.08044	1000
258.0835	167
259.08423	23
419.13342	29
419.15308	5

NAME: 4-Deoxyphloridzin
PRECURSORMZ: 465.14023525183
PRECURSORTYPE: [M+FA-H]-
INSTRUMENTTYPE: LC-ESI-QTOF
SMILES: OCC1OC(OC2=CC(O)=CC(O)=C2C(=O)CCC2=CC=CC=C2)C(O)C(O)C1O
INCHIKEY: NLGUKXQDDTZCDG-UHFFFAOYNA-N
Ontology: Flavonoid O-glycosides
COLLISIONENERGY: 10
FORMULA: C21H24O9
RETENTIONTIME: 4.84605
IONMODE: Negative
Comment: registered in RIKEN PlaSMA
Num Peaks: 14
93.03396	44
151.03926	290
152.03798	27
152.04561	26
163.03458	72
163.04536	25
239.08087	43
257.07999	1000
258.07968	91
258.09491	28
259.08102	25
419.12805	216
420.11758	23
420.13531	55

NAME: 3-Methoxycinnamic acid
PRECURSORMZ: 177.05571774783
PRECURSORTYPE: [M-H]-
INSTRUMENTTYPE: LC-ESI-QTOF
SMILES: COC1=CC=CC(C=CC(O)=O)=C1
INCHIKEY: LZPNXAULYJPXEH-UHFFFAOYSA-N
Ontology: Coumaric acids and derivatives
COLLISIONENERGY: 10
FORMULA: C10H10O3
RETENTIONTIME: 6.02435
IONMODE: Negative
Comment: registered in RIKEN PlaSMA
Num Peaks: 9
91.92272	31
103.05366	1000
105.32855	31
115.0507	53
118.04171	55
119.04887	39
131.07704	38
133.06387	187
177.05383	322

NAME: Luteolin
PRECURSORMZ: 285.04046154783
PRECURSORTYPE: [M-H]-
INSTRUMENTTYPE: LC-ESI-QTOF
SMILES: OC1=CC(O)=C2C(=O)C=C(OC2=C1)C1=CC(O)=C(O)C=C1
INCHIKEY: IQPNAANSBPBGFQ-UHFFFAOYSA-N
Ontology: Flavones
COLLISIONENERGY: 10
FORMULA: C15H10O6
RETENTIONTIME: 6.02435
IONMODE: Negative
Comment: registered in RIKEN PlaSMA
Num Peaks: 8
133.02512	66
186.05424	75
215.03751	91
242.80959	56
255.02425	56
257.05185	100
258.03647	62
285.04083	1000

NAME: Pelargonidin-3,5-di-beta-D-glucoside
PRECURSORMZ: 593.15064521576
PRECURSORTYPE: [M-2H]-
INSTRUMENTTYPE: LC-ESI-QTOF
SMILES: OCC1OC(OC2=CC(O)=CC3=C2C=C(OC2OC(CO)C(O)C(O)C2O)C(=[O+]3)C2=CC=C(O)C=C2)C(O)C(O)C1O
INCHIKEY: SLCKJKWFULXZBD-UHFFFAOYNA-O
Ontology: Anthocyanidin-5-O-glycosides
COLLISIONENERGY: 10
FORMULA: C27H31O15
RETENTIONTIME: 2.720083
IONMODE: Negative
Comment: registered in RIKEN PlaSMA
Num Peaks: 9
431.09378	1000
432.07587	32
432.10361	122
432.12476	24
433.08755	20
433.10358	23
467.47351	29
593.14197	290
593.16107	209

NAME: Cyanidin-3-O-galactoside
PRECURSORMZ: 447.09273641576
PRECURSORTYPE: [M-2H]-
INSTRUMENTTYPE: LC-ESI-QTOF
SMILES: OCC1OC(OC2=C([O+]=C3C=C(O)C=C(O)C3=C2)C2=CC(O)=C(O)C=C2)C(O)C(O)C1O
INCHIKEY: RKWHWFONKJEUEF-UHFFFAOYNA-O
Ontology: Anthocyanidin-3-O-glycosides
COLLISIONENERGY: 10
FORMULA: C21H21O11
RETENTIONTIME: 2.85235
IONMODE: Negative
Comment: registered in RIKEN PlaSMA
Num Peaks: 28
125.01493	10
125.02157	10
125.03067	10
167.03825	8
241.04765	10
284.02213	53
284.0347	121
284.06931	8
285.03165	48
285.0415	131
286.0372	7
286.04996	16
287.03571	8
288.04999	7
299.04617	28
309.03912	8
321.06018	26
327.05466	9
339.04187	8
339.05536	11
343.34534	8
357.63452	15
404.15915	8
423.23273	11
423.32974	7
429.07993	10
447.09186	1000
447.12946	16

NAME: Apigenin-7-O-neohesperidoside
PRECURSORMZ: 577.15627914783
PRECURSORTYPE: [M-H]-
INSTRUMENTTYPE: LC-ESI-QTOF
SMILES: CC1OC(OC2C(O)C(O)C(CO)OC2OC2=CC(O)=C3C(=O)C=C(OC3=C2)C2=CC=C(O)C=C2)C(O)C(O)C1O
INCHIKEY: RPMNUQRUHXIGHK-UHFFFAOYNA-N
Ontology: Flavonoid-7-O-glycosides
COLLISIONENERGY: 10
FORMULA: C27H30O14
RETENTIONTIME: 4.3424
IONMODE: Negative
Comment: registered in RIKEN PlaSMA
Num Peaks: 2
269.04453	6
577.15424	1000

NAME: 4-Deoxyphloridzin
PRECURSORMZ: 419.13475594783
PRECURSORTYPE: [M-H]-
INSTRUMENTTYPE: LC-ESI-QTOF
SMILES: OCC1OC(OC2=CC(O)=CC(O)=C2C(=O)CCC2=CC=CC=C2)C(O)C(O)C1O
INCHIKEY: NLGUKXQDDTZCDG-UHFFFAOYNA-N
Ontology: Flavonoid O-glycosides
COLLISIONENERGY: 10
FORMULA: C21H24O9
RETENTIONTIME: 4.84605
IONMODE: Negative
Comment: registered in RIKEN PlaSMA
Num Peaks: 7
151.03546	6
151.04202	7
257.08017	1000
258.08292	204
259.08603	23
259.09775	8
419.13589	65

NAME: 4-Deoxyphloridzin
PRECURSORMZ: 465.14023525183
PRECURSORTYPE: [M+FA-H]-
INSTRUMENTTYPE: LC-ESI-QTOF
SMILES: OCC1OC(OC2=CC(O)=CC(O)=C2C(=O)CCC2=CC=CC=C2)C(O)C(O)C1O
INCHIKEY: NLGUKXQDDTZCDG-UHFFFAOYNA-N
Ontology: Flavonoid O-glycosides
COLLISIONENERGY: 10
FORMULA: C21H24O9
RETENTIONTIME: 4.84605
IONMODE: Negative
Comment: registered in RIKEN PlaSMA
Num Peaks: 9
257.08023	851
257.10141	26
258.08157	126
297.75253	20
419.1348	1000
419.15909	28
420.12637	83
420.14117	236
421.14279	56

NAME: 3-Methoxycinnamic acid
PRECURSORMZ: 177.05571774783
PRECURSORTYPE: [M-H]-
INSTRUMENTTYPE: LC-ESI-QTOF
SMILES: COC1=CC=CC(C=CC(O)=O)=C1
INCHIKEY: LZPNXAULYJPXEH-UHFFFAOYSA-N
Ontology: Coumaric acids and derivatives
COLLISIONENERGY: 10
FORMULA: C10H10O3
RETENTIONTIME: 6.02435
IONMODE: Negative
Comment: registered in RIKEN PlaSMA
Num Peaks: 14
72.16712	26
103.05403	676
104.05679	14
105.05895	19
115.06163	19
118.04061	22
131.05916	14
132.04953	23
133.06207	225
133.0686	55
134.06496	24
135.45757	13
177.05356	1000
177.07117	24

NAME: Luteolin
PRECURSORMZ: 285.04046154783
PRECURSORTYPE: [M-H]-
INSTRUMENTTYPE: LC-ESI-QTOF
SMILES: OC1=CC(O)=C2C(=O)C=C(OC2=C1)C1=CC(O)=C(O)C=C1
INCHIKEY: IQPNAANSBPBGFQ-UHFFFAOYSA-N
Ontology: Flavones
COLLISIONENERGY: 10
FORMULA: C15H10O6
RETENTIONTIME: 6.02435
IONMODE: Negative
Comment: registered in RIKEN PlaSMA
Num Peaks: 5
204.91451	26
222.78365	25
255.02654	21
284.02872	36
285.03925	1000

NAME: Pelargonidin-3,5-di-beta-D-glucoside
PRECURSORMZ: 593.15064521576
PRECURSORTYPE: [M-2H]-
INSTRUMENTTYPE: LC-ESI-QTOF
SMILES: OCC1OC(OC2=CC(O)=CC3=C2C=C(OC2OC(CO)C(O)C(O)C2O)C(=[O+]3)C2=CC=C(O)C=C2)C(O)C(O)C1O
INCHIKEY: SLCKJKWFULXZBD-UHFFFAOYNA-O
Ontology: Anthocyanidin-5-O-glycosides
COLLISIONENERGY: 30
FORMULA: C27H31O15
RETENTIONTIME: 2.720083
IONMODE: Negative
Comment: registered in RIKEN PlaSMA
Num Peaks: 16
137.01973	32
147.01096	58
155.04507	29
242.05278	34
267.03033	117
268.03296	22
269.04227	1000
269.06693	22
270.04657	270
271.04037	26
271.05447	46
271.06393	33
311.05289	37
316.68631	29
430.09579	63
431.103	124

NAME: Cyanidin-3-O-galactoside
PRECURSORMZ: 447.09273641576
PRECURSORTYPE: [M-2H]-
INSTRUMENTTYPE: LC-ESI-QTOF
SMILES: OCC1OC(OC2=C([O+]=C3C=C(O)C=C(O)C3=C2)C2=CC(O)=C(O)C=C2)C(O)C(O)C1O
INCHIKEY: RKWHWFONKJEUEF-UHFFFAOYNA-O
Ontology: Anthocyanidin-3-O-glycosides
COLLISIONENERGY: 30
FORMULA: C21H21O11
RETENTIONTIME: 2.85235
IONMODE: Negative
Comment: registered in RIKEN PlaSMA
Num Peaks: 54
83.16712	18
109.02534	70
135.00594	26
147.00772	122
148.00858	33
148.01697	29
162.026	31
163.00403	23
171.03728	22
175.00221	29
177.01735	21
179.03419	21
188.04582	24
189.03737	22
189.05673	32
195.03668	18
196.05409	24
200.0439	19
203.00699	19
205.04308	23
207.04851	20
212.0415	21
212.05171	48
216.0322	18
218.04892	19
219.05038	27
223.02878	21
228.03011	26
239.03101	87
240.04266	232
241.01697	32
241.05254	20
242.02493	41
242.33438	20
255.01048	28
255.02766	62
255.03766	121
256.03998	81
257.02936	20
257.04233	45
258.04929	18
267.03983	36
269.04413	24
270.4848	24
283.02209	70
283.03397	25
284.00931	22
284.02957	1000
285.02008	34
285.03772	226
286.04111	24
287.04309	30
340.0441	28
447.10388	27

NAME: Apigenin-7-O-neohesperidoside
PRECURSORMZ: 577.15627914783
PRECURSORTYPE: [M-H]-
INSTRUMENTTYPE: LC-ESI-QTOF
SMILES: CC1OC(OC2C(O)C(O)C(CO)OC2OC2=CC(O)=C3C(=O)C=C(OC3=C2)C2=CC=C(O)C=C2)C(O)C(O)C1O
INCHIKEY: RPMNUQRUHXIGHK-UHFFFAOYNA-N
Ontology: Flavonoid-7-O-glycosides
COLLISIONENERGY: 30
FORMULA: C27H30O14
RETENTIONTIME: 4.3424
IONMODE: Negative
Comment: registered in RIKEN PlaSMA
Num Peaks: 7
268.03708	74
269.04428	1000
270.04849	150
271.05222	26
413.07489	8
413.09714	9
577.15753	38

NAME: 4-Deoxyphloridzin
PRECURSORMZ: 419.13475594783
PRECURSORTYPE: [M-H]-
INSTRUMENTTYPE: LC-ESI-QTOF
SMILES: OCC1OC(OC2=CC(O)=CC(O)=C2C(=O)CCC2=CC=CC=C2)C(O)C(O)C1O
INCHIKEY: NLGUKXQDDTZCDG-UHFFFAOYNA-N
Ontology: Flavonoid O-glycosides
COLLISIONENERGY: 30
FORMULA: C21H24O9
RETENTIONTIME: 4.84605
IONMODE: Negative
Comment: registered in RIKEN PlaSMA
Num Peaks: 17
83.01276	11
93.03324	27
94.03401	6
109.03146	5
135.00491	16
135.0116	14
151.03847	1000
152.0415	88
153.0457	10
163.03857	204
164.03902	18
171.04512	8
239.06299	14
239.07596	5
240.07204	6
257.07742	54
258.07755	16

NAME: 4-Deoxyphloridzin
PRECURSORMZ: 465.14023525183
PRECURSORTYPE: [M+FA-H]-
INSTRUMENTTYPE: LC-ESI-QTOF
SMILES: OCC1OC(OC2=CC(O)=CC(O)=C2C(=O)CCC2=CC=CC=C2)C(O)C(O)C1O
INCHIKEY: NLGUKXQDDTZCDG-UHFFFAOYNA-N
Ontology: Flavonoid O-glycosides
COLLISIONENERGY: 30
FORMULA: C21H24O9
RETENTIONTIME: 4.84605
IONMODE: Negative
Comment: registered in RIKEN PlaSMA
Num Peaks: 12
93.0316	25
134.03378	31
144.1402	29
151.03923	1000
152.04369	76
153.04738	47
154.0508	23
163.04094	61
164.0368	53
257.06537	47
257.08136	363
258.0766	105

NAME: Luteolin
PRECURSORMZ: 285.04046154783
PRECURSORTYPE: [M-H]-
INSTRUMENTTYPE: LC-ESI-QTOF
SMILES: OC1=CC(O)=C2C(=O)C=C(OC2=C1)C1=CC(O)=C(O)C=C1
INCHIKEY: IQPNAANSBPBGFQ-UHFFFAOYSA-N
Ontology: Flavones
COLLISIONENERGY: 30
FORMULA: C15H10O6
RETENTIONTIME: 6.02435
IONMODE: Negative
Comment: registered in RIKEN PlaSMA
Num Peaks: 7
133.02483	1000
133.03809	260
136.01709	247
159.04558	403
183.04088	234
187.03789	273
196.06554	442

NAME: Pelargonidin-3,5-di-beta-D-glucoside
PRECURSORMZ: 593.15064521576
PRECURSORTYPE: [M-2H]-
INSTRUMENTTYPE: LC-ESI-QTOF
SMILES: OCC1OC(OC2=CC(O)=CC3=C2C=C(OC2OC(CO)C(O)C(O)C2O)C(=[O+]3)C2=CC=C(O)C=C2)C(O)C(O)C1O
INCHIKEY: SLCKJKWFULXZBD-UHFFFAOYNA-O
Ontology: Anthocyanidin-5-O-glycosides
COLLISIONENERGY: 50
FORMULA: C27H31O15
RETENTIONTIME: 2.720083
IONMODE: Negative
Comment: registered in RIKEN PlaSMA
Num Peaks: 17
131.04695	191
131.05251	134
147.00996	1000
148.01384	376
169.06696	185
183.04385	127
199.04033	287
211.03783	331
211.05254	134
239.03566	643
240.03281	255
241.05945	338
252.04433	172
267.02658	866
268.03625	255
269.03458	146
269.0455	127

NAME: Cyanidin-3-O-galactoside
PRECURSORMZ: 447.09273641576
PRECURSORTYPE: [M-2H]-
INSTRUMENTTYPE: LC-ESI-QTOF
SMILES: OCC1OC(OC2=C([O+]=C3C=C(O)C=C(O)C3=C2)C2=CC(O)=C(O)C=C2)C(O)C(O)C1O
INCHIKEY: RKWHWFONKJEUEF-UHFFFAOYNA-O
Ontology: Anthocyanidin-3-O-glycosides
COLLISIONENERGY: 50
FORMULA: C21H21O11
RETENTIONTIME: 2.85235
IONMODE: Negative
Comment: registered in RIKEN PlaSMA
Num Peaks: 44
108.02577	132
109.02238	88
117.03946	145
119.00697	154
119.01526	97
120.01903	84
120.02512	167
121.02593	101
129.07744	159
137.02171	79
141.03439	185
147.00809	449
159.03935	97
170.02769	163
171.04625	93
172.01344	93
172.05371	79
174.03076	427
175.04079	93
183.03967	110
183.04564	88
187.03537	150
187.0439	141
194.03654	79
195.03987	88
199.03479	189
200.04329	110
211.03882	1000
211.05026	119
212.04477	93
213.01315	88
213.02504	110
213.04816	79
224.21092	79
227.03986	207
228.03268	211
228.04596	101
229.04059	88
239.037	233
255.03053	449
256.02319	84
256.03622	101
256.04456	106
284.02731	207

NAME: Apigenin-7-O-neohesperidoside
PRECURSORMZ: 577.15627914783
PRECURSORTYPE: [M-H]-
INSTRUMENTTYPE: LC-ESI-QTOF
SMILES: CC1OC(OC2C(O)C(O)C(CO)OC2OC2=CC(O)=C3C(=O)C=C(OC3=C2)C2=CC=C(O)C=C2)C(O)C(O)C1O
INCHIKEY: RPMNUQRUHXIGHK-UHFFFAOYNA-N
Ontology: Flavonoid-7-O-glycosides
COLLISIONENERGY: 50
FORMULA: C27H30O14
RETENTIONTIME: 4.3424
IONMODE: Negative
Comment: registered in RIKEN PlaSMA
Num Peaks: 39
89.00063	6
107.01369	19
117.035	15
132.01915	6
143.04932	11
144.76961	6
149.02423	21
151.00266	36
159.03986	8
161.02129	5
169.06386	6
171.045	8
173.05487	7
183.03778	17
184.05109	9
195.03619	8
196.05052	26
197.0594	16
197.06627	6
199.03954	8
200.0475	8
201.04944	6
224.04256	7
225.05437	40
227.0233	7
227.03842	14
239.03174	11
240.03835	18
240.04868	6
241.04561	13
267.03381	15
268.03696	445
269.04544	1000
270.04736	167
270.06439	12
270.95285	6
271.04688	23
271.05621	10
272.06409	9

NAME: 4-Deoxyphloridzin
PRECURSORMZ: 419.13475594783
PRECURSORTYPE: [M-H]-
INSTRUMENTTYPE: LC-ESI-QTOF
SMILES: OCC1OC(OC2=CC(O)=CC(O)=C2C(=O)CCC2=CC=CC=C2)C(O)C(O)C1O
INCHIKEY: NLGUKXQDDTZCDG-UHFFFAOYNA-N
Ontology: Flavonoid O-glycosides
COLLISIONENERGY: 50
FORMULA: C21H24O9
RETENTIONTIME: 4.84605
IONMODE: Negative
Comment: registered in RIKEN PlaSMA
Num Peaks: 73
80.02377	8
83.0112	65
84.01753	25
84.02095	7
89.0361	7
91.01823	182
92.01505	13
92.02229	9
92.05288	7
92.49501	8
92.92487	8
93.02921	63
93.03323	166
94.03419	21
94.04115	13
95.00922	10
105.03988	22
106.04372	7
107.04298	6
107.04862	23
108.05225	12
109.0281	438
110.03054	23
117.03518	39
119.04212	9
119.05398	11
121.02909	45
122.02448	10
123.03683	10
130.03896	31
133.0295	169
134.03343	17
135.00829	443
135.04085	17
136.01324	38
136.04529	9
136.46286	8
137.02283	16
143.05121	28
144.05156	16
145.0182	7
145.0322	7
146.03192	11
148.01192	30
151.03914	1000
152.03961	38
152.7672	7
153.03883	7
153.0466	7
154.27559	7
163.03484	67
163.04533	20
164.04381	7
165.0619	11
165.06995	13
169.0659	14
171.03374	17
171.04419	64
172.0412	16
189.0555	63
193.06738	32
194.0831	12
195.04544	20
195.07393	22
221.05927	9
224.04634	31
225.06035	11
237.04486	9
237.05431	14
239.06386	28
240.06334	8
240.08029	11
257.0704	8

NAME: 4-Deoxyphloridzin
PRECURSORMZ: 465.14023525183
PRECURSORTYPE: [M+FA-H]-
INSTRUMENTTYPE: LC-ESI-QTOF
SMILES: OCC1OC(OC2=CC(O)=CC(O)=C2C(=O)CCC2=CC=CC=C2)C(O)C(O)C1O
INCHIKEY: NLGUKXQDDTZCDG-UHFFFAOYNA-N
Ontology: Flavonoid O-glycosides
COLLISIONENERGY: 50
FORMULA: C21H24O9
RETENTIONTIME: 4.84605
IONMODE: Negative
Comment: registered in RIKEN PlaSMA
Num Peaks: 12
93.03448	122
95.01244	73
109.02931	132
134.99995	45
135.00932	146
151.0387	1000
152.0432	141
153.04445	73
163.03725	111
171.04156	111
171.05556	42
224.05217	52

NAME: Luteolin
PRECURSORMZ: 285.04046154783
PRECURSORTYPE: [M-H]-
INSTRUMENTTYPE: LC-ESI-QTOF
SMILES: OC1=CC(O)=C2C(=O)C=C(OC2=C1)C1=CC(O)=C(O)C=C1
INCHIKEY: IQPNAANSBPBGFQ-UHFFFAOYSA-N
Ontology: Flavones
COLLISIONENERGY: 50
FORMULA: C15H10O6
RETENTIONTIME: 6.02435
IONMODE: Negative
Comment: registered in RIKEN PlaSMA
Num Peaks: 3
117.03832	645
157.02054	806
161.02173	1000

NAME: Pelargonidin-3,5-di-beta-D-glucoside
PRECURSORMZ: 593.15064521576
PRECURSORTYPE: [M-2H]-
INSTRUMENTTYPE: LC-ESI-QTOF
SMILES: OCC1OC(OC2=CC(O)=CC3=C2C=C(OC2OC(CO)C(O)C(O)C2O)C(=[O+]3)C2=CC=C(O)C=C2)C(O)C(O)C1O
INCHIKEY: SLCKJKWFULXZBD-UHFFFAOYNA-O
Ontology: Anthocyanidin-5-O-glycosides
COLLISIONENERGY: 10
FORMULA: C27H31O15
RETENTIONTIME: 2.720083
IONMODE: Negative
Comment: registered in RIKEN PlaSMA
Num Peaks: 17
197.07248	43
252.0511	49
267.0235	98
267.03653	55
268.03568	94
268.05276	43
269.04745	670
270.05313	109
271.056	42
427.97412	49
430.09686	42
430.11728	43
431.0748	42
431.10104	1000
432.10629	357
433.10977	40
593.14813	174

NAME: Cyanidin-3-O-galactoside
PRECURSORMZ: 447.09273641576
PRECURSORTYPE: [M-2H]-
INSTRUMENTTYPE: LC-ESI-QTOF
SMILES: OCC1OC(OC2=C([O+]=C3C=C(O)C=C(O)C3=C2)C2=CC(O)=C(O)C=C2)C(O)C(O)C1O
INCHIKEY: RKWHWFONKJEUEF-UHFFFAOYNA-O
Ontology: Anthocyanidin-3-O-glycosides
COLLISIONENERGY: 10
FORMULA: C21H21O11
RETENTIONTIME: 2.85235
IONMODE: Negative
Comment: registered in RIKEN PlaSMA
Num Peaks: 58
59.68923	16
108.01625	22
109.02497	13
125.0208	29
147.0025	15
147.01176	16
147.04651	16
149.02072	21
163.00742	23
164.69478	15
165.02177	13
170.03093	13
171.0453	35
174.01843	24
175.0006	26
188.04515	17
189.02411	25
197.06607	20
200.0462	35
201.05336	13
211.03749	26
212.04988	14
220.61217	19
221.06007	29
223.04585	24
224.04842	21
227.02747	17
228.04202	21
236.55911	23
239.03133	39
239.04137	21
240.03647	39
241.04585	22
255.02397	14
255.03236	14
255.80081	17
256.02097	16
256.03229	20
256.0419	24
257.04251	37
257.05914	20
257.59814	24
269.04492	24
273.51968	19
283.02438	85
284.03131	1000
285.03006	142
285.03827	297
286.03699	34
287.03427	13
287.05145	16
299.05032	27
299.06229	43
323.07745	19
339.05374	42
351.05179	19
407.10043	14
447.0907	468

NAME: Apigenin-7-O-neohesperidoside
PRECURSORMZ: 577.15627914783
PRECURSORTYPE: [M-H]-
INSTRUMENTTYPE: LC-ESI-QTOF
SMILES: CC1OC(OC2C(O)C(O)C(CO)OC2OC2=CC(O)=C3C(=O)C=C(OC3=C2)C2=CC=C(O)C=C2)C(O)C(O)C1O
INCHIKEY: RPMNUQRUHXIGHK-UHFFFAOYNA-N
Ontology: Flavonoid-7-O-glycosides
COLLISIONENERGY: 10
FORMULA: C27H30O14
RETENTIONTIME: 4.3424
IONMODE: Negative
Comment: registered in RIKEN PlaSMA
Num Peaks: 9
225.05489	7
268.03845	105
269.04337	1000
270.04764	175
270.06897	6
271.04874	29
272.04517	7
413.07404	17
577.15576	951

NAME: 4-Deoxyphloridzin
PRECURSORMZ: 419.13475594783
PRECURSORTYPE: [M-H]-
INSTRUMENTTYPE: LC-ESI-QTOF
SMILES: OCC1OC(OC2=CC(O)=CC(O)=C2C(=O)CCC2=CC=CC=C2)C(O)C(O)C1O
INCHIKEY: NLGUKXQDDTZCDG-UHFFFAOYNA-N
Ontology: Flavonoid O-glycosides
COLLISIONENERGY: 10
FORMULA: C21H24O9
RETENTIONTIME: 4.84605
IONMODE: Negative
Comment: registered in RIKEN PlaSMA
Num Peaks: 19
93.02881	5
93.03541	17
109.03044	10
135.00848	25
151.03798	572
152.03972	38
163.03793	151
164.03934	12
164.04735	6
189.05379	5
239.06628	17
239.07512	5
257.08014	1000
258.08319	178
259.0806	13
259.09457	13
260.08789	5
419.12491	12
419.13983	22

NAME: 4-Deoxyphloridzin
PRECURSORMZ: 465.14023525183
PRECURSORTYPE: [M+FA-H]-
INSTRUMENTTYPE: LC-ESI-QTOF
SMILES: OCC1OC(OC2=CC(O)=CC(O)=C2C(=O)CCC2=CC=CC=C2)C(O)C(O)C1O
INCHIKEY: NLGUKXQDDTZCDG-UHFFFAOYNA-N
Ontology: Flavonoid O-glycosides
COLLISIONENERGY: 10
FORMULA: C21H24O9
RETENTIONTIME: 4.84605
IONMODE: Negative
Comment: registered in RIKEN PlaSMA
Num Peaks: 13
52.56126	26
151.03815	659
152.03569	34
163.03618	174
257.07794	1000
258.07895	114
259.06845	30
259.09357	106
419.12326	56
419.14035	125
420.12933	28
420.146	30
421.1467	26

NAME: 3-Methoxycinnamic acid
PRECURSORMZ: 177.05571774783
PRECURSORTYPE: [M-H]-
INSTRUMENTTYPE: LC-ESI-QTOF
SMILES: COC1=CC=CC(C=CC(O)=O)=C1
INCHIKEY: LZPNXAULYJPXEH-UHFFFAOYSA-N
Ontology: Coumaric acids and derivatives
COLLISIONENERGY: 10
FORMULA: C10H10O3
RETENTIONTIME: 6.02435
IONMODE: Negative
Comment: registered in RIKEN PlaSMA
Num Peaks: 9
103.05412	1000
104.05319	101
104.05892	39
131.04547	28
131.05608	28
133.06062	93
133.06721	79
134.06352	25
177.05292	487

NAME: Luteolin
PRECURSORMZ: 285.04046154783
PRECURSORTYPE: [M-H]-
INSTRUMENTTYPE: LC-ESI-QTOF
SMILES: OC1=CC(O)=C2C(=O)C=C(OC2=C1)C1=CC(O)=C(O)C=C1
INCHIKEY: IQPNAANSBPBGFQ-UHFFFAOYSA-N
Ontology: Flavones
COLLISIONENERGY: 10
FORMULA: C15H10O6
RETENTIONTIME: 6.02435
IONMODE: Negative
Comment: registered in RIKEN PlaSMA
Num Peaks: 9
109.02547	156
151.00125	207
154.04274	274
156.05476	178
199.03625	141
256.02423	207
284.02197	178
284.60928	141
285.04178	1000

NAME: Pelargonidin-3,5-di-beta-D-glucoside
PRECURSORMZ: 593.15064521576
PRECURSORTYPE: [M-2H]-
INSTRUMENTTYPE: LC-ESI-QTOF
SMILES: OCC1OC(OC2=CC(O)=CC3=C2C=C(OC2OC(CO)C(O)C(O)C2O)C(=[O+]3)C2=CC=C(O)C=C2)C(O)C(O)C1O
INCHIKEY: SLCKJKWFULXZBD-UHFFFAOYNA-O
Ontology: Anthocyanidin-5-O-glycosides
COLLISIONENERGY: 10
FORMULA: C27H31O15
RETENTIONTIME: 2.720083
IONMODE: Negative
Comment: registered in RIKEN PlaSMA
Num Peaks: 11
269.03979	55
269.05505	25
271.06406	31
430.08002	31
431.09482	1000
431.11975	71
432.09338	155
433.08835	26
434.08618	22
593.14856	486
593.17798	59

NAME: Cyanidin-3-O-galactoside
PRECURSORMZ: 447.09273641576
PRECURSORTYPE: [M-2H]-
INSTRUMENTTYPE: LC-ESI-QTOF
SMILES: OCC1OC(OC2=C([O+]=C3C=C(O)C=C(O)C3=C2)C2=CC(O)=C(O)C=C2)C(O)C(O)C1O
INCHIKEY: RKWHWFONKJEUEF-UHFFFAOYNA-O
Ontology: Anthocyanidin-3-O-glycosides
COLLISIONENERGY: 10
FORMULA: C21H21O11
RETENTIONTIME: 2.85235
IONMODE: Negative
Comment: registered in RIKEN PlaSMA
Num Peaks: 34
125.0163	14
125.02441	7
178.02216	9
193.01036	14
200.24046	5
240.04539	6
244.95831	9
255.06273	10
257.03452	7
262.05133	7
284.02905	223
284.06601	5
285.03683	202
285.05698	17
286.0369	7
286.04996	12
287.04092	30
288.02734	6
299.04779	7
299.06018	5
300.06213	10
309.03238	6
319.08386	9
321.05649	8
321.06891	6
327.04953	20
360.30865	8
365.56897	11
381.09821	6
388.80826	13
411.07196	8
429.08096	6
443.18637	8
447.09116	1000

NAME: Apigenin-7-O-neohesperidoside
PRECURSORMZ: 577.15627914783
PRECURSORTYPE: [M-H]-
INSTRUMENTTYPE: LC-ESI-QTOF
SMILES: CC1OC(OC2C(O)C(O)C(CO)OC2OC2=CC(O)=C3C(=O)C=C(OC3=C2)C2=CC=C(O)C=C2)C(O)C(O)C1O
INCHIKEY: RPMNUQRUHXIGHK-UHFFFAOYNA-N
Ontology: Flavonoid-7-O-glycosides
COLLISIONENERGY: 10
FORMULA: C27H30O14
RETENTIONTIME: 4.3424
IONMODE: Negative
Comment: registered in RIKEN PlaSMA
Num Peaks: 3
269.03125	6
269.04056	19
577.15576	1000

NAME: 4-Deoxyphloridzin
PRECURSORMZ: 419.13475594783
PRECURSORTYPE: [M-H]-
INSTRUMENTTYPE: LC-ESI-QTOF
SMILES: OCC1OC(OC2=CC(O)=CC(O)=C2C(=O)CCC2=CC=CC=C2)C(O)C(O)C1O
INCHIKEY: NLGUKXQDDTZCDG-UHFFFAOYNA-N
Ontology: Flavonoid O-glycosides
COLLISIONENERGY: 10
FORMULA: C21H24O9
RETENTIONTIME: 4.84605
IONMODE: Negative
Comment: registered in RIKEN PlaSMA
Num Peaks: 6
151.03798	12
163.04013	6
257.08057	1000
258.08359	177
259.08746	20
419.13489	81

NAME: 4-Deoxyphloridzin
PRECURSORMZ: 465.14023525183
PRECURSORTYPE: [M+FA-H]-
INSTRUMENTTYPE: LC-ESI-QTOF
SMILES: OCC1OC(OC2=CC(O)=CC(O)=C2C(=O)CCC2=CC=CC=C2)C(O)C(O)C1O
INCHIKEY: NLGUKXQDDTZCDG-UHFFFAOYNA-N
Ontology: Flavonoid O-glycosides
COLLISIONENERGY: 10
FORMULA: C21H24O9
RETENTIONTIME: 4.84605
IONMODE: Negative
Comment: registered in RIKEN PlaSMA
Num Peaks: 10
257.07996	1000
258.08496	193
258.10382	17
259.08643	34
419.13312	953
419.15939	29
420.13895	146
421.12848	13
421.14526	32
421.16602	15

NAME: 3-Methoxycinnamic acid
PRECURSORMZ: 177.05571774783
PRECURSORTYPE: [M-H]-
INSTRUMENTTYPE: LC-ESI-QTOF
SMILES: COC1=CC=CC(C=CC(O)=O)=C1
INCHIKEY: LZPNXAULYJPXEH-UHFFFAOYSA-N
Ontology: Coumaric acids and derivatives
COLLISIONENERGY: 10
FORMULA: C10H10O3
RETENTIONTIME: 6.02435
IONMODE: Negative
Comment: registered in RIKEN PlaSMA
Num Peaks: 13
103.05365	1000
104.0583	61
105.07114	49
115.05145	45
118.0376	10
131.04753	49
131.15277	14
133.06509	342
134.07185	29
165.18929	14
176.8401	10
176.8461	14
177.05403	666

NAME: Luteolin
PRECURSORMZ: 285.04046154783
PRECURSORTYPE: [M-H]-
INSTRUMENTTYPE: LC-ESI-QTOF
SMILES: OC1=CC(O)=C2C(=O)C=C(OC2=C1)C1=CC(O)=C(O)C=C1
INCHIKEY: IQPNAANSBPBGFQ-UHFFFAOYSA-N
Ontology: Flavones
COLLISIONENERGY: 10
FORMULA: C15H10O6
RETENTIONTIME: 6.02435
IONMODE: Negative
Comment: registered in RIKEN PlaSMA
Num Peaks: 6
119.33452	54
213.05898	64
257.05276	51
281.15201	49
285.03802	1000
285.0585	67

NAME: Pelargonidin-3,5-di-beta-D-glucoside
PRECURSORMZ: 593.15064521576
PRECURSORTYPE: [M-2H]-
INSTRUMENTTYPE: LC-ESI-QTOF
SMILES: OCC1OC(OC2=CC(O)=CC3=C2C=C(OC2OC(CO)C(O)C(O)C2O)C(=[O+]3)C2=CC=C(O)C=C2)C(O)C(O)C1O
INCHIKEY: SLCKJKWFULXZBD-UHFFFAOYNA-O
Ontology: Anthocyanidin-5-O-glycosides
COLLISIONENERGY: 30
FORMULA: C27H31O15
RETENTIONTIME: 2.720083
IONMODE: Negative
Comment: registered in RIKEN PlaSMA
Num Peaks: 15
147.00488	43
175.01636	18
241.0596	23
241.07568	20
267.03247	107
268.02567	69
268.0372	49
268.04724	18
269.04294	1000
270.04608	87
270.06906	21
271.04169	25
271.05276	18
430.09567	29
431.09375	47

NAME: Cyanidin-3-O-galactoside
PRECURSORMZ: 447.09273641576
PRECURSORTYPE: [M-2H]-
INSTRUMENTTYPE: LC-ESI-QTOF
SMILES: OCC1OC(OC2=C([O+]=C3C=C(O)C=C(O)C3=C2)C2=CC(O)=C(O)C=C2)C(O)C(O)C1O
INCHIKEY: RKWHWFONKJEUEF-UHFFFAOYNA-O
Ontology: Anthocyanidin-3-O-glycosides
COLLISIONENERGY: 30
FORMULA: C21H21O11
RETENTIONTIME: 2.85235
IONMODE: Negative
Comment: registered in RIKEN PlaSMA
Num Peaks: 67
109.02309	14
109.02937	14
110.0293	13
120.01941	10
125.02544	10
146.99432	10
147.00778	156
147.0441	13
148.00743	26
148.01479	27
148.01929	10
149.02008	12
164.0083	14
170.03725	27
172.0434	10
172.0511	22
175.03517	14
175.05104	13
184.02017	14
184.04605	14
187.03673	10
195.05479	14
196.03674	17
196.04977	14
200.04503	13
201.01788	11
211.03728	18
212.03751	16
212.04974	24
213.0489	27
213.05939	13
215.0282	10
217.04964	21
224.04494	14
227.02562	10
228.03661	21
228.04431	14
229.03709	29
239.03798	39
240.0367	10
240.04974	36
241.04018	14
241.04694	49
241.56239	11
243.01912	12
243.0352	31
255.02141	34
255.03372	41
256.03107	140
256.04373	35
257.03354	11
257.04645	21
259.86969	13
269.04807	12
279.94141	10
283.01657	79
283.03009	80
284.03101	1000
285.01822	11
285.04144	128
285.1265	10
286.0368	41
286.04642	24
287.00693	15
295.0249	14
295.69299	11
301.06604	11

NAME: Apigenin-7-O-neohesperidoside
PRECURSORMZ: 577.15627914783
PRECURSORTYPE: [M-H]-
INSTRUMENTTYPE: LC-ESI-QTOF
SMILES: CC1OC(OC2C(O)C(O)C(CO)OC2OC2=CC(O)=C3C(=O)C=C(OC3=C2)C2=CC=C(O)C=C2)C(O)C(O)C1O
INCHIKEY: RPMNUQRUHXIGHK-UHFFFAOYNA-N
Ontology: Flavonoid-7-O-glycosides
COLLISIONENERGY: 30
FORMULA: C27H30O14
RETENTIONTIME: 4.3424
IONMODE: Negative
Comment: registered in RIKEN PlaSMA
Num Peaks: 8
268.03235	38
268.04105	33
269.04465	1000
270.04776	178
271.04752	22
413.07248	5
413.08942	8
577.15308	49

NAME: 4-Deoxyphloridzin
PRECURSORMZ: 419.13475594783
PRECURSORTYPE: [M-H]-
INSTRUMENTTYPE: LC-ESI-QTOF
SMILES: OCC1OC(OC2=CC(O)=CC(O)=C2C(=O)CCC2=CC=CC=C2)C(O)C(O)C1O
INCHIKEY: NLGUKXQDDTZCDG-UHFFFAOYNA-N
Ontology: Flavonoid O-glycosides
COLLISIONENERGY: 30
FORMULA: C21H24O9
RETENTIONTIME: 4.84605
IONMODE: Negative
Comment: registered in RIKEN PlaSMA
Num Peaks: 14
83.01176	7
93.03503	31
109.02728	23
135.0042	9
135.01262	12
151.03862	1000
152.04182	107
153.04219	10
163.03856	185
164.04158	21
239.07051	15
239.08131	5
257.07874	67
258.0824	13

NAME: 3-Methoxycinnamic acid
PRECURSORMZ: 177.05571774783
PRECURSORTYPE: [M-H]-
INSTRUMENTTYPE: LC-ESI-QTOF
SMILES: COC1=CC=CC(C=CC(O)=O)=C1
INCHIKEY: LZPNXAULYJPXEH-UHFFFAOYSA-N
Ontology: Coumaric acids and derivatives
COLLISIONENERGY: 30
FORMULA: C10H10O3
RETENTIONTIME: 6.02435
IONMODE: Negative
Comment: registered in RIKEN PlaSMA
Num Peaks: 1
103.0549	1000

NAME: Luteolin
PRECURSORMZ: 285.04046154783
PRECURSORTYPE: [M-H]-
INSTRUMENTTYPE: LC-ESI-QTOF
SMILES: OC1=CC(O)=C2C(=O)C=C(OC2=C1)C1=CC(O)=C(O)C=C1
INCHIKEY: IQPNAANSBPBGFQ-UHFFFAOYSA-N
Ontology: Flavones
COLLISIONENERGY: 30
FORMULA: C15H10O6
RETENTIONTIME: 6.02435
IONMODE: Negative
Comment: registered in RIKEN PlaSMA
Num Peaks: 4
133.02606	1000
152.00432	245
169.0636	204
175.04039	214

NAME: Pelargonidin-3,5-di-beta-D-glucoside
PRECURSORMZ: 593.15064521576
PRECURSORTYPE: [M-2H]-
INSTRUMENTTYPE: LC-ESI-QTOF
SMILES: OCC1OC(OC2=CC(O)=CC3=C2C=C(OC2OC(CO)C(O)C(O)C2O)C(=[O+]3)C2=CC=C(O)C=C2)C(O)C(O)C1O
INCHIKEY: SLCKJKWFULXZBD-UHFFFAOYNA-O
Ontology: Anthocyanidin-5-O-glycosides
COLLISIONENERGY: 50
FORMULA: C27H31O15
RETENTIONTIME: 2.720083
IONMODE: Negative
Comment: registered in RIKEN PlaSMA
Num Peaks: 31
93.03315	43
122.02703	84
147.00758	306
148.00955	57
149.0265	62
155.05768	57
175.01173	77
180.05092	45
195.04634	43
196.05545	53
197.05325	86
199.04068	62
211.03702	117
213.05327	124
224.05075	57
225.05579	84
238.02695	48
239.01866	48
239.03584	282
239.05511	55
240.04733	50
241.03551	55
241.05318	79
242.054	53
253.04356	74
267.02914	1000
268.0267	132
268.03452	79
268.04907	84
269.03961	108
337.94275	65

NAME: Cyanidin-3-O-galactoside
PRECURSORMZ: 447.09273641576
PRECURSORTYPE: [M-2H]-
INSTRUMENTTYPE: LC-ESI-QTOF
SMILES: OCC1OC(OC2=C([O+]=C3C=C(O)C=C(O)C3=C2)C2=CC(O)=C(O)C=C2)C(O)C(O)C1O
INCHIKEY: RKWHWFONKJEUEF-UHFFFAOYNA-O
Ontology: Anthocyanidin-3-O-glycosides
COLLISIONENERGY: 50
FORMULA: C21H21O11
RETENTIONTIME: 2.85235
IONMODE: Negative
Comment: registered in RIKEN PlaSMA
Num Peaks: 59
89.03574	47
92.02474	58
104.02853	77
108.01957	259
109.02216	50
119.01411	174
120.01577	116
122.02716	66
132.01529	124
137.02583	92
141.03481	53
143.05322	71
144.02011	61
145.03349	79
147.00539	488
147.04268	53
147.05043	84
148.01204	116
155.05016	47
156.02	74
156.05159	47
158.02655	53
158.0356	90
161.06285	63
167.05467	58
170.02951	195
171.04407	53
174.02676	53
183.0383	47
183.047	132
184.03896	58
187.02982	58
187.03909	121
188.04517	63
194.21542	66
195.04156	158
195.96312	106
196.05215	124
198.02858	224
199.03529	219
200.05087	53
211.03917	1000
212.04729	108
215.03424	63
222.02434	90
223.03822	121
224.03374	53
227.00211	92
227.03224	580
227.12962	47
239.02769	237
239.037	140
240.03471	119
241.04967	53
255.02342	491
256.03821	111
257.02881	53
267.02045	53
281.61319	53

NAME: Apigenin-7-O-neohesperidoside
PRECURSORMZ: 577.15627914783
PRECURSORTYPE: [M-H]-
INSTRUMENTTYPE: LC-ESI-QTOF
SMILES: CC1OC(OC2C(O)C(O)C(CO)OC2OC2=CC(O)=C3C(=O)C=C(OC3=C2)C2=CC=C(O)C=C2)C(O)C(O)C1O
INCHIKEY: RPMNUQRUHXIGHK-UHFFFAOYNA-N
Ontology: Flavonoid-7-O-glycosides
COLLISIONENERGY: 50
FORMULA: C27H30O14
RETENTIONTIME: 4.3424
IONMODE: Negative
Comment: registered in RIKEN PlaSMA
Num Peaks: 35
107.01093	24
117.0332	36
122.00087	6
149.01947	9
149.02974	8
149.99164	7
151.00009	16
159.04765	9
161.02083	30
169.05939	9
171.04556	7
172.04604	7
181.06337	12
183.04497	15
184.05186	7
197.06523	12
200.05087	11
201.05177	7
212.0443	9
224.05267	8
224.97186	8
225.05251	21
226.05904	11
227.0327	8
239.03484	21
240.03583	17
240.04839	14
267.02649	5
267.0361	6
268.03604	472
269.04266	1000
270.0459	129
270.05521	38
271.04599	16
271.0582	13

NAME: 4-Deoxyphloridzin
PRECURSORMZ: 419.13475594783
PRECURSORTYPE: [M-H]-
INSTRUMENTTYPE: LC-ESI-QTOF
SMILES: OCC1OC(OC2=CC(O)=CC(O)=C2C(=O)CCC2=CC=CC=C2)C(O)C(O)C1O
INCHIKEY: NLGUKXQDDTZCDG-UHFFFAOYNA-N
Ontology: Flavonoid O-glycosides
COLLISIONENERGY: 50
FORMULA: C21H24O9
RETENTIONTIME: 4.84605
IONMODE: Negative
Comment: registered in RIKEN PlaSMA
Num Peaks: 90
57.86857	18
67.01447	7
67.01974	5
80.02821	11
83.01269	97
84.01644	16
91.01752	171
91.02565	12
92.01527	10
92.02193	23
93.03419	133
94.03284	15
95.01401	5
102.8243	10
105.01899	7
105.03656	16
106.46258	7
107.04689	12
107.05475	12
108.02345	20
109.02753	386
109.21504	6
110.02732	20
110.80856	5
111.03416	9
117.03244	76
117.4166	8
119.04396	36
121.02664	29
121.03622	12
121.05943	7
121.06656	6
132.02663	6
133.01807	18
133.02745	176
134.03337	7
135.00735	630
135.04305	27
135.7464	6
136.01007	51
136.02133	13
136.04929	15
136.24191	6
137.02049	15
141.06442	6
143.04581	12
143.06398	6
144.05341	12
145.02756	23
147.03333	7
147.04811	7
148.00865	7
148.01628	22
149.01691	11
151.03836	1000
151.81041	6
152.04083	93
161.0247	17
163.03822	88
164.03427	5
164.04567	6
165.03355	8
165.05405	8
167.08179	10
169.06531	8
171.04494	115
172.04317	28
174.9619	7
175.08884	7
180.04306	7
180.05756	6
181.06406	9
189.05502	15
190.05167	5
194.06471	6
195.08157	24
196.09001	9
209.04985	7
211.06857	7
221.06419	7
224.04053	10
224.05031	16
225.04497	6
225.05418	5
232.00394	6
238.05861	7
239.06866	32
239.08076	5
240.07561	5
240.47964	8

NAME: Luteolin
PRECURSORMZ: 285.04046154783
PRECURSORTYPE: [M-H]-
INSTRUMENTTYPE: LC-ESI-QTOF
SMILES: OC1=CC(O)=C2C(=O)C=C(OC2=C1)C1=CC(O)=C(O)C=C1
INCHIKEY: IQPNAANSBPBGFQ-UHFFFAOYSA-N
Ontology: Flavones
COLLISIONENERGY: 50
FORMULA: C15H10O6
RETENTIONTIME: 6.02435
IONMODE: Negative
Comment: registered in RIKEN PlaSMA
Num Peaks: 5
103.05648	615
117.0378	423
130.03873	1000
141.03107	692
161.02632	442

NAME: Pelargonidin-3,5-di-beta-D-glucoside
PRECURSORMZ: 593.15064521576
PRECURSORTYPE: [M-2H]-
INSTRUMENTTYPE: LC-ESI-QTOF
SMILES: OCC1OC(OC2=CC(O)=CC3=C2C=C(OC2OC(CO)C(O)C(O)C2O)C(=[O+]3)C2=CC=C(O)C=C2)C(O)C(O)C1O
INCHIKEY: SLCKJKWFULXZBD-UHFFFAOYNA-O
Ontology: Anthocyanidin-5-O-glycosides
COLLISIONENERGY: 10
FORMULA: C27H31O15
RETENTIONTIME: 2.720083
IONMODE: Negative
Comment: registered in RIKEN PlaSMA
Num Peaks: 17
267.02823	109
267.04007	78
268.02756	40
269.043	1000
270.04758	161
271.0697	38
293.05365	36
332.05826	42
430.07205	40
430.09186	40
430.11206	50
431.09781	664
431.12009	60
432.0994	314
433.12326	54
593.12823	54
593.15387	74

NAME: Cyanidin-3-O-galactoside
PRECURSORMZ: 447.09273641576
PRECURSORTYPE: [M-2H]-
INSTRUMENTTYPE: LC-ESI-QTOF
SMILES: OCC1OC(OC2=C([O+]=C3C=C(O)C=C(O)C3=C2)C2=CC(O)=C(O)C=C2)C(O)C(O)C1O
INCHIKEY: RKWHWFONKJEUEF-UHFFFAOYNA-O
Ontology: Anthocyanidin-3-O-glycosides
COLLISIONENERGY: 10
FORMULA: C21H21O11
RETENTIONTIME: 2.85235
IONMODE: Negative
Comment: registered in RIKEN PlaSMA
Num Peaks: 43
105.40329	16
125.02356	37
147.00832	71
147.03941	31
149.02538	14
164.01118	41
165.0173	15
166.03851	19
173.02301	16
189.05048	60
190.99541	49
195.03976	17
195.05586	19
196.05206	18
199.03745	40
201.01768	15
211.03635	34
212.04628	46
215.03137	32
231.02061	19
240.04088	43
241.05426	15
242.02376	15
245.033	15
254.9662	13
255.02649	64
256.02811	20
257.03745	15
283.00494	19
283.02316	47
284.03159	1000
285.02429	82
285.04034	333
286.03189	23
286.04208	15
298.04367	23
299.04556	15
299.06384	18
340.05273	16
356.80313	19
379.09595	23
446.99738	15
447.09445	476

NAME: Apigenin-7-O-neohesperidoside
PRECURSORMZ: 577.15627914783
PRECURSORTYPE: [M-H]-
INSTRUMENTTYPE: LC-ESI-QTOF
SMILES: CC1OC(OC2C(O)C(O)C(CO)OC2OC2=CC(O)=C3C(=O)C=C(OC3=C2)C2=CC=C(O)C=C2)C(O)C(O)C1O
INCHIKEY: RPMNUQRUHXIGHK-UHFFFAOYNA-N
Ontology: Flavonoid-7-O-glycosides
COLLISIONENERGY: 10
FORMULA: C27H30O14
RETENTIONTIME: 4.3424
IONMODE: Negative
Comment: registered in RIKEN PlaSMA
Num Peaks: 10
225.05446	5
268.0228	10
268.03815	76
269.0441	795
270.04736	194
271.05399	11
372.08591	5
413.08578	16
577.10345	5
577.1571	1000

NAME: 4-Deoxyphloridzin
PRECURSORMZ: 419.13475594783
PRECURSORTYPE: [M-H]-
INSTRUMENTTYPE: LC-ESI-QTOF
SMILES: OCC1OC(OC2=CC(O)=CC(O)=C2C(=O)CCC2=CC=CC=C2)C(O)C(O)C1O
INCHIKEY: NLGUKXQDDTZCDG-UHFFFAOYNA-N
Ontology: Flavonoid O-glycosides
COLLISIONENERGY: 10
FORMULA: C21H24O9
RETENTIONTIME: 4.84605
IONMODE: Negative
Comment: registered in RIKEN PlaSMA
Num Peaks: 14
83.01127	9
109.02471	5
135.00667	20
151.03806	648
152.04085	57
153.04549	12
163.0368	123
164.037	9
239.0704	14
257.07996	1000
258.08337	172
259.08322	17
259.09534	8
419.13446	33

NAME: 4-Deoxyphloridzin
PRECURSORMZ: 465.14023525183
PRECURSORTYPE: [M+FA-H]-
INSTRUMENTTYPE: LC-ESI-QTOF
SMILES: OCC1OC(OC2=CC(O)=CC(O)=C2C(=O)CCC2=CC=CC=C2)C(O)C(O)C1O
INCHIKEY: NLGUKXQDDTZCDG-UHFFFAOYNA-N
Ontology: Flavonoid O-glycosides
COLLISIONENERGY: 10
FORMULA: C21H24O9
RETENTIONTIME: 4.84605
IONMODE: Negative
Comment: registered in RIKEN PlaSMA
Num Peaks: 15
93.03575	17
137.0219	20
151.03314	109
151.039	249
152.03809	28
152.04485	29
159.53012	17
163.03612	109
257.07724	1000
257.08975	177
257.18246	17
258.08484	227
419.12402	155
419.14099	105
420.12674	22

NAME: 3-Methoxycinnamic acid
PRECURSORMZ: 177.05571774783
PRECURSORTYPE: [M-H]-
INSTRUMENTTYPE: LC-ESI-QTOF
SMILES: COC1=CC=CC(C=CC(O)=O)=C1
INCHIKEY: LZPNXAULYJPXEH-UHFFFAOYSA-N
Ontology: Coumaric acids and derivatives
COLLISIONENERGY: 10
FORMULA: C10H10O3
RETENTIONTIME: 6.02435
IONMODE: Negative
Comment: registered in RIKEN PlaSMA
Num Peaks: 12
103.0528	1000
103.0633	92
104.05354	27
105.06863	62
115.05603	29
131.04601	40
133.06059	53
133.06693	147
133.07686	46
159.90196	29
177.04544	55
177.05627	391

NAME: Luteolin
PRECURSORMZ: 285.04046154783
PRECURSORTYPE: [M-H]-
INSTRUMENTTYPE: LC-ESI-QTOF
SMILES: OC1=CC(O)=C2C(=O)C=C(OC2=C1)C1=CC(O)=C(O)C=C1
INCHIKEY: IQPNAANSBPBGFQ-UHFFFAOYSA-N
Ontology: Flavones
COLLISIONENERGY: 10
FORMULA: C15H10O6
RETENTIONTIME: 6.02435
IONMODE: Negative
Comment: registered in RIKEN PlaSMA
Num Peaks: 4
119.04778	195
144.04836	203
159.03679	169
285.03909	1000

NAME: Pelargonidin-3,5-di-beta-D-glucoside
PRECURSORMZ: 593.15064521576
PRECURSORTYPE: [M-2H]-
INSTRUMENTTYPE: LC-ESI-QTOF
SMILES: OCC1OC(OC2=CC(O)=CC3=C2C=C(OC2OC(CO)C(O)C(O)C2O)C(=[O+]3)C2=CC=C(O)C=C2)C(O)C(O)C1O
INCHIKEY: SLCKJKWFULXZBD-UHFFFAOYNA-O
Ontology: Anthocyanidin-5-O-glycosides
COLLISIONENERGY: 10
FORMULA: C27H31O15
RETENTIONTIME: 2.720083
IONMODE: Negative
Comment: registered in RIKEN PlaSMA
Num Peaks: 9
253.04184	28
269.05136	27
431.1001	1000
432.09769	309
433.09009	87
434.10785	26
593.13379	115
593.15582	138
593.17206	102

NAME: Cyanidin-3-O-galactoside
PRECURSORMZ: 447.09273641576
PRECURSORTYPE: [M-2H]-
INSTRUMENTTYPE: LC-ESI-QTOF
SMILES: OCC1OC(OC2=C([O+]=C3C=C(O)C=C(O)C3=C2)C2=CC(O)=C(O)C=C2)C(O)C(O)C1O
INCHIKEY: RKWHWFONKJEUEF-UHFFFAOYNA-O
Ontology: Anthocyanidin-3-O-glycosides
COLLISIONENERGY: 10
FORMULA: C21H21O11
RETENTIONTIME: 2.85235
IONMODE: Negative
Comment: registered in RIKEN PlaSMA
Num Peaks: 29
58.31624	8
125.02361	28
164.00589	9
229.01285	11
269.0379	17
283.02466	7
284.03128	205
284.0452	53
285.03098	41
285.04199	60
286.04132	29
287.03781	8
290.87604	7
297.03268	17
298.0423	10
299.0575	9
300.05161	7
309.0578	15
311.05844	6
315.05261	9
321.06131	8
327.04935	10
339.04205	10
339.06604	7
369.00699	8
370.06531	10
387.07004	8
439.25455	15
447.09125	1000

NAME: Apigenin-7-O-neohesperidoside
PRECURSORMZ: 577.15627914783
PRECURSORTYPE: [M-H]-
INSTRUMENTTYPE: LC-ESI-QTOF
SMILES: CC1OC(OC2C(O)C(O)C(CO)OC2OC2=CC(O)=C3C(=O)C=C(OC3=C2)C2=CC=C(O)C=C2)C(O)C(O)C1O
INCHIKEY: RPMNUQRUHXIGHK-UHFFFAOYNA-N
Ontology: Flavonoid-7-O-glycosides
COLLISIONENERGY: 10
FORMULA: C27H30O14
RETENTIONTIME: 4.3424
IONMODE: Negative
Comment: registered in RIKEN PlaSMA
Num Peaks: 2
269.04291	15
577.15564	1000

NAME: 4-Deoxyphloridzin
PRECURSORMZ: 419.13475594783
PRECURSORTYPE: [M-H]-
INSTRUMENTTYPE: LC-ESI-QTOF
SMILES: OCC1OC(OC2=CC(O)=CC(O)=C2C(=O)CCC2=CC=CC=C2)C(O)C(O)C1O
INCHIKEY: NLGUKXQDDTZCDG-UHFFFAOYNA-N
Ontology: Flavonoid O-glycosides
COLLISIONENERGY: 10
FORMULA: C21H24O9
RETENTIONTIME: 4.84605
IONMODE: Negative
Comment: registered in RIKEN PlaSMA
Num Peaks: 5
151.04189	16
257.08047	1000
258.08429	176
259.08621	14
419.13406	70

NAME: 4-Deoxyphloridzin
PRECURSORMZ: 465.14023525183
PRECURSORTYPE: [M+FA-H]-
INSTRUMENTTYPE: LC-ESI-QTOF
SMILES: OCC1OC(OC2=CC(O)=CC(O)=C2C(=O)CCC2=CC=CC=C2)C(O)C(O)C1O
INCHIKEY: NLGUKXQDDTZCDG-UHFFFAOYNA-N
Ontology: Flavonoid O-glycosides
COLLISIONENERGY: 10
FORMULA: C21H24O9
RETENTIONTIME: 4.84605
IONMODE: Negative
Comment: registered in RIKEN PlaSMA
Num Peaks: 10
257.07947	1000
258.08795	95
263.15015	48
388.18762	45
419.13315	807
419.15631	93
420.12549	52
420.14011	87
421.12338	43
421.14206	43

NAME: 3-Methoxycinnamic acid
PRECURSORMZ: 177.05571774783
PRECURSORTYPE: [M-H]-
INSTRUMENTTYPE: LC-ESI-QTOF
SMILES: COC1=CC=CC(C=CC(O)=O)=C1
INCHIKEY: LZPNXAULYJPXEH-UHFFFAOYSA-N
Ontology: Coumaric acids and derivatives
COLLISIONENERGY: 10
FORMULA: C10H10O3
RETENTIONTIME: 6.02435
IONMODE: Negative
Comment: registered in RIKEN PlaSMA
Num Peaks: 8
103.05489	815
103.11363	20
104.05972	55
131.04788	49
133.04507	23
133.06544	285
176.84613	26
177.05663	1000

NAME: Luteolin
PRECURSORMZ: 285.04046154783
PRECURSORTYPE: [M-H]-
INSTRUMENTTYPE: LC-ESI-QTOF
SMILES: OC1=CC(O)=C2C(=O)C=C(OC2=C1)C1=CC(O)=C(O)C=C1
INCHIKEY: IQPNAANSBPBGFQ-UHFFFAOYSA-N
Ontology: Flavones
COLLISIONENERGY: 10
FORMULA: C15H10O6
RETENTIONTIME: 6.02435
IONMODE: Negative
Comment: registered in RIKEN PlaSMA
Num Peaks: 4
170.48761	95
187.76443	82
285.03308	427
285.04269	1000

NAME: Pelargonidin-3,5-di-beta-D-glucoside
PRECURSORMZ: 593.15064521576
PRECURSORTYPE: [M-2H]-
INSTRUMENTTYPE: LC-ESI-QTOF
SMILES: OCC1OC(OC2=CC(O)=CC3=C2C=C(OC2OC(CO)C(O)C(O)C2O)C(=[O+]3)C2=CC=C(O)C=C2)C(O)C(O)C1O
INCHIKEY: SLCKJKWFULXZBD-UHFFFAOYNA-O
Ontology: Anthocyanidin-5-O-glycosides
COLLISIONENERGY: 30
FORMULA: C27H31O15
RETENTIONTIME: 2.720083
IONMODE: Negative
Comment: registered in RIKEN PlaSMA
Num Peaks: 17
147.00514	52
218.01988	28
225.04089	24
267.01999	76
267.03259	96
268.03067	99
268.05084	45
268.88882	43
269.04135	1000
270.04807	156
271.05246	54
272.06537	30
293.04874	28
311.04416	41
430.08612	61
430.10507	35
431.09766	26

NAME: Cyanidin-3-O-galactoside
PRECURSORMZ: 447.09273641576
PRECURSORTYPE: [M-2H]-
INSTRUMENTTYPE: LC-ESI-QTOF
SMILES: OCC1OC(OC2=C([O+]=C3C=C(O)C=C(O)C3=C2)C2=CC(O)=C(O)C=C2)C(O)C(O)C1O
INCHIKEY: RKWHWFONKJEUEF-UHFFFAOYNA-O
Ontology: Anthocyanidin-3-O-glycosides
COLLISIONENERGY: 30
FORMULA: C21H21O11
RETENTIONTIME: 2.85235
IONMODE: Negative
Comment: registered in RIKEN PlaSMA
Num Peaks: 66
108.02462	11
109.02852	27
121.01466	14
121.02709	15
125.02068	62
136.04057	12
137.02171	15
138.02452	12
147.00697	30
148.02071	33
149.02599	12
156.05902	22
173.06842	17
175.00766	13
175.03618	13
176.00713	15
177.02631	16
188.04893	17
195.03967	22
201.02036	15
201.04639	12
201.05536	16
211.0351	16
212.05006	19
213.02577	12
213.06111	11
214.01996	12
215.03075	14
217.04047	12
224.04494	17
226.02519	13
226.05069	15
227.03543	38
228.03822	12
228.04924	20
228.07535	14
230.01236	14
230.05022	12
239.02153	28
239.03711	12
240.02873	14
240.04356	54
241.00069	17
241.03984	47
241.05927	36
243.06366	12
255.02821	93
255.04073	24
256.03152	106
256.05984	18
257.03833	30
258.0441	13
267.01471	12
270.04474	14
271.05319	13
283.01364	69
283.02777	91
284.03174	1000
284.06723	12
285.03183	156
285.04279	46
286.04092	34
287.04956	14
297.03745	15
299.04968	15
335.08121	12

NAME: Apigenin-7-O-neohesperidoside
PRECURSORMZ: 577.15627914783
PRECURSORTYPE: [M-H]-
INSTRUMENTTYPE: LC-ESI-QTOF
SMILES: CC1OC(OC2C(O)C(O)C(CO)OC2OC2=CC(O)=C3C(=O)C=C(OC3=C2)C2=CC=C(O)C=C2)C(O)C(O)C1O
INCHIKEY: RPMNUQRUHXIGHK-UHFFFAOYNA-N
Ontology: Flavonoid-7-O-glycosides
COLLISIONENERGY: 30
FORMULA: C27H30O14
RETENTIONTIME: 4.3424
IONMODE: Negative
Comment: registered in RIKEN PlaSMA
Num Peaks: 6
268.0369	87
269.04468	1000
270.04855	188
271.05038	27
413.08502	7
577.1568	52

NAME: 4-Deoxyphloridzin
PRECURSORMZ: 419.13475594783
PRECURSORTYPE: [M-H]-
INSTRUMENTTYPE: LC-ESI-QTOF
SMILES: OCC1OC(OC2=CC(O)=CC(O)=C2C(=O)CCC2=CC=CC=C2)C(O)C(O)C1O
INCHIKEY: NLGUKXQDDTZCDG-UHFFFAOYNA-N
Ontology: Flavonoid O-glycosides
COLLISIONENERGY: 30
FORMULA: C21H24O9
RETENTIONTIME: 4.84605
IONMODE: Negative
Comment: registered in RIKEN PlaSMA
Num Peaks: 16
93.03191	31
109.02882	22
133.02893	7
135.00739	30
135.0471	8
151.03899	1000
152.04333	85
153.04477	7
163.03876	184
164.04251	25
239.06589	14
239.07603	5
240.07303	9
240.08371	6
257.08087	85
258.07944	14

NAME: 4-Deoxyphloridzin
PRECURSORMZ: 465.14023525183
PRECURSORTYPE: [M+FA-H]-
INSTRUMENTTYPE: LC-ESI-QTOF
SMILES: OCC1OC(OC2=CC(O)=CC(O)=C2C(=O)CCC2=CC=CC=C2)C(O)C(O)C1O
INCHIKEY: NLGUKXQDDTZCDG-UHFFFAOYNA-N
Ontology: Flavonoid O-glycosides
COLLISIONENERGY: 30
FORMULA: C21H24O9
RETENTIONTIME: 4.84605
IONMODE: Negative
Comment: registered in RIKEN PlaSMA
Num Peaks: 12
93.03295	22
109.0253	18
151.04008	1000
152.0408	18
152.04967	16
153.04396	37
163.04005	104
164.05162	14
239.07381	44
241.07217	14
257.07913	302
258.08755	52

NAME: Luteolin
PRECURSORMZ: 285.04046154783
PRECURSORTYPE: [M-H]-
INSTRUMENTTYPE: LC-ESI-QTOF
SMILES: OC1=CC(O)=C2C(=O)C=C(OC2=C1)C1=CC(O)=C(O)C=C1
INCHIKEY: IQPNAANSBPBGFQ-UHFFFAOYSA-N
Ontology: Flavones
COLLISIONENERGY: 30
FORMULA: C15H10O6
RETENTIONTIME: 6.02435
IONMODE: Negative
Comment: registered in RIKEN PlaSMA
Num Peaks: 4
133.01991	979
133.02621	1000
155.04402	375
175.04498	542

NAME: Pelargonidin-3,5-di-beta-D-glucoside
PRECURSORMZ: 593.15064521576
PRECURSORTYPE: [M-2H]-
INSTRUMENTTYPE: LC-ESI-QTOF
SMILES: OCC1OC(OC2=CC(O)=CC3=C2C=C(OC2OC(CO)C(O)C(O)C2O)C(=[O+]3)C2=CC=C(O)C=C2)C(O)C(O)C1O
INCHIKEY: SLCKJKWFULXZBD-UHFFFAOYNA-O
Ontology: Anthocyanidin-5-O-glycosides
COLLISIONENERGY: 50
FORMULA: C27H31O15
RETENTIONTIME: 2.720083
IONMODE: Negative
Comment: registered in RIKEN PlaSMA
Num Peaks: 11
147.01082	312
167.0499	110
197.06091	150
213.04875	220
226.01758	145
227.02608	162
238.06541	133
267.01865	254
267.03516	1000
268.02991	197
269.03619	116

NAME: Cyanidin-3-O-galactoside
PRECURSORMZ: 447.09273641576
PRECURSORTYPE: [M-2H]-
INSTRUMENTTYPE: LC-ESI-QTOF
SMILES: OCC1OC(OC2=C([O+]=C3C=C(O)C=C(O)C3=C2)C2=CC(O)=C(O)C=C2)C(O)C(O)C1O
INCHIKEY: RKWHWFONKJEUEF-UHFFFAOYNA-O
Ontology: Anthocyanidin-3-O-glycosides
COLLISIONENERGY: 50
FORMULA: C21H21O11
RETENTIONTIME: 2.85235
IONMODE: Negative
Comment: registered in RIKEN PlaSMA
Num Peaks: 46
84.07413	55
106.00454	61
107.01083	144
108.01738	116
109.02229	83
110.03523	80
119.01546	67
120.02135	162
125.03828	89
127.05365	67
129.03226	70
145.03773	86
147.00212	61
148.01198	196
149.01868	70
149.02815	73
155.04399	61
155.23654	58
157.06332	55
160.05772	101
170.04344	55
172.03973	76
175.01012	80
179.05266	70
182.03392	76
183.04535	122
185.02191	67
186.03342	55
187.03943	128
195.05174	61
196.05873	101
199.03893	346
200.04832	122
211.03479	309
211.04355	370
212.04863	76
213.0177	135
214.05064	110
227.02429	64
227.03459	275
239.02756	67
240.03168	64
253.01056	80
255.02895	1000
283.0249	58
285.04187	55

NAME: Apigenin-7-O-neohesperidoside
PRECURSORMZ: 577.15627914783
PRECURSORTYPE: [M-H]-
INSTRUMENTTYPE: LC-ESI-QTOF
SMILES: CC1OC(OC2C(O)C(O)C(CO)OC2OC2=CC(O)=C3C(=O)C=C(OC3=C2)C2=CC=C(O)C=C2)C(O)C(O)C1O
INCHIKEY: RPMNUQRUHXIGHK-UHFFFAOYNA-N
Ontology: Flavonoid-7-O-glycosides
COLLISIONENERGY: 50
FORMULA: C27H30O14
RETENTIONTIME: 4.3424
IONMODE: Negative
Comment: registered in RIKEN PlaSMA
Num Peaks: 40
107.01273	20
117.03347	40
121.03059	11
149.02269	22
151.00168	25
159.04213	17
161.02206	12
162.03088	7
167.04787	7
169.05788	10
172.05182	7
181.05774	8
181.07037	9
183.04539	21
195.04596	8
196.04784	16
196.06192	9
197.06088	15
199.03632	5
200.03778	6
200.04778	6
203.0291	6
211.03589	15
211.04729	7
224.03645	5
224.04897	18
225.04617	9
225.05991	24
227.03255	5
239.03203	14
239.04462	10
240.03467	21
240.04216	42
241.04547	10
267.02344	5
267.03668	9
268.03601	436
269.04279	1000
270.04816	181
271.048	39

NAME: 4-Deoxyphloridzin
PRECURSORMZ: 419.13475594783
PRECURSORTYPE: [M-H]-
INSTRUMENTTYPE: LC-ESI-QTOF
SMILES: OCC1OC(OC2=CC(O)=CC(O)=C2C(=O)CCC2=CC=CC=C2)C(O)C(O)C1O
INCHIKEY: NLGUKXQDDTZCDG-UHFFFAOYNA-N
Ontology: Flavonoid O-glycosides
COLLISIONENERGY: 50
FORMULA: C21H24O9
RETENTIONTIME: 4.84605
IONMODE: Negative
Comment: registered in RIKEN PlaSMA
Num Peaks: 61
55.81282	8
64.58099	11
66.0406	9
67.01332	8
71.013	14
77.0359	8
83.01085	120
84.00962	7
85.27409	9
91.01685	91
92.0199	22
93.03224	147
94.4024	7
95.01234	18
107.04613	8
109.02921	474
109.91618	10
110.03229	15
111.03008	8
117.03049	24
119.04866	46
121.02623	17
121.03493	8
122.0242	13
133.03072	174
134.78615	8
135.00591	536
135.03886	17
136.00407	8
136.01358	27
137.01076	11
137.02255	21
142.03975	7
143.0488	26
145.03282	8
147.04546	13
148.01213	10
148.02078	7
151.03758	1000
152.04425	74
152.46776	7
161.02299	13
163.03308	44
163.0397	93
169.06467	11
171.04233	98
172.04489	9
183.07335	7
189.04568	34
189.06206	9
193.06071	21
195.08412	19
197.05649	13
212.07938	17
224.04895	17
225.04897	10
237.03888	8
237.06406	7
238.06033	19
239.07397	30
240.08096	8

NAME: 4-Deoxyphloridzin
PRECURSORMZ: 465.14023525183
PRECURSORTYPE: [M+FA-H]-
INSTRUMENTTYPE: LC-ESI-QTOF
SMILES: OCC1OC(OC2=CC(O)=CC(O)=C2C(=O)CCC2=CC=CC=C2)C(O)C(O)C1O
INCHIKEY: NLGUKXQDDTZCDG-UHFFFAOYNA-N
Ontology: Flavonoid O-glycosides
COLLISIONENERGY: 50
FORMULA: C21H24O9
RETENTIONTIME: 4.84605
IONMODE: Negative
Comment: registered in RIKEN PlaSMA
Num Peaks: 13
91.01818	42
107.01279	49
109.02829	217
119.05331	56
120.05003	54
133.0226	49
133.02989	58
135.00572	226
148.01329	86
151.03822	1000
163.03343	77
171.04326	70
239.0854	61

NAME: 3-Methoxycinnamic acid
PRECURSORMZ: 177.05571774783
PRECURSORTYPE: [M-H]-
INSTRUMENTTYPE: LC-ESI-QTOF
SMILES: COC1=CC=CC(C=CC(O)=O)=C1
INCHIKEY: LZPNXAULYJPXEH-UHFFFAOYSA-N
Ontology: Coumaric acids and derivatives
COLLISIONENERGY: 50
FORMULA: C10H10O3
RETENTIONTIME: 6.02435
IONMODE: Negative
Comment: registered in RIKEN PlaSMA
Num Peaks: 1
89.04697	1000

NAME: Luteolin
PRECURSORMZ: 285.04046154783
PRECURSORTYPE: [M-H]-
INSTRUMENTTYPE: LC-ESI-QTOF
SMILES: OC1=CC(O)=C2C(=O)C=C(OC2=C1)C1=CC(O)=C(O)C=C1
INCHIKEY: IQPNAANSBPBGFQ-UHFFFAOYSA-N
Ontology: Flavones
COLLISIONENERGY: 50
FORMULA: C15H10O6
RETENTIONTIME: 6.02435
IONMODE: Negative
Comment: registered in RIKEN PlaSMA
Num Peaks: 1
132.02319	1000

NAME: Cyanidin-3-O-glucoside
PRECURSORMZ: 447.09273641576
PRECURSORTYPE: [M-2H]-
INSTRUMENTTYPE: LC-ESI-QTOF
SMILES: OCC1OC(OC2=C([O+]=C3C=C(O)C=C(O)C3=C2)C2=CC(O)=C(O)C=C2)C(O)C(O)C1O
INCHIKEY: RKWHWFONKJEUEF-UHFFFAOYNA-O
Ontology: Anthocyanidin-3-O-glycosides
COLLISIONENERGY: 10
FORMULA: C21H21O11
RETENTIONTIME: 2.925433
IONMODE: Negative
Comment: registered in RIKEN PlaSMA
Num Peaks: 35
125.0257	84
140.06281	27
147.00398	33
148.01213	27
150.45422	27
169.05888	32
176.03671	30
179.05087	39
185.06369	41
187.04826	26
200.0506	41
211.03123	61
212.03464	59
215.03979	35
217.04617	30
227.02972	78
240.04308	45
255.03912	32
256.02319	48
256.04208	81
257.03	36
283.01361	36
284.03149	1000
285.03461	590
285.05231	152
286.04764	32
287.04794	39
297.02161	29
299.06476	30
321.02673	29
339.03299	55
369.05853	71
431.11438	32
447.08755	839
447.12595	30

NAME: Cyanidin-3-O-rutinoside
PRECURSORMZ: 593.15064521576
PRECURSORTYPE: [M-2H]-
INSTRUMENTTYPE: LC-ESI-QTOF
SMILES: CC1OC(OCC2OC(OC3=C([O+]=C4C=C(O)C=C(O)C4=C3)C3=CC(O)=C(O)C=C3)C(O)C(O)C2O)C(O)C(O)C1O
INCHIKEY: USNPULRDBDVJAO-UHFFFAOYNA-O
Ontology: Anthocyanidin-3-O-glycosides
COLLISIONENERGY: 10
FORMULA: C27H31O15
RETENTIONTIME: 2.942033
IONMODE: Negative
Comment: registered in RIKEN PlaSMA
Num Peaks: 41
125.01797	11
125.02359	12
127.02303	13
144.48967	10
152.23343	12
169.07452	14
173.03107	10
187.04433	13
201.02092	19
211.03995	11
216.04286	18
224.05293	11
226.02426	10
228.04248	22
229.05099	11
231.07777	10
239.03867	23
242.05186	12
255.03307	24
257.04163	15
257.05524	19
283.02246	18
284.02951	436
284.03827	156
284.05908	15
284.99734	11
285.03528	479
286.04285	91
288.04907	10
295.06491	14
298.03113	12
298.84225	16
299.06033	11
299.07117	13
300.05109	11
300.06711	15
309.04398	16
312.05667	10
317.79874	10
346.23312	11
593.15179	1000

NAME: Procyanidin B2
PRECURSORMZ: 577.13514984783
PRECURSORTYPE: [M-H]-
INSTRUMENTTYPE: LC-ESI-QTOF
SMILES: OC1CC2=C(OC1C1=CC(O)=C(O)C=C1)C(C1C(O)C(OC3=CC(O)=CC(O)=C13)C1=CC(O)=C(O)C=C1)=C(O)C=C2O
INCHIKEY: XFZJEEAOWLFHDH-UHFFFAOYNA-N
Ontology: Biflavonoids and polyflavonoids
COLLISIONENERGY: 10
FORMULA: C30H26O12
RETENTIONTIME: 3.225917
IONMODE: Negative
Comment: registered in RIKEN PlaSMA
Num Peaks: 73
109.02116	35
122.0342	58
123.0408	48
125.02094	253
125.02618	476
126.02538	56
146.0397	43
161.02388	275
162.03505	35
165.01132	54
173.05789	41
175.04111	46
179.02451	54
179.03209	173
187.04369	56
200.05444	39
201.04811	37
203.06931	128
205.0162	74
212.04474	46
215.02161	33
221.08661	48
229.04463	41
229.05519	46
230.04976	56
243.03351	33
244.04114	35
245.04831	177
245.07025	106
245.08234	86
246.08052	50
247.05496	45
256.03091	61
256.49298	39
257.03497	46
257.04691	87
259.07758	37
263.09241	35
269.03607	37
273.03879	76
281.04492	76
281.05893	37
284.02188	37
287.0531	270
288.06299	71
289.07327	1000
290.07428	48
296.03497	39
297.03879	45
297.07581	45
299.05106	123
310.11411	37
324.0636	39
327.09195	46
339.06631	37
389.06247	41
389.07394	43
407.07156	387
407.0874	305
408.07892	72
408.10727	37
409.06158	37
409.09937	46
425.06647	33
425.09613	255
426.09177	229
426.10318	82
451.09415	100
451.12332	43
452.10522	95
559.14172	37
577.10486	37
577.13751	243

NAME: Sinapoyl aldehyde
PRECURSORMZ: 207.06628244783
PRECURSORTYPE: [M-H]-
INSTRUMENTTYPE: LC-ESI-QTOF
SMILES: COC1=CC(C=CC=O)=CC(OC)=C1O
INCHIKEY: CDICDSOGTRCHMG-UHFFFAOYSA-N
Ontology: Methoxyphenols
COLLISIONENERGY: 10
FORMULA: C11H12O4
RETENTIONTIME: 4.721467
IONMODE: Negative
Comment: registered in RIKEN PlaSMA
Num Peaks: 17
93.03297	70
105.03437	50
118.99214	12
121.0253	79
122.03439	10
149.02322	135
149.03171	51
177.01756	713
177.04984	16
178.01804	80
191.03221	12
192.04103	1000
193.04013	54
193.0502	35
194.04189	26
207.03154	12
207.064	269

NAME: Formononetin-7-O-glucoside
PRECURSORMZ: 429.11910584783
PRECURSORTYPE: [M-H]-
INSTRUMENTTYPE: LC-ESI-QTOF
SMILES: COC1=CC=C(C=C1)C1=COC2=C(C=CC(OC3OC(CO)C(O)C(O)C3O)=C2)C1=O
INCHIKEY: MGJLSBDCWOSMHL-UHFFFAOYNA-N
Ontology: Isoflavonoid O-glycosides
COLLISIONENERGY: 10
FORMULA: C22H22O9
RETENTIONTIME: 5.030167
IONMODE: Negative
Comment: registered in RIKEN PlaSMA
Num Peaks: 5
208.05412	52
229.31734	76
252.04369	165
252.05489	60
267.06522	1000

NAME: Formononetin-7-O-glucoside
PRECURSORMZ: 475.12458515183
PRECURSORTYPE: [M+FA-H]-
INSTRUMENTTYPE: LC-ESI-QTOF
SMILES: COC1=CC=C(C=C1)C1=COC2=C(C=CC(OC3OC(CO)C(O)C(O)C3O)=C2)C1=O
INCHIKEY: MGJLSBDCWOSMHL-UHFFFAOYNA-N
Ontology: Isoflavonoid O-glycosides
COLLISIONENERGY: 10
FORMULA: C22H22O9
RETENTIONTIME: 5.030167
IONMODE: Negative
Comment: registered in RIKEN PlaSMA
Num Peaks: 9
252.04149	152
253.03131	5
253.04457	30
254.04968	10
267.0639	1000
268.06808	206
269.06912	30
429.11865	8
475.1235	123

NAME: isosakuranetin
PRECURSORMZ: 285.07684714783
PRECURSORTYPE: [M-H]-
INSTRUMENTTYPE: LC-ESI-QTOF
SMILES: COC1=CC=C(C=C1)C1CC(=O)C2=C(O)C=C(O)C=C2O1
INCHIKEY: HMUJXQRRKBLVOO-UHFFFAOYNA-N
Ontology: 4'-O-methylated flavonoids
COLLISIONENERGY: 10
FORMULA: C16H14O5
RETENTIONTIME: 7.453033
IONMODE: Negative
Comment: registered in RIKEN PlaSMA
Num Peaks: 31
65.0043	7
80.02505	7
83.01278	13
107.01305	28
108.01929	46
136.01479	115
137.01923	11
151.00168	75
159.04561	8
164.00969	289
165.01387	29
175.0746	23
183.04572	8
186.02631	8
186.03613	5
187.03987	12
198.07031	8
199.07417	8
201.05469	10
215.06845	13
217.08551	13
226.05704	9
227.03545	9
228.04382	17
241.08958	14
243.06505	66
244.06261	8
270.05167	45
271.05518	9
285.0759	1000
285.12558	11

NAME: Cyanidin-3-O-glucoside
PRECURSORMZ: 447.09273641576
PRECURSORTYPE: [M-2H]-
INSTRUMENTTYPE: LC-ESI-QTOF
SMILES: OCC1OC(OC2=C([O+]=C3C=C(O)C=C(O)C3=C2)C2=CC(O)=C(O)C=C2)C(O)C(O)C1O
INCHIKEY: RKWHWFONKJEUEF-UHFFFAOYNA-O
Ontology: Anthocyanidin-3-O-glycosides
COLLISIONENERGY: 10
FORMULA: C21H21O11
RETENTIONTIME: 2.925433
IONMODE: Negative
Comment: registered in RIKEN PlaSMA
Num Peaks: 19
121.59619	14
125.01992	58
149.02528	9
244.03456	10
258.0517	18
284.02258	50
284.03391	83
284.4035	9
285.03723	211
285.04547	82
286.0433	77
291.5831	10
295.01837	11
299.04669	10
327.04355	11
351.04184	12
357.05804	10
438.18332	10
447.0928	1000

NAME: Cyanidin-3-O-rutinoside
PRECURSORMZ: 593.15064521576
PRECURSORTYPE: [M-2H]-
INSTRUMENTTYPE: LC-ESI-QTOF
SMILES: CC1OC(OCC2OC(OC3=C([O+]=C4C=C(O)C=C(O)C4=C3)C3=CC(O)=C(O)C=C3)C(O)C(O)C2O)C(O)C(O)C1O
INCHIKEY: USNPULRDBDVJAO-UHFFFAOYNA-O
Ontology: Anthocyanidin-3-O-glycosides
COLLISIONENERGY: 10
FORMULA: C27H31O15
RETENTIONTIME: 2.942033
IONMODE: Negative
Comment: registered in RIKEN PlaSMA
Num Peaks: 11
233.94481	8
284.03583	19
284.04462	5
285.03601	20
286.04504	10
321.42435	6
372.46332	5
459.60468	7
593.08447	6
593.15143	1000
593.20593	9

NAME: Procyanidin B2
PRECURSORMZ: 577.13514984783
PRECURSORTYPE: [M-H]-
INSTRUMENTTYPE: LC-ESI-QTOF
SMILES: OC1CC2=C(OC1C1=CC(O)=C(O)C=C1)C(C1C(O)C(OC3=CC(O)=CC(O)=C13)C1=CC(O)=C(O)C=C1)=C(O)C=C2O
INCHIKEY: XFZJEEAOWLFHDH-UHFFFAOYNA-N
Ontology: Biflavonoids and polyflavonoids
COLLISIONENERGY: 10
FORMULA: C30H26O12
RETENTIONTIME: 3.225917
IONMODE: Negative
Comment: registered in RIKEN PlaSMA
Num Peaks: 37
125.02541	15
161.01778	18
208.28658	18
245.04478	18
287.05624	142
287.07013	37
288.05853	54
289.05765	25
289.0741	77
290.06967	24
290.08945	37
299.04968	15
300.05792	34
305.92178	14
315.07495	16
334.43738	19
381.10516	14
407.0701	193
407.08612	37
408.05499	15
408.06842	13
408.08569	15
424.94458	20
425.08688	517
426.08145	62
426.10367	84
426.13068	13
429.09149	17
451.09698	110
451.11273	70
452.11218	73
467.09686	17
474.17303	21
533.14978	22
575.10254	13
575.12585	13
577.13464	1000

NAME: Sinapoyl aldehyde
PRECURSORMZ: 207.06628244783
PRECURSORTYPE: [M-H]-
INSTRUMENTTYPE: LC-ESI-QTOF
SMILES: COC1=CC(C=CC=O)=CC(OC)=C1O
INCHIKEY: CDICDSOGTRCHMG-UHFFFAOYSA-N
Ontology: Methoxyphenols
COLLISIONENERGY: 10
FORMULA: C11H12O4
RETENTIONTIME: 4.721467
IONMODE: Negative
Comment: registered in RIKEN PlaSMA
Num Peaks: 12
141.49298	5
149.02333	9
149.51907	5
177.01764	235
177.81451	5
178.02177	20
191.03743	16
192.04082	1000
193.02882	6
193.04724	94
194.04816	11
207.06583	355

NAME: Formononetin-7-O-glucoside
PRECURSORMZ: 429.11910584783
PRECURSORTYPE: [M-H]-
INSTRUMENTTYPE: LC-ESI-QTOF
SMILES: COC1=CC=C(C=C1)C1=COC2=C(C=CC(OC3OC(CO)C(O)C(O)C3O)=C2)C1=O
INCHIKEY: MGJLSBDCWOSMHL-UHFFFAOYNA-N
Ontology: Isoflavonoid O-glycosides
COLLISIONENERGY: 10
FORMULA: C22H22O9
RETENTIONTIME: 5.030167
IONMODE: Negative
Comment: registered in RIKEN PlaSMA
Num Peaks: 5
264.78925	29
267.06277	1000
268.06555	74
269.06998	79
429.11685	36

NAME: Formononetin-7-O-glucoside
PRECURSORMZ: 475.12458515183
PRECURSORTYPE: [M+FA-H]-
INSTRUMENTTYPE: LC-ESI-QTOF
SMILES: COC1=CC=C(C=C1)C1=COC2=C(C=CC(OC3OC(CO)C(O)C(O)C3O)=C2)C1=O
INCHIKEY: MGJLSBDCWOSMHL-UHFFFAOYNA-N
Ontology: Isoflavonoid O-glycosides
COLLISIONENERGY: 10
FORMULA: C22H22O9
RETENTIONTIME: 5.030167
IONMODE: Negative
Comment: registered in RIKEN PlaSMA
Num Peaks: 6
267.0647	1000
268.0675	197
269.06708	18
429.11163	8
429.12732	19
475.12384	358

NAME: isosakuranetin
PRECURSORMZ: 285.07684714783
PRECURSORTYPE: [M-H]-
INSTRUMENTTYPE: LC-ESI-QTOF
SMILES: COC1=CC=C(C=C1)C1CC(=O)C2=C(O)C=C(O)C=C2O1
INCHIKEY: HMUJXQRRKBLVOO-UHFFFAOYNA-N
Ontology: 4'-O-methylated flavonoids
COLLISIONENERGY: 10
FORMULA: C16H14O5
RETENTIONTIME: 7.453033
IONMODE: Negative
Comment: registered in RIKEN PlaSMA
Num Peaks: 5
164.01073	32
243.06445	20
270.05527	20
285.07605	1000
285.12262	14

NAME: Cyanidin-3-O-glucoside
PRECURSORMZ: 447.09273641576
PRECURSORTYPE: [M-2H]-
INSTRUMENTTYPE: LC-ESI-QTOF
SMILES: OCC1OC(OC2=C([O+]=C3C=C(O)C=C(O)C3=C2)C2=CC(O)=C(O)C=C2)C(O)C(O)C1O
INCHIKEY: RKWHWFONKJEUEF-UHFFFAOYNA-O
Ontology: Anthocyanidin-3-O-glycosides
COLLISIONENERGY: 30
FORMULA: C21H21O11
RETENTIONTIME: 2.925433
IONMODE: Negative
Comment: registered in RIKEN PlaSMA
Num Peaks: 38
125.02349	52
137.02695	28
147.04141	31
176.0096	21
183.04886	32
185.05653	25
185.06422	37
188.04382	24
189.05653	26
195.03735	26
200.04152	21
201.01849	47
210.03609	24
212.04741	27
215.03453	27
216.03159	26
217.04056	26
217.04791	74
217.05867	55
217.45189	33
223.03011	33
227.04739	39
228.04063	38
239.03551	117
240.04424	34
241.02135	35
244.02922	31
255.03032	114
256.03629	236
256.05167	22
257.04544	81
267.0322	34
268.0246	26
283.01642	131
283.0289	61
284.03339	1000
285.03897	304
286.04071	40

NAME: Cyanidin-3-O-rutinoside
PRECURSORMZ: 593.15064521576
PRECURSORTYPE: [M-2H]-
INSTRUMENTTYPE: LC-ESI-QTOF
SMILES: CC1OC(OCC2OC(OC3=C([O+]=C4C=C(O)C=C(O)C4=C3)C3=CC(O)=C(O)C=C3)C(O)C(O)C2O)C(O)C(O)C1O
INCHIKEY: USNPULRDBDVJAO-UHFFFAOYNA-O
Ontology: Anthocyanidin-3-O-glycosides
COLLISIONENERGY: 30
FORMULA: C27H31O15
RETENTIONTIME: 2.942033
IONMODE: Negative
Comment: registered in RIKEN PlaSMA
Num Peaks: 44
106.4423	11
125.02502	95
125.03353	14
146.99947	11
147.01428	19
148.01865	11
161.02026	12
173.06085	13
176.01033	12
177.01878	37
182.94719	11
189.02621	10
189.06308	16
190.02531	11
197.05859	12
197.06758	20
201.01805	31
213.05348	27
227.0341	18
231.01595	14
240.04677	15
243.03497	14
243.05115	12
256.04504	12
259.04926	13
266.01526	12
267.01944	15
272.06607	11
276.64975	14
281.04785	15
283.02542	18
284.03265	1000
285.03809	564
286.0379	96
287.03299	11
287.05365	25
288.05341	10
299.05185	36
299.06644	43
300.06305	26
309.03635	10
345.06546	12
473.31781	11
593.11761	10

NAME: Procyanidin B2
PRECURSORMZ: 577.13514984783
PRECURSORTYPE: [M-H]-
INSTRUMENTTYPE: LC-ESI-QTOF
SMILES: OC1CC2=C(OC1C1=CC(O)=C(O)C=C1)C(C1C(O)C(OC3=CC(O)=CC(O)=C13)C1=CC(O)=C(O)C=C1)=C(O)C=C2O
INCHIKEY: XFZJEEAOWLFHDH-UHFFFAOYNA-N
Ontology: Biflavonoids and polyflavonoids
COLLISIONENERGY: 30
FORMULA: C30H26O12
RETENTIONTIME: 3.225917
IONMODE: Negative
Comment: registered in RIKEN PlaSMA
Num Peaks: 66
117.32518	47
123.07261	39
125.02261	1000
135.03894	49
136.04294	41
137.02315	138
137.03154	49
140.04536	37
149.02238	39
151.04167	220
159.04608	60
160.04625	37
161.01956	76
161.03027	86
164.01195	58
165.01982	111
167.02425	56
177.02785	51
177.04836	39
179.03944	136
180.04355	60
187.04231	45
199.0847	76
202.06203	37
203.0795	53
205.00952	41
205.02521	41
205.05122	152
215.03638	41
217.03947	49
217.05438	39
227.07391	35
230.05359	58
230.06638	49
243.02754	86
245.03485	89
245.08005	307
247.04295	60
247.05811	76
253.05608	47
255.05586	43
256.03305	161
257.04614	41
259.01599	53
271.05487	126
273.03983	51
273.05258	53
281.0441	35
282.03873	43
285.03464	148
288.98462	39
289.03949	64
289.0675	553
289.10199	35
290.07736	101
297.02942	56
297.05655	58
300.04962	47
310.06693	43
339.0853	121
389.06613	41
406.98099	39
407.08063	741
408.05933	35
408.08072	270
452.1221	47

NAME: Sinapoyl aldehyde
PRECURSORMZ: 207.06628244783
PRECURSORTYPE: [M-H]-
INSTRUMENTTYPE: LC-ESI-QTOF
SMILES: COC1=CC(C=CC=O)=CC(OC)=C1O
INCHIKEY: CDICDSOGTRCHMG-UHFFFAOYSA-N
Ontology: Methoxyphenols
COLLISIONENERGY: 30
FORMULA: C11H12O4
RETENTIONTIME: 4.721467
IONMODE: Negative
Comment: registered in RIKEN PlaSMA
Num Peaks: 16
77.03836	435
81.03851	126
93.03036	476
93.03929	88
105.0285	91
105.03321	306
105.03886	167
106.03633	69
121.02887	565
135.04466	101
148.01123	66
149.0231	1000
163.03967	63
177.01311	215
177.02222	621
178.0153	69

NAME: Formononetin-7-O-glucoside
PRECURSORMZ: 429.11910584783
PRECURSORTYPE: [M-H]-
INSTRUMENTTYPE: LC-ESI-QTOF
SMILES: COC1=CC=C(C=C1)C1=COC2=C(C=CC(OC3OC(CO)C(O)C(O)C3O)=C2)C1=O
INCHIKEY: MGJLSBDCWOSMHL-UHFFFAOYNA-N
Ontology: Isoflavonoid O-glycosides
COLLISIONENERGY: 30
FORMULA: C22H22O9
RETENTIONTIME: 5.030167
IONMODE: Negative
Comment: registered in RIKEN PlaSMA
Num Peaks: 8
162.9886	62
176.00645	97
252.04355	1000
253.05009	106
254.03586	56
267.06607	453
267.08182	56
268.06613	115

NAME: Formononetin-7-O-glucoside
PRECURSORMZ: 475.12458515183
PRECURSORTYPE: [M+FA-H]-
INSTRUMENTTYPE: LC-ESI-QTOF
SMILES: COC1=CC=C(C=C1)C1=COC2=C(C=CC(OC3OC(CO)C(O)C(O)C3O)=C2)C1=O
INCHIKEY: MGJLSBDCWOSMHL-UHFFFAOYNA-N
Ontology: Isoflavonoid O-glycosides
COLLISIONENERGY: 30
FORMULA: C22H22O9
RETENTIONTIME: 5.030167
IONMODE: Negative
Comment: registered in RIKEN PlaSMA
Num Peaks: 10
223.03874	5
252.04245	323
253.0452	59
254.03433	7
262.77481	5
267.06592	1000
268.06955	190
269.05942	9
269.07047	27
270.07855	6

NAME: isosakuranetin
PRECURSORMZ: 285.07684714783
PRECURSORTYPE: [M-H]-
INSTRUMENTTYPE: LC-ESI-QTOF
SMILES: COC1=CC=C(C=C1)C1CC(=O)C2=C(O)C=C(O)C=C2O1
INCHIKEY: HMUJXQRRKBLVOO-UHFFFAOYNA-N
Ontology: 4'-O-methylated flavonoids
COLLISIONENERGY: 30
FORMULA: C16H14O5
RETENTIONTIME: 7.453033
IONMODE: Negative
Comment: registered in RIKEN PlaSMA
Num Peaks: 96
63.02394	29
65.00208	58
66.00564	19
79.9875	6
80.02437	111
83.01247	80
83.01749	20
84.01299	8
89.04417	5
91.99122	6
96.01962	8
107.01196	238
108.02063	695
109.02406	25
109.03365	8
117.03085	13
118.57992	5
119.05405	5
120.02139	20
121.99909	24
123.00361	10
124.01743	9
130.0386	7
132.05615	21
136.01523	1000
137.01953	101
138.02283	10
143.04942	9
145.02898	14
145.03865	6
145.06342	8
147.05252	7
149.99594	6
151.00087	249
152.0049	23
155.89624	6
156.05508	48
157.05154	9
158.02792	12
158.034	10
159.04428	100
160.04825	97
160.06372	6
164.01019	747
164.03052	12
165.01401	70
166.01859	9
173.06006	21
175.06796	20
175.07582	71
176.07478	10
176.08582	7
177.01817	23
183.04218	52
183.05484	6
184.04646	16
185.01823	20
185.02531	15
185.05034	8
186.02023	15
186.0295	77
187.03773	118
188.0351	6
197.05978	50
198.06866	35
199.04056	29
199.06914	23
199.07768	9
200.04317	24
200.05075	58
201.05499	86
202.05687	11
208.0453	5
211.04555	8
213.04474	6
215.07196	40
215.08511	10
225.05382	13
226.05753	19
226.07161	6
227.03043	28
227.03859	66
228.04042	84
229.04094	10
229.04982	9
241.05182	10
242.05469	13
243.06215	44
243.0703	36
252.03334	8
254.05222	7
269.04135	17
270.05157	16
270.06604	6
285.06882	17
285.0817	33

NAME: Cyanidin-3-O-glucoside
PRECURSORMZ: 447.09273641576
PRECURSORTYPE: [M-2H]-
INSTRUMENTTYPE: LC-ESI-QTOF
SMILES: OCC1OC(OC2=C([O+]=C3C=C(O)C=C(O)C3=C2)C2=CC(O)=C(O)C=C2)C(O)C(O)C1O
INCHIKEY: RKWHWFONKJEUEF-UHFFFAOYNA-O
Ontology: Anthocyanidin-3-O-glycosides
COLLISIONENERGY: 50
FORMULA: C21H21O11
RETENTIONTIME: 2.925433
IONMODE: Negative
Comment: registered in RIKEN PlaSMA
Num Peaks: 46
107.01665	187
119.01391	100
121.02189	96
142.04117	110
147.00598	282
147.01546	144
148.01544	206
157.06046	139
160.04556	100
170.03625	158
172.03874	139
183.03859	306
183.04851	115
185.0242	100
188.049	105
189.05116	177
198.03392	91
199.02765	86
199.03986	144
199.04988	91
200.03416	148
210.02711	134
210.03767	139
211.03355	201
212.03581	201
213.02455	134
214.02501	120
222.29665	105
227.03036	397
229.04424	249
238.02979	86
239.02434	91
239.03145	177
240.03925	86
247.37178	278
247.49615	96
247.58195	124
248.08199	86
248.13301	144
248.18309	110
248.23474	158
248.35951	86
255.03297	1000
256.03534	96
268.02921	129
283.03104	172

NAME: Cyanidin-3-O-rutinoside
PRECURSORMZ: 593.15064521576
PRECURSORTYPE: [M-2H]-
INSTRUMENTTYPE: LC-ESI-QTOF
SMILES: CC1OC(OCC2OC(OC3=C([O+]=C4C=C(O)C=C(O)C4=C3)C3=CC(O)=C(O)C=C3)C(O)C(O)C2O)C(O)C(O)C1O
INCHIKEY: USNPULRDBDVJAO-UHFFFAOYNA-O
Ontology: Anthocyanidin-3-O-glycosides
COLLISIONENERGY: 50
FORMULA: C27H31O15
RETENTIONTIME: 2.942033
IONMODE: Negative
Comment: registered in RIKEN PlaSMA
Num Peaks: 72
100.0771	45
104.02716	54
109.03295	70
110.03434	52
119.00658	47
120.01902	63
123.03548	47
125.02414	196
129.02711	41
147.00099	108
147.01045	88
147.04788	97
148.00999	164
148.02104	131
149.02267	101
150.02849	52
157.07382	86
167.04562	128
168.05721	45
171.04071	45
175.0417	63
177.01802	122
177.04329	45
180.04865	43
183.0376	56
184.05177	59
186.03143	99
187.03291	56
188.05136	99
188.05626	209
189.05699	59
195.05409	41
199.04158	153
200.04605	36
200.05367	65
201.00848	54
202.02898	88
203.99817	47
210.02782	41
211.02206	54
211.03766	241
212.03761	50
213.02281	86
213.04935	106
214.0282	68
215.03677	52
216.02728	54
217.05655	50
223.04211	50
224.04578	47
227.03532	259
229.05096	50
230.05521	104
239.02629	252
239.03955	191
240.0323	45
240.04491	74
242.02298	115
244.15517	41
255.02762	1000
255.05467	126
256.03854	403
257.0405	45
267.02713	68
268.04105	63
283.02039	270
283.03128	160
284.02805	462
284.03693	144
285.03796	128
286.04495	56
592.90735	41

NAME: Procyanidin B2
PRECURSORMZ: 577.13514984783
PRECURSORTYPE: [M-H]-
INSTRUMENTTYPE: LC-ESI-QTOF
SMILES: OC1CC2=C(OC1C1=CC(O)=C(O)C=C1)C(C1C(O)C(OC3=CC(O)=CC(O)=C13)C1=CC(O)=C(O)C=C1)=C(O)C=C2O
INCHIKEY: XFZJEEAOWLFHDH-UHFFFAOYNA-N
Ontology: Biflavonoids and polyflavonoids
COLLISIONENERGY: 50
FORMULA: C30H26O12
RETENTIONTIME: 3.225917
IONMODE: Negative
Comment: registered in RIKEN PlaSMA
Num Peaks: 58
109.02365	217
109.03063	446
117.03003	120
121.03076	120
123.04416	631
124.04027	100
125.02277	1000
126.02275	104
133.02382	92
133.02913	141
135.00781	88
139.02136	112
140.04214	80
150.02853	209
151.03325	116
151.0416	100
157.05356	100
161.02086	526
161.06041	76
162.03386	100
162.06787	84
163.03392	80
165.0121	96
165.02005	92
168.03874	76
173.05415	84
173.06203	100
175.03204	76
175.0426	169
176.08173	116
178.05843	100
179.03842	92
183.04536	80
187.03554	84
188.04538	88
198.02382	80
202.06445	108
203.03708	133
203.06833	462
204.0798	72
205.00618	108
205.04584	129
211.03757	161
214.05476	80
215.02957	124
221.08197	80
227.07637	84
228.04623	124
228.08063	80
232.03343	108
245.03911	72
245.08569	72
246.04691	72
255.02948	273
256.04037	169
256.06241	92
279.07324	133
281.04166	80

NAME: Sinapoyl aldehyde
PRECURSORMZ: 207.06628244783
PRECURSORTYPE: [M-H]-
INSTRUMENTTYPE: LC-ESI-QTOF
SMILES: COC1=CC(C=CC=O)=CC(OC)=C1O
INCHIKEY: CDICDSOGTRCHMG-UHFFFAOYSA-N
Ontology: Methoxyphenols
COLLISIONENERGY: 50
FORMULA: C11H12O4
RETENTIONTIME: 4.721467
IONMODE: Negative
Comment: registered in RIKEN PlaSMA
Num Peaks: 2
93.03325	1000
95.01369	633

NAME: Formononetin-7-O-glucoside
PRECURSORMZ: 429.11910584783
PRECURSORTYPE: [M-H]-
INSTRUMENTTYPE: LC-ESI-QTOF
SMILES: COC1=CC=C(C=C1)C1=COC2=C(C=CC(OC3OC(CO)C(O)C(O)C3O)=C2)C1=O
INCHIKEY: MGJLSBDCWOSMHL-UHFFFAOYNA-N
Ontology: Isoflavonoid O-glycosides
COLLISIONENERGY: 50
FORMULA: C22H22O9
RETENTIONTIME: 5.030167
IONMODE: Negative
Comment: registered in RIKEN PlaSMA
Num Peaks: 9
132.01814	233
180.05389	262
196.04538	233
211.03502	204
223.03273	728
223.04283	1000
224.04541	175
251.02731	427
252.03864	476

NAME: Formononetin-7-O-glucoside
PRECURSORMZ: 475.12458515183
PRECURSORTYPE: [M+FA-H]-
INSTRUMENTTYPE: LC-ESI-QTOF
SMILES: COC1=CC=C(C=C1)C1=COC2=C(C=CC(OC3OC(CO)C(O)C(O)C3O)=C2)C1=O
INCHIKEY: MGJLSBDCWOSMHL-UHFFFAOYNA-N
Ontology: Isoflavonoid O-glycosides
COLLISIONENERGY: 50
FORMULA: C22H22O9
RETENTIONTIME: 5.030167
IONMODE: Negative
Comment: registered in RIKEN PlaSMA
Num Peaks: 35
58.20526	7
91.02164	7
96.57433	10
132.01952	46
132.02917	10
133.0273	9
135.0058	55
136.0112	7
136.02206	9
165.19366	9
181.05771	10
184.03983	6
188.80228	9
195.04237	76
197.7558	8
207.03436	7
208.04332	21
208.05779	34
209.05714	6
213.03864	6
223.0415	303
224.03055	10
224.04335	99
224.43271	7
225.04074	7
247.08643	11
251.03313	176
252.04086	1000
253.02672	9
253.04631	140
253.07101	8
254.05185	19
267.06564	21
267.14832	6
274.06918	6

NAME: isosakuranetin
PRECURSORMZ: 285.07684714783
PRECURSORTYPE: [M-H]-
INSTRUMENTTYPE: LC-ESI-QTOF
SMILES: COC1=CC=C(C=C1)C1CC(=O)C2=C(O)C=C(O)C=C2O1
INCHIKEY: HMUJXQRRKBLVOO-UHFFFAOYNA-N
Ontology: 4'-O-methylated flavonoids
COLLISIONENERGY: 50
FORMULA: C16H14O5
RETENTIONTIME: 7.453033
IONMODE: Negative
Comment: registered in RIKEN PlaSMA
Num Peaks: 56
63.02362	81
64.02603	54
65.00133	365
80.02754	108
83.01451	32
88.03094	60
89.03726	49
91.01437	38
94.00058	40
96.02159	32
106.04033	40
107.01897	70
108.01981	1000
109.02682	83
116.02841	199
117.0301	267
117.03744	52
118.03879	36
119.04865	208
120.02337	45
121.03319	49
123.00594	45
123.01069	45
127.0572	42
129.02548	32
129.037	40
131.04382	67
131.05072	110
132.01886	52
136.0144	97
141.03528	70
143.03712	40
143.04611	114
144.05304	34
145.03082	106
151.04407	38
154.03802	45
157.03104	45
158.03398	193
159.03691	36
159.04904	112
159.05679	31
160.04698	36
169.0681	47
181.03114	45
182.03859	38
183.03764	78
183.04839	81
184.05341	61
185.02357	32
186.02815	94
187.04485	54
197.06021	70
199.04347	125
201.0495	42
227.03664	79

NAME: Cyanidin-3-O-glucoside
PRECURSORMZ: 447.09273641576
PRECURSORTYPE: [M-2H]-
INSTRUMENTTYPE: LC-ESI-QTOF
SMILES: OCC1OC(OC2=C([O+]=C3C=C(O)C=C(O)C3=C2)C2=CC(O)=C(O)C=C2)C(O)C(O)C1O
INCHIKEY: RKWHWFONKJEUEF-UHFFFAOYNA-O
Ontology: Anthocyanidin-3-O-glycosides
COLLISIONENERGY: 10
FORMULA: C21H21O11
RETENTIONTIME: 2.925433
IONMODE: Negative
Comment: registered in RIKEN PlaSMA
Num Peaks: 44
119.01022	23
125.02163	52
147.00294	45
148.01248	54
149.02351	68
162.99921	32
167.04741	21
170.03552	24
171.04362	22
174.04063	26
176.00436	27
185.05972	24
195.04907	38
199.03625	19
200.04448	34
203.02815	19
211.0376	27
211.04646	19
214.0298	27
215.03098	19
215.56592	19
217.0515	33
227.03622	76
229.02087	28
229.30292	24
239.03787	62
240.04016	53
241.01852	20
241.0407	26
255.02771	99
256.02826	111
256.03839	31
258.04666	21
283.02563	121
284.03244	1000
284.07523	32
285.03561	574
286.01691	21
286.04303	107
287.05511	20
299.03751	37
299.05988	29
402.08383	32
447.09421	612

NAME: Cyanidin-3-O-rutinoside
PRECURSORMZ: 593.15064521576
PRECURSORTYPE: [M-2H]-
INSTRUMENTTYPE: LC-ESI-QTOF
SMILES: CC1OC(OCC2OC(OC3=C([O+]=C4C=C(O)C=C(O)C4=C3)C3=CC(O)=C(O)C=C3)C(O)C(O)C2O)C(O)C(O)C1O
INCHIKEY: USNPULRDBDVJAO-UHFFFAOYNA-O
Ontology: Anthocyanidin-3-O-glycosides
COLLISIONENERGY: 10
FORMULA: C27H31O15
RETENTIONTIME: 2.942033
IONMODE: Negative
Comment: registered in RIKEN PlaSMA
Num Peaks: 45
125.02002	27
149.01677	17
155.18193	13
175.0419	10
183.04871	10
189.05957	27
200.16386	13
202.03055	10
210.02493	11
211.03749	20
212.05432	11
217.06113	14
229.04623	14
239.02693	15
239.06662	12
240.04079	11
241.05016	10
242.05206	9
255.01283	9
270.05319	12
271.05887	15
281.0538	10
283.02481	60
284.03156	486
285.03873	284
286.03329	28
286.04703	30
287.0351	22
288.03705	13
297.03778	12
297.05917	10
299.05753	20
327.03412	27
327.06003	22
340.05191	10
340.06451	12
355.16846	12
374.21255	9
467.12326	10
491.70804	13
592.117	10
592.14386	19
593.10559	14
593.15131	1000
593.27142	10

NAME: Procyanidin B2
PRECURSORMZ: 577.13514984783
PRECURSORTYPE: [M-H]-
INSTRUMENTTYPE: LC-ESI-QTOF
SMILES: OC1CC2=C(OC1C1=CC(O)=C(O)C=C1)C(C1C(O)C(OC3=CC(O)=CC(O)=C13)C1=CC(O)=C(O)C=C1)=C(O)C=C2O
INCHIKEY: XFZJEEAOWLFHDH-UHFFFAOYNA-N
Ontology: Biflavonoids and polyflavonoids
COLLISIONENERGY: 10
FORMULA: C30H26O12
RETENTIONTIME: 3.225917
IONMODE: Negative
Comment: registered in RIKEN PlaSMA
Num Peaks: 69
95.04756	28
125.0224	378
126.02536	25
137.0213	29
137.0278	28
138.02689	47
151.03941	114
161.01541	55
161.02452	33
161.05827	61
162.02538	28
162.06305	46
165.0164	80
168.04057	30
175.03598	25
175.07404	25
187.03632	72
189.05168	62
193.00668	29
203.0619	68
205.01424	41
205.04974	50
206.05669	30
215.02846	32
217.04913	26
227.0717	25
228.03302	32
229.05304	25
244.00133	29
245.03566	46
245.04996	152
245.08423	179
247.08899	29
249.05695	30
251.07307	28
254.06314	40
255.06158	33
268.04456	33
273.04449	39
281.04218	28
283.02011	37
287.05008	142
287.06638	37
289.07101	1000
290.07953	46
293.56723	33
297.07156	59
299.0419	44
301.07318	34
316.08713	28
332.05997	30
339.07959	54
343.83398	54
362.06778	25
381.10062	33
407.06705	388
407.08374	378
408.07117	108
408.08121	57
409.08078	30
425.08362	779
426.08688	114
451.09467	86
452.10928	103
453.11322	37
467.09219	39
560.14832	44
577.12311	154
577.13885	223

NAME: Sinapoyl aldehyde
PRECURSORMZ: 207.06628244783
PRECURSORTYPE: [M-H]-
INSTRUMENTTYPE: LC-ESI-QTOF
SMILES: COC1=CC(C=CC=O)=CC(OC)=C1O
INCHIKEY: CDICDSOGTRCHMG-UHFFFAOYSA-N
Ontology: Methoxyphenols
COLLISIONENERGY: 10
FORMULA: C11H12O4
RETENTIONTIME: 4.721467
IONMODE: Negative
Comment: registered in RIKEN PlaSMA
Num Peaks: 29
77.03728	41
79.01717	13
89.4025	12
93.03335	12
95.06656	20
105.03282	24
106.03606	9
121.01866	11
121.03024	77
122.03199	14
133.02432	16
149.02185	277
149.03494	19
150.02646	26
177.01712	748
178.02335	125
179.01566	26
179.02423	24
184.61443	12
191.02628	45
191.03583	48
192.03999	1000
192.05634	32
193.04362	191
194.04243	13
194.59378	9
207.03065	13
207.06033	154
207.06978	37

NAME: Formononetin-7-O-glucoside
PRECURSORMZ: 429.11910584783
PRECURSORTYPE: [M-H]-
INSTRUMENTTYPE: LC-ESI-QTOF
SMILES: COC1=CC=C(C=C1)C1=COC2=C(C=CC(OC3OC(CO)C(O)C(O)C3O)=C2)C1=O
INCHIKEY: MGJLSBDCWOSMHL-UHFFFAOYNA-N
Ontology: Isoflavonoid O-glycosides
COLLISIONENERGY: 10
FORMULA: C22H22O9
RETENTIONTIME: 5.030167
IONMODE: Negative
Comment: registered in RIKEN PlaSMA
Num Peaks: 8
223.04509	48
252.03416	48
252.04666	123
253.04036	125
253.05156	58
267.06641	1000
268.06793	128
269.07889	75

NAME: Formononetin-7-O-glucoside
PRECURSORMZ: 475.12458515183
PRECURSORTYPE: [M+FA-H]-
INSTRUMENTTYPE: LC-ESI-QTOF
SMILES: COC1=CC=C(C=C1)C1=COC2=C(C=CC(OC3OC(CO)C(O)C(O)C3O)=C2)C1=O
INCHIKEY: MGJLSBDCWOSMHL-UHFFFAOYNA-N
Ontology: Isoflavonoid O-glycosides
COLLISIONENERGY: 10
FORMULA: C22H22O9
RETENTIONTIME: 5.030167
IONMODE: Negative
Comment: registered in RIKEN PlaSMA
Num Peaks: 8
252.04213	165
253.04184	31
267.06503	1000
268.06973	225
269.0697	24
270.07455	10
429.10846	5
475.1236	123

NAME: isosakuranetin
PRECURSORMZ: 285.07684714783
PRECURSORTYPE: [M-H]-
INSTRUMENTTYPE: LC-ESI-QTOF
SMILES: COC1=CC=C(C=C1)C1CC(=O)C2=C(O)C=C(O)C=C2O1
INCHIKEY: HMUJXQRRKBLVOO-UHFFFAOYNA-N
Ontology: 4'-O-methylated flavonoids
COLLISIONENERGY: 10
FORMULA: C16H14O5
RETENTIONTIME: 7.453033
IONMODE: Negative
Comment: registered in RIKEN PlaSMA
Num Peaks: 37
65.00188	10
83.01249	10
107.01089	37
108.01913	55
136.01398	110
137.01988	11
151.00212	73
159.04335	17
160.04593	7
164.0098	258
165.01172	24
175.07162	27
177.01744	6
184.04454	5
184.05219	5
186.02841	14
186.03508	5
187.03604	7
198.06926	18
199.03601	7
199.0766	19
200.04875	14
201.05673	8
215.07185	9
217.08157	9
226.06326	8
227.03331	9
228.03758	9
228.04688	6
241.0883	13
243.06342	80
244.07437	7
269.04681	5
270.05264	51
271.05884	7
285.07486	1000
285.12231	16

NAME: Cyanidin-3-O-glucoside
PRECURSORMZ: 447.09273641576
PRECURSORTYPE: [M-2H]-
INSTRUMENTTYPE: LC-ESI-QTOF
SMILES: OCC1OC(OC2=C([O+]=C3C=C(O)C=C(O)C3=C2)C2=CC(O)=C(O)C=C2)C(O)C(O)C1O
INCHIKEY: RKWHWFONKJEUEF-UHFFFAOYNA-O
Ontology: Anthocyanidin-3-O-glycosides
COLLISIONENERGY: 10
FORMULA: C21H21O11
RETENTIONTIME: 2.925433
IONMODE: Negative
Comment: registered in RIKEN PlaSMA
Num Peaks: 18
125.0189	9
125.02313	21
163.03763	9
267.03442	14
271.05948	13
273.08267	11
284.0321	216
285.03784	295
286.04349	80
287.04501	16
288.04416	10
299.03763	8
300.05453	14
303.06525	15
321.0603	19
327.04517	10
329.06738	8
447.09573	1000

NAME: Cyanidin-3-O-rutinoside
PRECURSORMZ: 593.15064521576
PRECURSORTYPE: [M-2H]-
INSTRUMENTTYPE: LC-ESI-QTOF
SMILES: CC1OC(OCC2OC(OC3=C([O+]=C4C=C(O)C=C(O)C4=C3)C3=CC(O)=C(O)C=C3)C(O)C(O)C2O)C(O)C(O)C1O
INCHIKEY: USNPULRDBDVJAO-UHFFFAOYNA-O
Ontology: Anthocyanidin-3-O-glycosides
COLLISIONENERGY: 10
FORMULA: C27H31O15
RETENTIONTIME: 2.942033
IONMODE: Negative
Comment: registered in RIKEN PlaSMA
Num Peaks: 6
125.02342	5
285.02969	17
285.04318	36
396.32486	6
416.67398	9
593.15112	1000

NAME: Procyanidin B2
PRECURSORMZ: 577.13514984783
PRECURSORTYPE: [M-H]-
INSTRUMENTTYPE: LC-ESI-QTOF
SMILES: OC1CC2=C(OC1C1=CC(O)=C(O)C=C1)C(C1C(O)C(OC3=CC(O)=CC(O)=C13)C1=CC(O)=C(O)C=C1)=C(O)C=C2O
INCHIKEY: XFZJEEAOWLFHDH-UHFFFAOYNA-N
Ontology: Biflavonoids and polyflavonoids
COLLISIONENERGY: 10
FORMULA: C30H26O12
RETENTIONTIME: 3.225917
IONMODE: Negative
Comment: registered in RIKEN PlaSMA
Num Peaks: 41
125.02806	27
167.037	14
225.05444	22
245.03452	19
245.04422	13
273.0386	14
287.06277	30
289.06726	166
289.07889	117
290.0806	12
299.04245	20
299.05688	26
300.04587	14
300.05869	18
352.17328	14
357.82367	14
392.00742	14
406.06781	14
407.07773	150
407.09659	34
408.07413	29
410.58807	14
423.04422	14
423.09198	13
425.08463	558
426.08694	120
426.1058	14
427.09534	13
427.11044	29
430.47061	12
432.78247	19
451.1037	134
451.13339	16
452.09024	16
516.15247	27
540.07715	13
559.1156	21
575.1203	75
576.12195	28
576.14575	29
577.13495	1000

NAME: Sinapoyl aldehyde
PRECURSORMZ: 207.06628244783
PRECURSORTYPE: [M-H]-
INSTRUMENTTYPE: LC-ESI-QTOF
SMILES: COC1=CC(C=CC=O)=CC(OC)=C1O
INCHIKEY: CDICDSOGTRCHMG-UHFFFAOYSA-N
Ontology: Methoxyphenols
COLLISIONENERGY: 10
FORMULA: C11H12O4
RETENTIONTIME: 4.721467
IONMODE: Negative
Comment: registered in RIKEN PlaSMA
Num Peaks: 12
149.01939	16
149.02881	6
171.08458	16
177.01842	310
178.01872	33
190.99425	10
191.03275	7
192.0079	5
192.04202	1000
193.04398	174
194.04504	18
207.06427	448

NAME: Formononetin-7-O-glucoside
PRECURSORMZ: 429.11910584783
PRECURSORTYPE: [M-H]-
INSTRUMENTTYPE: LC-ESI-QTOF
SMILES: COC1=CC=C(C=C1)C1=COC2=C(C=CC(OC3OC(CO)C(O)C(O)C3O)=C2)C1=O
INCHIKEY: MGJLSBDCWOSMHL-UHFFFAOYNA-N
Ontology: Isoflavonoid O-glycosides
COLLISIONENERGY: 10
FORMULA: C22H22O9
RETENTIONTIME: 5.030167
IONMODE: Negative
Comment: registered in RIKEN PlaSMA
Num Peaks: 3
267.06522	1000
268.06982	81
271.06042	40

NAME: Formononetin-7-O-glucoside
PRECURSORMZ: 475.12458515183
PRECURSORTYPE: [M+FA-H]-
INSTRUMENTTYPE: LC-ESI-QTOF
SMILES: COC1=CC=C(C=C1)C1=COC2=C(C=CC(OC3OC(CO)C(O)C(O)C3O)=C2)C1=O
INCHIKEY: MGJLSBDCWOSMHL-UHFFFAOYNA-N
Ontology: Isoflavonoid O-glycosides
COLLISIONENERGY: 10
FORMULA: C22H22O9
RETENTIONTIME: 5.030167
IONMODE: Negative
Comment: registered in RIKEN PlaSMA
Num Peaks: 9
207.0499	6
267.06476	1000
268.06723	173
269.06885	25
270.07639	8
429.12396	19
430.12109	10
475.12164	400
475.16367	6

NAME: isosakuranetin
PRECURSORMZ: 285.07684714783
PRECURSORTYPE: [M-H]-
INSTRUMENTTYPE: LC-ESI-QTOF
SMILES: COC1=CC=C(C=C1)C1CC(=O)C2=C(O)C=C(O)C=C2O1
INCHIKEY: HMUJXQRRKBLVOO-UHFFFAOYNA-N
Ontology: 4'-O-methylated flavonoids
COLLISIONENERGY: 10
FORMULA: C16H14O5
RETENTIONTIME: 7.453033
IONMODE: Negative
Comment: registered in RIKEN PlaSMA
Num Peaks: 6
151.0007	7
164.0098	32
243.06665	18
270.052	20
285.07559	1000
285.12305	18

NAME: Cyanidin-3-O-glucoside
PRECURSORMZ: 447.09273641576
PRECURSORTYPE: [M-2H]-
INSTRUMENTTYPE: LC-ESI-QTOF
SMILES: OCC1OC(OC2=C([O+]=C3C=C(O)C=C(O)C3=C2)C2=CC(O)=C(O)C=C2)C(O)C(O)C1O
INCHIKEY: RKWHWFONKJEUEF-UHFFFAOYNA-O
Ontology: Anthocyanidin-3-O-glycosides
COLLISIONENERGY: 30
FORMULA: C21H21O11
RETENTIONTIME: 2.925433
IONMODE: Negative
Comment: registered in RIKEN PlaSMA
Num Peaks: 45
108.01543	51
109.02886	68
125.01457	25
125.02324	68
141.06958	27
147.00165	55
147.00925	214
147.04642	31
148.01971	22
149.02208	22
174.9959	26
175.03378	26
185.06259	35
194.03294	21
199.04128	72
200.04787	21
202.01703	23
213.05867	22
214.01872	52
217.05074	22
223.05455	20
224.05338	33
239.02139	21
239.03343	62
240.03557	33
240.05112	20
241.05244	44
242.02412	79
249.0625	28
255.02266	123
255.03607	77
256.03293	122
257.03387	21
257.04694	114
258.04932	40
258.06717	27
271.04691	18
281.97913	22
283.01413	65
283.02924	31
284.0304	1000
285.03949	234
286.03592	78
293.03452	21
370.33304	18

NAME: Cyanidin-3-O-rutinoside
PRECURSORMZ: 593.15064521576
PRECURSORTYPE: [M-2H]-
INSTRUMENTTYPE: LC-ESI-QTOF
SMILES: CC1OC(OCC2OC(OC3=C([O+]=C4C=C(O)C=C(O)C4=C3)C3=CC(O)=C(O)C=C3)C(O)C(O)C2O)C(O)C(O)C1O
INCHIKEY: USNPULRDBDVJAO-UHFFFAOYNA-O
Ontology: Anthocyanidin-3-O-glycosides
COLLISIONENERGY: 30
FORMULA: C27H31O15
RETENTIONTIME: 2.942033
IONMODE: Negative
Comment: registered in RIKEN PlaSMA
Num Peaks: 41
125.02169	22
141.07167	14
147.00304	12
147.00871	10
147.01619	19
148.01723	13
161.019	12
163.00371	14
175.04454	10
189.01077	14
204.04297	10
213.04604	10
220.76007	10
224.06145	18
240.03928	11
240.04984	9
241.04433	18
243.0312	20
256.04645	13
257.03793	27
257.0481	9
271.04608	9
272.30869	9
281.97934	9
283.02649	8
284.03198	1000
284.16431	9
285.03607	562
285.04901	183
286.03607	44
286.04926	56
287.05002	8
291.06265	10
295.05356	9
296.43039	12
299.05399	59
299.07764	10
299.08643	19
300.05627	19
300.07123	8
593.1413	11

NAME: Procyanidin B2
PRECURSORMZ: 577.13514984783
PRECURSORTYPE: [M-H]-
INSTRUMENTTYPE: LC-ESI-QTOF
SMILES: OC1CC2=C(OC1C1=CC(O)=C(O)C=C1)C(C1C(O)C(OC3=CC(O)=CC(O)=C13)C1=CC(O)=C(O)C=C1)=C(O)C=C2O
INCHIKEY: XFZJEEAOWLFHDH-UHFFFAOYNA-N
Ontology: Biflavonoids and polyflavonoids
COLLISIONENERGY: 30
FORMULA: C30H26O12
RETENTIONTIME: 3.225917
IONMODE: Negative
Comment: registered in RIKEN PlaSMA
Num Peaks: 70
95.73576	35
109.02628	35
122.02657	59
125.02242	1000
126.02866	130
133.02527	39
137.02368	136
139.03835	55
151.03346	35
152.03513	47
161.0153	138
161.02864	79
161.03871	122
161.0515	49
162.02769	132
164.0114	55
165.0204	35
167.02971	41
175.03812	39
177.01668	57
177.02284	122
179.02888	86
179.03683	63
188.04662	35
200.00784	35
201.0901	39
203.06477	202
203.07787	55
205.00751	71
205.05095	104
206.05542	49
216.02126	39
219.05273	57
228.0681	53
230.05779	51
244.07512	39
245.03384	37
245.04688	196
245.0744	157
245.09024	198
247.05812	41
253.05853	39
255.02032	79
255.0583	75
257.03778	96
271.05902	55
272.07706	39
273.04108	128
281.04672	193
285.04813	51
287.0542	49
287.0654	41
289.07266	552
289.0983	55
290.07156	51
290.08157	100
291.08002	39
297.03635	45
297.06277	35
310.03702	37
339.06519	65
339.086	83
340.09088	41
340.10229	41
346.07797	49
348.07166	45
391.06583	37
407.08673	363
408.06934	63
408.0845	134

NAME: Sinapoyl aldehyde
PRECURSORMZ: 207.06628244783
PRECURSORTYPE: [M-H]-
INSTRUMENTTYPE: LC-ESI-QTOF
SMILES: COC1=CC(C=CC=O)=CC(OC)=C1O
INCHIKEY: CDICDSOGTRCHMG-UHFFFAOYSA-N
Ontology: Methoxyphenols
COLLISIONENERGY: 30
FORMULA: C11H12O4
RETENTIONTIME: 4.721467
IONMODE: Negative
Comment: registered in RIKEN PlaSMA
Num Peaks: 14
93.03568	545
94.04011	64
95.0146	67
105.03075	593
106.03566	131
107.0107	83
121.02734	1000
132.02687	106
149.02187	782
149.03171	125
150.02878	228
177.01207	115
177.02	362
177.02765	93

NAME: Formononetin-7-O-glucoside
PRECURSORMZ: 429.11910584783
PRECURSORTYPE: [M-H]-
INSTRUMENTTYPE: LC-ESI-QTOF
SMILES: COC1=CC=C(C=C1)C1=COC2=C(C=CC(OC3OC(CO)C(O)C(O)C3O)=C2)C1=O
INCHIKEY: MGJLSBDCWOSMHL-UHFFFAOYNA-N
Ontology: Isoflavonoid O-glycosides
COLLISIONENERGY: 30
FORMULA: C22H22O9
RETENTIONTIME: 5.030167
IONMODE: Negative
Comment: registered in RIKEN PlaSMA
Num Peaks: 7
252.04068	1000
253.03456	74
253.04672	88
253.05409	74
267.05832	466
267.06848	909
268.06378	111

NAME: Formononetin-7-O-glucoside
PRECURSORMZ: 475.12458515183
PRECURSORTYPE: [M+FA-H]-
INSTRUMENTTYPE: LC-ESI-QTOF
SMILES: COC1=CC=C(C=C1)C1=COC2=C(C=CC(OC3OC(CO)C(O)C(O)C3O)=C2)C1=O
INCHIKEY: MGJLSBDCWOSMHL-UHFFFAOYNA-N
Ontology: Isoflavonoid O-glycosides
COLLISIONENERGY: 30
FORMULA: C22H22O9
RETENTIONTIME: 5.030167
IONMODE: Negative
Comment: registered in RIKEN PlaSMA
Num Peaks: 8
105.2573	7
252.04077	269
253.04401	61
254.043	10
267.06467	1000
268.06882	182
269.0611	10
269.07593	7

NAME: isosakuranetin
PRECURSORMZ: 285.07684714783
PRECURSORTYPE: [M-H]-
INSTRUMENTTYPE: LC-ESI-QTOF
SMILES: COC1=CC=C(C=C1)C1CC(=O)C2=C(O)C=C(O)C=C2O1
INCHIKEY: HMUJXQRRKBLVOO-UHFFFAOYNA-N
Ontology: 4'-O-methylated flavonoids
COLLISIONENERGY: 30
FORMULA: C16H14O5
RETENTIONTIME: 7.453033
IONMODE: Negative
Comment: registered in RIKEN PlaSMA
Num Peaks: 98
63.02194	45
65.0029	74
66.00471	5
70.87411	5
80.02554	73
83.01317	67
84.0152	5
86.4189	7
93.03041	6
94.00885	7
95.01023	11
106.59607	5
107.01291	212
108.02052	687
108.09657	7
109.02293	43
111.41836	8
119.04591	13
119.05301	11
120.02266	8
122.0007	14
123.00928	15
124.01566	21
125.02332	12
130.03696	12
130.04385	10
131.0443	8
132.05814	31
136.01537	1000
137.01953	65
138.01457	6
138.02124	7
145.0338	9
149.02541	6
151.00249	304
154.03998	8
155.05171	9
156.05307	21
156.06714	13
156.07266	6
158.03459	31
159.04504	101
160.04272	15
160.04886	33
160.07042	5
164.01033	699
165.01337	40
165.02269	22
166.02048	7
167.04868	7
171.03688	6
172.05099	10
174.06256	5
174.07094	7
175.07535	118
176.08699	8
177.02011	38
181.06648	7
182.0401	7
183.04465	74
184.04753	11
184.05688	26
185.02469	6
186.03383	146
187.0408	65
187.05493	5
197.05734	19
197.06807	9
198.0686	28
199.039	44
199.07422	30
200.04318	56
200.0518	30
201.04828	21
201.05533	24
202.04677	6
202.06271	31
207.05086	6
211.03938	7
215.07225	64
216.07487	12
225.05034	28
226.05946	9
226.06689	8
227.03406	68
227.07416	9
228.0376	43
228.05173	11
229.04803	12
241.07863	7
242.05559	10
243.06148	48
243.07442	15
252.04681	9
254.70824	7
269.03302	9
269.04993	15
285.07794	25

NAME: Cyanidin-3-O-glucoside
PRECURSORMZ: 447.09273641576
PRECURSORTYPE: [M-2H]-
INSTRUMENTTYPE: LC-ESI-QTOF
SMILES: OCC1OC(OC2=C([O+]=C3C=C(O)C=C(O)C3=C2)C2=CC(O)=C(O)C=C2)C(O)C(O)C1O
INCHIKEY: RKWHWFONKJEUEF-UHFFFAOYNA-O
Ontology: Anthocyanidin-3-O-glycosides
COLLISIONENERGY: 50
FORMULA: C21H21O11
RETENTIONTIME: 2.925433
IONMODE: Negative
Comment: registered in RIKEN PlaSMA
Num Peaks: 36
96.0171	109
105.03714	139
109.02509	109
121.03646	129
147.01361	104
147.03984	119
148.01935	90
149.03165	169
161.02423	119
167.04745	104
171.04373	129
173.02216	109
182.03542	179
183.04128	234
183.05153	109
186.03033	119
187.03383	139
188.03412	269
189.01505	119
189.05359	90
195.04454	458
196.03886	95
199.03584	119
200.0369	149
210.03397	104
211.03816	1000
212.04469	229
213.01685	114
226.02596	95
227.03859	1000
228.0434	90
239.02661	139
239.03694	214
240.02971	154
255.02843	761
256.02982	90

NAME: Cyanidin-3-O-rutinoside
PRECURSORMZ: 593.15064521576
PRECURSORTYPE: [M-2H]-
INSTRUMENTTYPE: LC-ESI-QTOF
SMILES: CC1OC(OCC2OC(OC3=C([O+]=C4C=C(O)C=C(O)C4=C3)C3=CC(O)=C(O)C=C3)C(O)C(O)C2O)C(O)C(O)C1O
INCHIKEY: USNPULRDBDVJAO-UHFFFAOYNA-O
Ontology: Anthocyanidin-3-O-glycosides
COLLISIONENERGY: 50
FORMULA: C27H31O15
RETENTIONTIME: 2.942033
IONMODE: Negative
Comment: registered in RIKEN PlaSMA
Num Peaks: 64
83.01027	47
105.02911	81
108.01321	105
109.02853	130
110.03289	64
111.03761	56
119.05078	44
121.39284	108
125.02165	59
126.02369	54
147.0079	150
148.01485	267
149.00972	88
149.01872	130
149.03004	54
151.03738	81
163.00302	49
164.00699	51
170.03377	54
171.04486	59
175.04172	71
183.04051	47
184.05092	179
185.02629	127
185.06467	135
185.19725	71
186.03229	130
188.05008	186
189.0502	74
190.0616	176
195.03938	66
199.02888	74
199.04279	108
200.03918	120
200.04904	125
210.03169	64
211.03923	299
212.04716	294
214.02191	56
214.06184	125
215.06924	61
217.04604	49
226.06699	61
227.01819	49
227.0316	176
228.03809	47
228.04651	66
230.05887	88
239.03214	252
240.03391	59
240.04987	81
241.04428	71
255.02954	953
256.02521	260
256.03488	179
256.05289	56
257.0347	164
257.04919	172
283.02087	397
283.03497	98
284.0296	1000
284.05676	56
285.04282	176
298.05219	44

NAME: Procyanidin B2
PRECURSORMZ: 577.13514984783
PRECURSORTYPE: [M-H]-
INSTRUMENTTYPE: LC-ESI-QTOF
SMILES: OC1CC2=C(OC1C1=CC(O)=C(O)C=C1)C(C1C(O)C(OC3=CC(O)=CC(O)=C13)C1=CC(O)=C(O)C=C1)=C(O)C=C2O
INCHIKEY: XFZJEEAOWLFHDH-UHFFFAOYNA-N
Ontology: Biflavonoids and polyflavonoids
COLLISIONENERGY: 50
FORMULA: C30H26O12
RETENTIONTIME: 3.225917
IONMODE: Negative
Comment: registered in RIKEN PlaSMA
Num Peaks: 60
95.02013	82
107.04631	49
109.02728	160
117.03159	115
121.0217	49
121.02984	108
122.03785	52
123.04501	204
125.02348	1000
126.02399	150
131.04599	47
133.02814	99
135.04327	49
137.02351	101
137.03812	47
146.03613	117
147.03587	54
149.02805	70
150.03352	54
159.04561	101
161.01855	124
161.02669	49
161.06111	106
162.03558	47
163.0018	47
164.01093	73
165.02542	61
173.05714	54
174.0313	59
175.03693	455
175.08649	45
177.01669	207
178.0197	108
183.04105	42
188.04291	122
189.25832	129
202.06404	66
203.0666	92
205.01236	52
205.04404	143
205.05627	122
211.0338	106
213.04367	61
227.03963	61
227.07455	42
237.05441	54
241.05118	54
241.08075	70
243.03087	89
244.10649	47
245.04263	66
245.08107	63
252.03481	59
255.02106	49
255.03171	49
256.03693	103
276.07397	42
281.03717	47
284.00723	63
292.07611	73

NAME: Sinapoyl aldehyde
PRECURSORMZ: 207.06628244783
PRECURSORTYPE: [M-H]-
INSTRUMENTTYPE: LC-ESI-QTOF
SMILES: COC1=CC(C=CC=O)=CC(OC)=C1O
INCHIKEY: CDICDSOGTRCHMG-UHFFFAOYSA-N
Ontology: Methoxyphenols
COLLISIONENERGY: 50
FORMULA: C11H12O4
RETENTIONTIME: 4.721467
IONMODE: Negative
Comment: registered in RIKEN PlaSMA
Num Peaks: 2
95.01202	514
121.02854	1000

NAME: Formononetin-7-O-glucoside
PRECURSORMZ: 429.11910584783
PRECURSORTYPE: [M-H]-
INSTRUMENTTYPE: LC-ESI-QTOF
SMILES: COC1=CC=C(C=C1)C1=COC2=C(C=CC(OC3OC(CO)C(O)C(O)C3O)=C2)C1=O
INCHIKEY: MGJLSBDCWOSMHL-UHFFFAOYNA-N
Ontology: Isoflavonoid O-glycosides
COLLISIONENERGY: 50
FORMULA: C22H22O9
RETENTIONTIME: 5.030167
IONMODE: Negative
Comment: registered in RIKEN PlaSMA
Num Peaks: 10
132.02107	304
195.04108	264
196.05379	182
208.05412	351
223.04135	122
251.0592	257
252.02727	155
252.04089	1000
252.26135	122
253.05576	122

NAME: Formononetin-7-O-glucoside
PRECURSORMZ: 475.12458515183
PRECURSORTYPE: [M+FA-H]-
INSTRUMENTTYPE: LC-ESI-QTOF
SMILES: COC1=CC=C(C=C1)C1=COC2=C(C=CC(OC3OC(CO)C(O)C(O)C3O)=C2)C1=O
INCHIKEY: MGJLSBDCWOSMHL-UHFFFAOYNA-N
Ontology: Isoflavonoid O-glycosides
COLLISIONENERGY: 50
FORMULA: C22H22O9
RETENTIONTIME: 5.030167
IONMODE: Negative
Comment: registered in RIKEN PlaSMA
Num Peaks: 43
98.19498	8
98.20967	5
104.02777	7
117.0302	5
132.02081	50
133.02049	9
135.00812	87
167.04829	8
167.06216	7
169.0547	9
175.77765	8
179.05493	6
181.86935	8
185.19531	7
195.04025	45
195.04941	33
196.04599	20
196.05682	41
196.06807	5
197.05516	6
207.04115	5
208.04968	41
209.05212	13
210.03755	11
210.05493	11
223.03802	193
224.04712	89
228.96065	6
239.01772	7
239.27394	7
251.03502	143
251.05798	8
252.04176	1000
252.06354	14
253.04454	275
253.84129	6
254.03845	11
254.05307	22
267.05441	6
267.0708	47
275.05054	9
294.72382	6
334.27399	5

NAME: isosakuranetin
PRECURSORMZ: 285.07684714783
PRECURSORTYPE: [M-H]-
INSTRUMENTTYPE: LC-ESI-QTOF
SMILES: COC1=CC=C(C=C1)C1CC(=O)C2=C(O)C=C(O)C=C2O1
INCHIKEY: HMUJXQRRKBLVOO-UHFFFAOYNA-N
Ontology: 4'-O-methylated flavonoids
COLLISIONENERGY: 50
FORMULA: C16H14O5
RETENTIONTIME: 7.453033
IONMODE: Negative
Comment: registered in RIKEN PlaSMA
Num Peaks: 59
63.01993	123
63.02698	114
65.00208	726
79.02041	45
80.02666	407
83.01253	231
96.02149	62
104.02536	71
107.0099	328
108.02005	1000
109.02633	39
116.02232	123
117.03454	504
118.04122	71
119.04825	506
129.0325	45
130.04189	99
136.01526	159
138.05145	50
141.03337	106
142.04259	58
143.04353	91
143.05702	75
145.02602	41
149.02202	45
151.0047	78
153.98628	41
154.03915	86
155.03802	43
155.05048	58
155.14517	43
155.22218	39
156.047	54
156.05728	52
157.02338	52
158.04266	43
159.04659	619
159.82239	39
160.0509	75
164.00438	39
164.01344	41
171.04515	43
173.06206	50
182.03355	114
183.01273	50
183.03882	108
183.04887	65
185.01624	43
185.03337	50
186.02357	47
187.03592	43
198.03166	91
199.03101	88
199.04404	60
200.04637	39
201.04915	47
211.04503	80
226.03186	45
227.03358	138

NAME: Cyanidin-3-O-glucoside
PRECURSORMZ: 447.09273641576
PRECURSORTYPE: [M-2H]-
INSTRUMENTTYPE: LC-ESI-QTOF
SMILES: OCC1OC(OC2=C([O+]=C3C=C(O)C=C(O)C3=C2)C2=CC(O)=C(O)C=C2)C(O)C(O)C1O
INCHIKEY: RKWHWFONKJEUEF-UHFFFAOYNA-O
Ontology: Anthocyanidin-3-O-glycosides
COLLISIONENERGY: 10
FORMULA: C21H21O11
RETENTIONTIME: 2.925433
IONMODE: Negative
Comment: registered in RIKEN PlaSMA
Num Peaks: 28
109.02515	36
109.03044	26
126.0237	33
147.00417	33
147.01028	29
172.04709	29
191.03389	28
197.04807	36
211.02625	32
212.03305	29
213.05937	39
223.0345	32
225.0601	50
227.03003	32
227.04265	25
228.03691	28
229.04643	32
242.00806	25
255.02187	129
255.04016	28
257.04086	60
283.01862	28
284.03268	721
285.03958	1000
286.0473	28
287.04379	86
299.06107	56
447.09537	650

NAME: Cyanidin-3-O-rutinoside
PRECURSORMZ: 593.15064521576
PRECURSORTYPE: [M-2H]-
INSTRUMENTTYPE: LC-ESI-QTOF
SMILES: CC1OC(OCC2OC(OC3=C([O+]=C4C=C(O)C=C(O)C4=C3)C3=CC(O)=C(O)C=C3)C(O)C(O)C2O)C(O)C(O)C1O
INCHIKEY: USNPULRDBDVJAO-UHFFFAOYNA-O
Ontology: Anthocyanidin-3-O-glycosides
COLLISIONENERGY: 10
FORMULA: C27H31O15
RETENTIONTIME: 2.942033
IONMODE: Negative
Comment: registered in RIKEN PlaSMA
Num Peaks: 49
107.90282	13
125.01966	11
148.00778	12
171.03442	10
175.00168	10
175.03683	13
189.05176	10
189.06522	15
190.99345	9
199.04393	9
201.09297	10
202.11746	9
211.03369	10
211.05006	10
217.05345	10
218.02513	19
222.05875	14
229.00972	14
238.03064	13
240.04332	10
241.04733	10
242.01498	12
253.05556	14
255.03429	26
255.06175	15
256.03888	21
271.02386	10
281.914	13
283.01053	8
283.02133	24
284.03113	303
285.03668	411
286.02972	28
286.04184	59
287.03336	16
287.04407	15
298.03412	9
299.04584	32
299.05441	13
299.07278	14
318.31174	9
327.04391	15
327.05579	9
339.03848	10
356.87323	10
380.4198	10
581.88086	9
593.14795	1000
593.19647	21

NAME: Procyanidin B2
PRECURSORMZ: 577.13514984783
PRECURSORTYPE: [M-H]-
INSTRUMENTTYPE: LC-ESI-QTOF
SMILES: OC1CC2=C(OC1C1=CC(O)=C(O)C=C1)C(C1C(O)C(OC3=CC(O)=CC(O)=C13)C1=CC(O)=C(O)C=C1)=C(O)C=C2O
INCHIKEY: XFZJEEAOWLFHDH-UHFFFAOYNA-N
Ontology: Biflavonoids and polyflavonoids
COLLISIONENERGY: 10
FORMULA: C30H26O12
RETENTIONTIME: 3.225917
IONMODE: Negative
Comment: registered in RIKEN PlaSMA
Num Peaks: 51
57.03368	60
109.03445	36
125.02176	260
126.02496	52
139.03941	43
161.01796	45
161.02759	70
164.01123	60
165.02042	36
175.03914	45
187.03734	32
189.05417	65
205.04993	38
231.06647	47
240.74893	32
243.02899	79
245.08324	43
256.02658	52
257.03714	45
274.04523	51
280.04001	36
281.0455	51
285.02975	70
287.04858	38
289.07117	1000
289.08923	47
290.07346	206
297.09381	32
315.07199	40
323.05756	32
325.05615	60
329.06912	69
339.09048	81
341.06906	38
363.08566	42
407.07556	383
407.09506	52
407.11478	69
407.54431	32
408.07144	125
408.08841	92
409.07986	34
424.09238	49
425.08374	137
425.13483	43
426.09814	34
426.117	40
429.07794	36
433.0864	74
559.12299	54
577.14685	108

NAME: Sinapoyl aldehyde
PRECURSORMZ: 207.06628244783
PRECURSORTYPE: [M-H]-
INSTRUMENTTYPE: LC-ESI-QTOF
SMILES: COC1=CC(C=CC=O)=CC(OC)=C1O
INCHIKEY: CDICDSOGTRCHMG-UHFFFAOYSA-N
Ontology: Methoxyphenols
COLLISIONENERGY: 10
FORMULA: C11H12O4
RETENTIONTIME: 4.721467
IONMODE: Negative
Comment: registered in RIKEN PlaSMA
Num Peaks: 29
77.03891	25
105.03015	43
106.03659	13
107.02009	13
121.02525	32
121.03147	40
133.02985	11
149.02077	104
149.05255	13
149.93764	11
150.02643	45
151.02589	18
157.07492	11
162.0256	17
162.98517	11
163.03856	11
164.01559	13
177.01727	618
178.0123	13
178.02385	73
189.00009	10
191.02943	29
191.04124	30
192.04007	1000
192.92076	21
193.03517	29
193.04701	58
207.05284	28
207.06509	209

NAME: Formononetin-7-O-glucoside
PRECURSORMZ: 429.11910584783
PRECURSORTYPE: [M-H]-
INSTRUMENTTYPE: LC-ESI-QTOF
SMILES: COC1=CC=C(C=C1)C1=COC2=C(C=CC(OC3OC(CO)C(O)C(O)C3O)=C2)C1=O
INCHIKEY: MGJLSBDCWOSMHL-UHFFFAOYNA-N
Ontology: Isoflavonoid O-glycosides
COLLISIONENERGY: 10
FORMULA: C22H22O9
RETENTIONTIME: 5.030167
IONMODE: Negative
Comment: registered in RIKEN PlaSMA
Num Peaks: 5
223.04686	74
251.79921	64
252.03645	90
267.06842	1000
268.06577	68

NAME: Formononetin-7-O-glucoside
PRECURSORMZ: 475.12458515183
PRECURSORTYPE: [M+FA-H]-
INSTRUMENTTYPE: LC-ESI-QTOF
SMILES: COC1=CC=C(C=C1)C1=COC2=C(C=CC(OC3OC(CO)C(O)C(O)C3O)=C2)C1=O
INCHIKEY: MGJLSBDCWOSMHL-UHFFFAOYNA-N
Ontology: Isoflavonoid O-glycosides
COLLISIONENERGY: 10
FORMULA: C22H22O9
RETENTIONTIME: 5.030167
IONMODE: Negative
Comment: registered in RIKEN PlaSMA
Num Peaks: 8
251.03474	9
251.06764	6
252.04233	164
253.0446	37
267.06564	1000
268.06848	194
269.0701	23
475.12549	79

NAME: isosakuranetin
PRECURSORMZ: 285.07684714783
PRECURSORTYPE: [M-H]-
INSTRUMENTTYPE: LC-ESI-QTOF
SMILES: COC1=CC=C(C=C1)C1CC(=O)C2=C(O)C=C(O)C=C2O1
INCHIKEY: HMUJXQRRKBLVOO-UHFFFAOYNA-N
Ontology: 4'-O-methylated flavonoids
COLLISIONENERGY: 10
FORMULA: C16H14O5
RETENTIONTIME: 7.453033
IONMODE: Negative
Comment: registered in RIKEN PlaSMA
Num Peaks: 33
80.02614	7
83.01224	16
107.01209	33
108.01829	50
109.02138	7
136.01401	111
137.01807	8
151.00266	83
152.00551	6
159.04314	10
164.00906	256
165.01465	32
175.0739	28
177.019	6
183.04752	7
186.03143	12
187.03172	5
187.03893	6
198.06847	6
199.04128	5
200.04591	7
201.05617	10
217.08293	8
226.06021	7
227.033	9
228.0428	12
241.08649	6
243.06607	79
244.0685	14
270.04947	42
271.05188	7
285.07498	1000
285.12338	15

NAME: Cyanidin-3-O-glucoside
PRECURSORMZ: 447.09273641576
PRECURSORTYPE: [M-2H]-
INSTRUMENTTYPE: LC-ESI-QTOF
SMILES: OCC1OC(OC2=C([O+]=C3C=C(O)C=C(O)C3=C2)C2=CC(O)=C(O)C=C2)C(O)C(O)C1O
INCHIKEY: RKWHWFONKJEUEF-UHFFFAOYNA-O
Ontology: Anthocyanidin-3-O-glycosides
COLLISIONENERGY: 10
FORMULA: C21H21O11
RETENTIONTIME: 2.925433
IONMODE: Negative
Comment: registered in RIKEN PlaSMA
Num Peaks: 19
258.28934	10
269.04593	14
271.02051	12
284.02869	38
284.04297	41
285.03888	330
286.04562	59
287.0394	11
287.05862	18
289.84332	10
297.02954	10
299.05905	13
300.04901	16
327.3114	11
340.05106	10
357.0639	24
357.07285	9
446.09149	14
447.09183	1000

NAME: Cyanidin-3-O-rutinoside
PRECURSORMZ: 593.15064521576
PRECURSORTYPE: [M-2H]-
INSTRUMENTTYPE: LC-ESI-QTOF
SMILES: CC1OC(OCC2OC(OC3=C([O+]=C4C=C(O)C=C(O)C4=C3)C3=CC(O)=C(O)C=C3)C(O)C(O)C2O)C(O)C(O)C1O
INCHIKEY: USNPULRDBDVJAO-UHFFFAOYNA-O
Ontology: Anthocyanidin-3-O-glycosides
COLLISIONENERGY: 10
FORMULA: C27H31O15
RETENTIONTIME: 2.942033
IONMODE: Negative
Comment: registered in RIKEN PlaSMA
Num Peaks: 8
102.37776	7
284.03888	6
285.03806	37
357.58981	6
379.98425	5
444.93265	8
467.13498	6
593.1524	1000

NAME: Procyanidin B2
PRECURSORMZ: 577.13514984783
PRECURSORTYPE: [M-H]-
INSTRUMENTTYPE: LC-ESI-QTOF
SMILES: OC1CC2=C(OC1C1=CC(O)=C(O)C=C1)C(C1C(O)C(OC3=CC(O)=CC(O)=C13)C1=CC(O)=C(O)C=C1)=C(O)C=C2O
INCHIKEY: XFZJEEAOWLFHDH-UHFFFAOYNA-N
Ontology: Biflavonoids and polyflavonoids
COLLISIONENERGY: 10
FORMULA: C30H26O12
RETENTIONTIME: 3.225917
IONMODE: Negative
Comment: registered in RIKEN PlaSMA
Num Peaks: 38
125.02113	67
177.01952	20
240.82576	19
243.0666	17
245.04169	28
246.04385	19
274.04266	22
287.0535	29
287.06482	34
288.06454	16
289.07297	161
290.06296	18
290.07333	14
299.05304	34
355.55484	39
371.06912	13
382.08368	16
397.07617	17
400.13846	21
407.07016	171
408.05408	14
408.07101	34
408.09183	14
422.52835	14
423.07233	14
425.08255	302
426.09073	88
427.09323	15
427.11444	18
449.13684	14
451.0773	14
451.09647	34
451.11307	31
452.10397	47
533.13782	15
559.13721	14
576.11908	16
577.13531	1000

NAME: Sinapoyl aldehyde
PRECURSORMZ: 207.06628244783
PRECURSORTYPE: [M-H]-
INSTRUMENTTYPE: LC-ESI-QTOF
SMILES: COC1=CC(C=CC=O)=CC(OC)=C1O
INCHIKEY: CDICDSOGTRCHMG-UHFFFAOYSA-N
Ontology: Methoxyphenols
COLLISIONENERGY: 10
FORMULA: C11H12O4
RETENTIONTIME: 4.721467
IONMODE: Negative
Comment: registered in RIKEN PlaSMA
Num Peaks: 8
129.84425	6
149.02307	6
177.0183	225
178.02336	32
192.04237	1000
193.0424	56
194.04466	6
207.06346	428

NAME: Formononetin-7-O-glucoside
PRECURSORMZ: 429.11910584783
PRECURSORTYPE: [M-H]-
INSTRUMENTTYPE: LC-ESI-QTOF
SMILES: COC1=CC=C(C=C1)C1=COC2=C(C=CC(OC3OC(CO)C(O)C(O)C3O)=C2)C1=O
INCHIKEY: MGJLSBDCWOSMHL-UHFFFAOYNA-N
Ontology: Isoflavonoid O-glycosides
COLLISIONENERGY: 10
FORMULA: C22H22O9
RETENTIONTIME: 5.030167
IONMODE: Negative
Comment: registered in RIKEN PlaSMA
Num Peaks: 4
267.06668	1000
268.0657	217
269.06595	102
271.05484	29

NAME: Formononetin-7-O-glucoside
PRECURSORMZ: 475.12458515183
PRECURSORTYPE: [M+FA-H]-
INSTRUMENTTYPE: LC-ESI-QTOF
SMILES: COC1=CC=C(C=C1)C1=COC2=C(C=CC(OC3OC(CO)C(O)C(O)C3O)=C2)C1=O
INCHIKEY: MGJLSBDCWOSMHL-UHFFFAOYNA-N
Ontology: Isoflavonoid O-glycosides
COLLISIONENERGY: 10
FORMULA: C22H22O9
RETENTIONTIME: 5.030167
IONMODE: Negative
Comment: registered in RIKEN PlaSMA
Num Peaks: 6
207.05466	9
267.06424	1000
268.0672	191
269.07071	13
429.11407	19
475.12207	411

NAME: isosakuranetin
PRECURSORMZ: 285.07684714783
PRECURSORTYPE: [M-H]-
INSTRUMENTTYPE: LC-ESI-QTOF
SMILES: COC1=CC=C(C=C1)C1CC(=O)C2=C(O)C=C(O)C=C2O1
INCHIKEY: HMUJXQRRKBLVOO-UHFFFAOYNA-N
Ontology: 4'-O-methylated flavonoids
COLLISIONENERGY: 10
FORMULA: C16H14O5
RETENTIONTIME: 7.453033
IONMODE: Negative
Comment: registered in RIKEN PlaSMA
Num Peaks: 6
151.00163	7
164.0103	35
243.06296	18
270.05173	16
285.07553	1000
285.12357	18

NAME: Cyanidin-3-O-glucoside
PRECURSORMZ: 447.09273641576
PRECURSORTYPE: [M-2H]-
INSTRUMENTTYPE: LC-ESI-QTOF
SMILES: OCC1OC(OC2=C([O+]=C3C=C(O)C=C(O)C3=C2)C2=CC(O)=C(O)C=C2)C(O)C(O)C1O
INCHIKEY: RKWHWFONKJEUEF-UHFFFAOYNA-O
Ontology: Anthocyanidin-3-O-glycosides
COLLISIONENERGY: 30
FORMULA: C21H21O11
RETENTIONTIME: 2.925433
IONMODE: Negative
Comment: registered in RIKEN PlaSMA
Num Peaks: 45
125.02267	25
129.03363	22
146.0316	52
147.0085	93
148.02367	21
149.01195	23
149.02449	22
150.02968	20
170.07372	38
171.04462	42
172.04794	22
172.05898	21
177.01624	47
184.04512	24
188.04176	66
190.05696	26
195.06017	47
198.03406	24
199.0428	27
207.06499	22
211.03587	59
212.04927	23
213.05914	24
215.02779	67
217.05179	35
223.0412	27
228.04129	27
239.03271	105
240.04083	225
255.02394	61
256.03085	29
256.0415	83
257.03653	78
257.048	110
258.052	22
269.01453	22
269.03342	34
283.02295	112
284.03131	1000
284.37119	22
285.00314	27
285.04071	350
285.05566	149
287.03232	42
332.7709	36

NAME: Cyanidin-3-O-rutinoside
PRECURSORMZ: 593.15064521576
PRECURSORTYPE: [M-2H]-
INSTRUMENTTYPE: LC-ESI-QTOF
SMILES: CC1OC(OCC2OC(OC3=C([O+]=C4C=C(O)C=C(O)C4=C3)C3=CC(O)=C(O)C=C3)C(O)C(O)C2O)C(O)C(O)C1O
INCHIKEY: USNPULRDBDVJAO-UHFFFAOYNA-O
Ontology: Anthocyanidin-3-O-glycosides
COLLISIONENERGY: 30
FORMULA: C27H31O15
RETENTIONTIME: 2.942033
IONMODE: Negative
Comment: registered in RIKEN PlaSMA
Num Peaks: 52
125.02427	24
125.03171	19
147.00883	19
147.0473	11
162.02654	9
175.00899	26
177.01831	21
189.05833	11
191.03339	16
201.01508	10
201.02333	20
211.03928	15
212.05447	11
213.06508	14
214.06155	28
217.04601	11
229.05338	10
233.00278	12
239.06258	10
240.04761	11
241.04945	24
242.01945	11
242.05473	10
243.01814	11
253.04951	9
255.03342	12
256.03635	9
257.04794	38
267.02695	11
269.03992	11
283.02176	40
283.03552	15
283.06433	13
284.03091	1000
284.2207	10
285.03836	727
285.25565	9
286.03159	70
286.04742	94
286.07483	11
287.03391	33
289.069	13
296.03781	9
298.04028	12
299.04205	10
299.05444	39
299.0687	10
300.06415	16
327.04321	12
327.0567	10
467.12802	10
593.13959	11

NAME: Procyanidin B2
PRECURSORMZ: 577.13514984783
PRECURSORTYPE: [M-H]-
INSTRUMENTTYPE: LC-ESI-QTOF
SMILES: OC1CC2=C(OC1C1=CC(O)=C(O)C=C1)C(C1C(O)C(OC3=CC(O)=CC(O)=C13)C1=CC(O)=C(O)C=C1)=C(O)C=C2O
INCHIKEY: XFZJEEAOWLFHDH-UHFFFAOYNA-N
Ontology: Biflavonoids and polyflavonoids
COLLISIONENERGY: 30
FORMULA: C30H26O12
RETENTIONTIME: 3.225917
IONMODE: Negative
Comment: registered in RIKEN PlaSMA
Num Peaks: 72
109.02526	61
125.02251	1000
126.02567	61
137.01973	380
138.02278	40
138.02997	46
151.03683	89
151.3844	65
159.04166	59
161.02139	390
162.03065	124
163.00781	42
163.02567	49
164.99835	49
175.04086	135
176.04082	38
177.01784	44
179.0275	38
179.03636	99
188.0369	53
202.99855	57
203.07794	179
204.07658	42
205.05296	53
206.0126	44
215.06889	40
229.29779	53
240.98792	61
241.04448	97
245.04253	133
245.07375	51
245.08812	57
246.07947	93
246.09032	57
247.07678	40
253.05307	51
254.07225	42
255.03552	44
256.03647	40
257.03461	108
259.05472	55
268.0405	42
269.04233	42
271.05774	38
273.03891	120
277.08078	49
281.02994	42
283.02472	40
285.04611	114
286.03513	57
287.05356	40
289.06812	521
289.21979	40
290.06686	42
290.0809	51
297.04355	65
299.05545	46
300.06216	49
309.06659	63
310.0416	42
329.06314	38
339.08109	124
339.10034	40
357.09857	72
371.07028	38
405.07794	57
407.02228	42
407.07217	658
408.05978	59
408.07852	196
409.07401	46
539.11102	42

NAME: Sinapoyl aldehyde
PRECURSORMZ: 207.06628244783
PRECURSORTYPE: [M-H]-
INSTRUMENTTYPE: LC-ESI-QTOF
SMILES: COC1=CC(C=CC=O)=CC(OC)=C1O
INCHIKEY: CDICDSOGTRCHMG-UHFFFAOYSA-N
Ontology: Methoxyphenols
COLLISIONENERGY: 30
FORMULA: C11H12O4
RETENTIONTIME: 4.721467
IONMODE: Negative
Comment: registered in RIKEN PlaSMA
Num Peaks: 13
77.03899	541
93.03049	253
103.40553	96
105.03353	1000
121.03027	390
128.0609	62
133.02345	62
149.02092	568
149.02977	329
177.02026	640
178.01216	65
178.0204	134
191.03255	123

NAME: Formononetin-7-O-glucoside
PRECURSORMZ: 429.11910584783
PRECURSORTYPE: [M-H]-
INSTRUMENTTYPE: LC-ESI-QTOF
SMILES: COC1=CC=C(C=C1)C1=COC2=C(C=CC(OC3OC(CO)C(O)C(O)C3O)=C2)C1=O
INCHIKEY: MGJLSBDCWOSMHL-UHFFFAOYNA-N
Ontology: Isoflavonoid O-glycosides
COLLISIONENERGY: 30
FORMULA: C22H22O9
RETENTIONTIME: 5.030167
IONMODE: Negative
Comment: registered in RIKEN PlaSMA
Num Peaks: 7
252.04158	693
253.05002	147
254.05389	83
267.06693	1000
267.3053	165
268.0726	101
271.06241	138

NAME: Formononetin-7-O-glucoside
PRECURSORMZ: 475.12458515183
PRECURSORTYPE: [M+FA-H]-
INSTRUMENTTYPE: LC-ESI-QTOF
SMILES: COC1=CC=C(C=C1)C1=COC2=C(C=CC(OC3OC(CO)C(O)C(O)C3O)=C2)C1=O
INCHIKEY: MGJLSBDCWOSMHL-UHFFFAOYNA-N
Ontology: Isoflavonoid O-glycosides
COLLISIONENERGY: 30
FORMULA: C22H22O9
RETENTIONTIME: 5.030167
IONMODE: Negative
Comment: registered in RIKEN PlaSMA
Num Peaks: 5
252.04111	268
253.04677	54
267.06451	1000
268.06708	191
269.0723	6

NAME: isosakuranetin
PRECURSORMZ: 285.07684714783
PRECURSORTYPE: [M-H]-
INSTRUMENTTYPE: LC-ESI-QTOF
SMILES: COC1=CC=C(C=C1)C1CC(=O)C2=C(O)C=C(O)C=C2O1
INCHIKEY: HMUJXQRRKBLVOO-UHFFFAOYNA-N
Ontology: 4'-O-methylated flavonoids
COLLISIONENERGY: 30
FORMULA: C16H14O5
RETENTIONTIME: 7.453033
IONMODE: Negative
Comment: registered in RIKEN PlaSMA
Num Peaks: 94
63.02309	60
65.00305	31
80.0259	78
81.02759	7
83.01226	114
94.00372	6
95.01337	17
96.01899	5
106.04017	6
107.01279	258
108.01989	851
108.53114	7
108.99155	8
109.02224	54
109.03233	7
110.0227	8
110.02897	7
119.04797	14
119.05215	7
120.02043	28
122.00046	23
123.00965	24
124.01674	15
130.04306	9
132.01906	11
132.05585	35
133.06427	11
136.01547	1000
136.96501	8
137.0184	106
138.02295	6
142.03703	8
143.04536	8
145.02931	26
146.03658	10
147.04568	6
147.078	8
151.00215	250
152.00449	14
155.05009	7
156.05727	40
157.05737	18
158.0358	38
159.04402	107
160.04997	71
161.05635	11
164.00998	639
165.01511	59
167.0432	9
167.05251	7
169.06657	9
170.0735	7
171.0489	5
174.06735	6
175.07614	66
176.07326	8
176.07936	25
177.01648	20
178.02319	5
181.07452	8
182.06892	8
182.43399	5
183.04454	60
184.05313	25
185.01784	16
186.03174	110
187.03812	77
188.05368	5
197.05637	15
197.07074	7
198.06313	26
198.07401	18
199.03848	45
199.0685	11
200.04469	114
201.05354	54
202.05672	15
202.0708	8
215.06943	61
217.07938	8
217.09703	10
225.05708	25
226.05321	8
227.03175	72
227.05237	6
228.03743	65
229.04492	6
241.05229	10
243.06593	77
244.06981	25
269.04703	38
270.04874	12
285.06769	27
285.08151	5

NAME: Cyanidin-3-O-glucoside
PRECURSORMZ: 447.09273641576
PRECURSORTYPE: [M-2H]-
INSTRUMENTTYPE: LC-ESI-QTOF
SMILES: OCC1OC(OC2=C([O+]=C3C=C(O)C=C(O)C3=C2)C2=CC(O)=C(O)C=C2)C(O)C(O)C1O
INCHIKEY: RKWHWFONKJEUEF-UHFFFAOYNA-O
Ontology: Anthocyanidin-3-O-glycosides
COLLISIONENERGY: 50
FORMULA: C21H21O11
RETENTIONTIME: 2.925433
IONMODE: Negative
Comment: registered in RIKEN PlaSMA
Num Peaks: 27
105.03252	161
120.0228	88
132.01613	137
146.99858	137
147.00377	351
155.0481	107
159.0472	93
170.0287	112
171.0372	107
174.01651	117
175.03236	122
182.03049	132
183.03461	302
183.04398	249
184.04861	102
184.05611	93
188.03932	88
195.04176	307
195.05054	117
199.03397	341
211.03339	395
213.02316	112
227.03488	1000
255.02541	141
255.03781	224
256.02975	312
257.03995	234

NAME: Cyanidin-3-O-rutinoside
PRECURSORMZ: 593.15064521576
PRECURSORTYPE: [M-2H]-
INSTRUMENTTYPE: LC-ESI-QTOF
SMILES: CC1OC(OCC2OC(OC3=C([O+]=C4C=C(O)C=C(O)C4=C3)C3=CC(O)=C(O)C=C3)C(O)C(O)C2O)C(O)C(O)C1O
INCHIKEY: USNPULRDBDVJAO-UHFFFAOYNA-O
Ontology: Anthocyanidin-3-O-glycosides
COLLISIONENERGY: 50
FORMULA: C27H31O15
RETENTIONTIME: 2.942033
IONMODE: Negative
Comment: registered in RIKEN PlaSMA
Num Peaks: 76
108.02339	83
109.02413	132
121.0309	50
125.01814	59
125.02489	48
146.03264	72
147.00433	116
147.015	110
148.01894	182
149.02199	42
149.02951	77
159.04205	66
160.02034	86
163.00543	70
167.05318	48
171.03928	182
171.04631	66
173.02246	61
175.03796	48
176.00813	70
177.01534	83
177.02257	39
182.03366	57
183.04059	53
184.05197	164
186.02982	64
187.03802	92
188.04752	94
189.05663	44
195.03635	42
196.04375	66
198.03123	66
199.04129	184
200.04781	121
201.01437	53
201.0558	39
210.02869	44
211.03267	114
211.04135	182
212.03563	140
212.04636	184
213.04941	44
214.02338	105
216.03638	70
217.04446	53
223.03624	42
225.05354	88
227.03038	274
228.03427	138
229.04977	46
239.03522	279
240.02882	55
240.04161	197
240.0495	86
241.03851	90
242.01233	55
242.95525	39
243.03732	48
255.02895	1000
256.03043	228
256.05353	39
256.06335	44
257.04077	414
267.02185	39
270.04279	46
283.01306	123
283.02591	202
283.03839	118
284.03183	537
285.01956	50
285.03522	219
285.04562	75
286.03677	107
338.93817	53
561.48273	83
564.72552	46

NAME: Procyanidin B2
PRECURSORMZ: 577.13514984783
PRECURSORTYPE: [M-H]-
INSTRUMENTTYPE: LC-ESI-QTOF
SMILES: OC1CC2=C(OC1C1=CC(O)=C(O)C=C1)C(C1C(O)C(OC3=CC(O)=CC(O)=C13)C1=CC(O)=C(O)C=C1)=C(O)C=C2O
INCHIKEY: XFZJEEAOWLFHDH-UHFFFAOYNA-N
Ontology: Biflavonoids and polyflavonoids
COLLISIONENERGY: 50
FORMULA: C30H26O12
RETENTIONTIME: 3.225917
IONMODE: Negative
Comment: registered in RIKEN PlaSMA
Num Peaks: 32
106.03721	102
109.02702	59
109.03653	102
121.03101	74
125.02244	1000
126.03339	77
133.02789	68
137.02409	102
148.05385	87
151.03433	65
160.06035	62
161.02319	121
161.05103	71
162.99571	62
163.0383	93
164.00912	74
165.01532	102
174.02969	65
175.03345	53
175.0407	96
177.02185	62
204.04309	65
222.08765	74
226.08678	84
228.04282	77
231.03349	68
245.04729	65
255.01598	71
255.0365	93
256.03149	87
268.0314	62
271.05948	65

NAME: Sinapoyl aldehyde
PRECURSORMZ: 207.06628244783
PRECURSORTYPE: [M-H]-
INSTRUMENTTYPE: LC-ESI-QTOF
SMILES: COC1=CC(C=CC=O)=CC(OC)=C1O
INCHIKEY: CDICDSOGTRCHMG-UHFFFAOYSA-N
Ontology: Methoxyphenols
COLLISIONENERGY: 50
FORMULA: C11H12O4
RETENTIONTIME: 4.721467
IONMODE: Negative
Comment: registered in RIKEN PlaSMA
Num Peaks: 1
149.0152	1000

NAME: Formononetin-7-O-glucoside
PRECURSORMZ: 429.11910584783
PRECURSORTYPE: [M-H]-
INSTRUMENTTYPE: LC-ESI-QTOF
SMILES: COC1=CC=C(C=C1)C1=COC2=C(C=CC(OC3OC(CO)C(O)C(O)C3O)=C2)C1=O
INCHIKEY: MGJLSBDCWOSMHL-UHFFFAOYNA-N
Ontology: Isoflavonoid O-glycosides
COLLISIONENERGY: 50
FORMULA: C22H22O9
RETENTIONTIME: 5.030167
IONMODE: Negative
Comment: registered in RIKEN PlaSMA
Num Peaks: 12
132.02126	201
132.02695	93
136.01222	93
167.04419	93
195.04202	211
208.04938	247
223.0334	139
224.03621	103
224.04773	93
251.02531	139
252.04121	1000
253.05043	103

NAME: Formononetin-7-O-glucoside
PRECURSORMZ: 475.12458515183
PRECURSORTYPE: [M+FA-H]-
INSTRUMENTTYPE: LC-ESI-QTOF
SMILES: COC1=CC=C(C=C1)C1=COC2=C(C=CC(OC3OC(CO)C(O)C(O)C3O)=C2)C1=O
INCHIKEY: MGJLSBDCWOSMHL-UHFFFAOYNA-N
Ontology: Isoflavonoid O-glycosides
COLLISIONENERGY: 50
FORMULA: C22H22O9
RETENTIONTIME: 5.030167
IONMODE: Negative
Comment: registered in RIKEN PlaSMA
Num Peaks: 33
97.95639	9
104.02664	27
132.02164	81
133.02295	6
135.007	53
135.01189	20
137.46313	6
180.05969	11
183.31377	7
195.04398	50
195.1965	7
197.06102	6
207.04703	6
208.052	84
209.04987	7
223.0378	215
224.04498	97
224.06476	6
225.05099	21
226.0562	6
236.04732	6
237.56325	8
250.97244	6
251.03645	236
251.05887	23
252.04108	1000
252.77002	6
253.0045	10
253.04439	240
254.04764	42
266.24707	6
267.06042	50
268.06955	22

NAME: isosakuranetin
PRECURSORMZ: 285.07684714783
PRECURSORTYPE: [M-H]-
INSTRUMENTTYPE: LC-ESI-QTOF
SMILES: COC1=CC=C(C=C1)C1CC(=O)C2=C(O)C=C(O)C=C2O1
INCHIKEY: HMUJXQRRKBLVOO-UHFFFAOYNA-N
Ontology: 4'-O-methylated flavonoids
COLLISIONENERGY: 50
FORMULA: C16H14O5
RETENTIONTIME: 7.453033
IONMODE: Negative
Comment: registered in RIKEN PlaSMA
Num Peaks: 51
63.02365	47
63.0276	79
65.00094	79
65.00614	153
80.02375	493
80.02933	235
83.01236	178
94.00096	92
95.01048	72
108.01901	1000
115.05099	69
116.02567	62
117.03371	562
118.03472	52
119.04405	205
119.0519	416
120.05252	64
121.03494	52
125.0203	97
126.02094	54
127.05536	74
129.03572	62
130.03745	94
131.04309	67
132.05847	62
132.06628	45
136.01877	59
141.03728	183
143.03487	67
143.04645	74
143.05692	54
145.02792	67
154.04549	45
155.04436	156
155.61401	45
157.06042	74
158.03317	186
159.0448	557
163.00456	131
167.83205	59
169.03117	50
173.06212	57
179.04768	57
182.03722	119
183.04544	262
185.02538	89
186.02466	82
187.03607	54
196.04445	84
199.03317	69
199.0446	146

NAME: Procyanidin B1
PRECURSORMZ: 577.13514984783
PRECURSORTYPE: [M-H]-
INSTRUMENTTYPE: LC-ESI-QTOF
SMILES: OC1CC2=C(OC1C1=CC(O)=C(O)C=C1)C(C1C(O)C(OC3=CC(O)=CC(O)=C13)C1=CC(O)=C(O)C=C1)=C(O)C=C2O
INCHIKEY: XFZJEEAOWLFHDH-UHFFFAOYNA-N
Ontology: Biflavonoids and polyflavonoids
COLLISIONENERGY: 10
FORMULA: C30H26O12
RETENTIONTIME: 2.8429
IONMODE: Negative
Comment: registered in RIKEN PlaSMA
Num Peaks: 132
53.51035	23
57.0327	59
109.02698	14
125.02386	473
125.03103	94
126.02048	17
126.02857	37
127.02892	14
137.02219	102
138.02168	20
138.03128	27
145.03032	18
145.05496	14
149.01408	21
151.03633	35
151.04355	23
155.10585	18
160.05022	27
161.02538	239
162.02676	90
162.06081	23
163.03535	62
163.04182	21
167.02826	17
167.036	27
175.03441	16
175.04117	35
175.06956	16
177.01027	19
177.02098	16
177.05125	21
177.07091	14
179.03108	67
179.04088	20
184.35146	19
188.04793	63
200.05151	17
202.03236	20
203.06212	37
203.07114	63
204.07654	16
205.00839	34
205.05106	20
208.03755	16
213.05452	19
215.04454	18
221.08475	15
227.02931	18
229.05052	36
231.02478	34
231.03651	19
231.07114	34
237.05759	16
238.0733	16
243.02994	20
243.06821	28
245.03432	25
245.04858	57
245.06761	51
245.0843	15
245.09334	18
247.05103	17
247.07632	19
251.10545	14
253.04701	28
255.02415	20
255.03432	19
256.0383	20
257.02692	19
257.04663	16
269.04868	18
271.0578	16
273.03339	23
274.0524	20
280.31592	23
281.04456	16
283.02258	16
283.04318	16
283.06738	16
284.02805	16
285.0332	16
285.05444	16
287.05667	168
288.05762	61
289.06976	1000
290.06137	26
290.0813	40
291.08127	14
293.03531	16
297.03372	36
297.07419	16
299.05298	110
300.0585	22
311.04633	20
327.04788	27
327.07022	17
328.06665	16
331.06079	15
339.08536	67
340.08105	26
369.10297	17
379.10492	27
381.10345	26
394.09372	23
407.07684	714
408.0798	183
408.09412	53
409.0777	84
411.97992	16
412.10239	14
425.08459	453
425.10934	35
426.08606	77
426.11176	16
432.08026	19
437.07822	15
447.06989	16
449.08975	16
451.09705	171
452.11856	20
453.11475	18
468.09637	18
489.15891	27
508.77435	14
513.11688	14
533.18097	14
559.11987	20
559.13965	16
575.11816	31
576.1311	31
577.13147	594
577.20007	23

NAME: isookanin-7-O-glucoside
PRECURSORMZ: 449.10893504783
PRECURSORTYPE: [M-H]-
INSTRUMENTTYPE: LC-ESI-QTOF
SMILES: OCC1OC(OC2=C(O)C3=C(C=C2)C(=O)CC(O3)C2=CC(O)=C(O)C=C2)C(O)C(O)C1O
INCHIKEY: DGGOLFCPSUVVHX-UHFFFAOYNA-N
Ontology: Flavonoid-7-O-glycosides
COLLISIONENERGY: 10
FORMULA: C21H22O11
RETENTIONTIME: 3.482733
IONMODE: Negative
Comment: registered in RIKEN PlaSMA
Num Peaks: 46
79.05143	6
107.01153	19
109.02833	7
123.01029	44
135.04378	744
136.04706	89
136.0556	14
137.05084	7
138.70895	6
150.00175	13
151.00252	598
152.008	42
166.99472	9
169.00694	26
169.01642	25
177.01988	7
193.01259	7
213.04283	10
225.04826	8
242.04608	5
243.06375	6
244.06728	5
254.05992	5
268.03387	23
269.04349	123
269.18497	6
270.04578	16
270.0546	23
271.00726	5
276.29678	5
285.04239	16
286.03323	9
286.04837	12
287.0545	1000
288.05646	186
289.05518	18
289.07123	5
295.59924	5
306.24768	7
313.05331	53
431.09576	90
432.10007	10
448.09787	15
449.10815	836
449.14929	8
449.16925	10

NAME: Quercetin-3-O-vicianoside
PRECURSORMZ: 595.13045834783
PRECURSORTYPE: [M-H]-
INSTRUMENTTYPE: LC-ESI-QTOF
SMILES: OC1COC(OCC2OC(OC3=C(OC4=CC(O)=CC(O)=C4C3=O)C3=CC(O)=C(O)C=C3)C(O)C(O)C2O)C(O)C1O
INCHIKEY: YNMFDPCLPIMRFD-UHFFFAOYNA-N
Ontology: Flavonoid-3-O-glycosides
COLLISIONENERGY: 10
FORMULA: C26H28O16
RETENTIONTIME: 3.695633
IONMODE: Negative
Comment: registered in RIKEN PlaSMA
Num Peaks: 21
150.99986	20
178.99449	15
179.00195	12
217.01357	8
227.03403	9
229.05232	6
243.01923	7
255.0209	16
255.0278	26
271.0213	95
272.02783	17
299.0094	19
299.02951	6
300.02457	508
301.03201	344
302.03592	67
303.03952	8
412.58084	5
593.10077	19
594.11676	9
595.12854	1000

NAME: Apigenin-7-O-glucoside
PRECURSORMZ: 431.09837034783
PRECURSORTYPE: [M-H]-
INSTRUMENTTYPE: LC-ESI-QTOF
SMILES: OCC1OC(OC2=CC(O)=C3C(=O)C=C(OC3=C2)C2=CC=C(O)C=C2)C(O)C(O)C1O
INCHIKEY: KMOUJOKENFFTPU-UHFFFAOYNA-N
Ontology: Flavonoid-7-O-glycosides
COLLISIONENERGY: 10
FORMULA: C21H20O10
RETENTIONTIME: 4.446617
IONMODE: Negative
Comment: registered in RIKEN PlaSMA
Num Peaks: 13
151.00644	10
211.03638	7
239.01505	6
239.02727	8
240.03775	34
267.02658	13
268.03641	731
269.0423	405
270.03662	14
270.04773	33
311.05392	10
431.09644	1000
431.14108	6

NAME: 3,4-Dimethoxycinnamic acid
PRECURSORMZ: 207.06628244783
PRECURSORTYPE: [M-H]-
INSTRUMENTTYPE: LC-ESI-QTOF
SMILES: COC1=C(OC)C=C(C=CC(O)=O)C=C1
INCHIKEY: HJBWJAPEBGSQPR-UHFFFAOYSA-N
Ontology: Coumaric acids and derivatives
COLLISIONENERGY: 10
FORMULA: C11H12O4
RETENTIONTIME: 5.186817
IONMODE: Negative
Comment: registered in RIKEN PlaSMA
Num Peaks: 12
103.05264	1000
103.06194	43
104.05343	90
118.04472	54
131.05251	50
133.05609	32
133.06738	97
163.0706	49
163.07968	43
192.03197	49
207.05521	79
207.06705	308

NAME: Sakuranetin
PRECURSORMZ: 285.07684714783
PRECURSORTYPE: [M-H]-
INSTRUMENTTYPE: LC-ESI-QTOF
SMILES: COC1=CC(O)=C2C(=O)CC(OC2=C1)C1=CC=C(O)C=C1
INCHIKEY: DJOJDHGQRNZXQQ-UHFFFAOYNA-N
Ontology: 7-O-methylated flavonoids
COLLISIONENERGY: 10
FORMULA: C16H14O5
RETENTIONTIME: 7.422333
IONMODE: Negative
Comment: registered in RIKEN PlaSMA
Num Peaks: 38
64.99902	6
65.00199	11
89.00055	20
89.00754	5
91.05358	6
93.03363	86
94.00443	16
97.02832	54
98.02868	6
101.03317	6
119.04796	836
119.07973	5
120.053	97
121.02557	61
121.99457	7
122.00107	20
136.01772	8
145.02089	12
145.0276	14
149.9942	66
151.03343	7
164.01126	11
165.01692	1000
166.01802	75
166.02608	23
167.02283	13
177.01257	6
179.03241	12
179.04111	14
180.03128	6
191.03381	24
192.03204	6
202.98909	5
242.04796	5
269.04111	14
270.04553	15
283.20688	6
285.07446	726

NAME: Procyanidin B1
PRECURSORMZ: 577.13514984783
PRECURSORTYPE: [M-H]-
INSTRUMENTTYPE: LC-ESI-QTOF
SMILES: OC1CC2=C(OC1C1=CC(O)=C(O)C=C1)C(C1C(O)C(OC3=CC(O)=CC(O)=C13)C1=CC(O)=C(O)C=C1)=C(O)C=C2O
INCHIKEY: XFZJEEAOWLFHDH-UHFFFAOYNA-N
Ontology: Biflavonoids and polyflavonoids
COLLISIONENERGY: 10
FORMULA: C30H26O12
RETENTIONTIME: 2.8429
IONMODE: Negative
Comment: registered in RIKEN PlaSMA
Num Peaks: 49
82.33514	6
125.02406	41
143.11382	6
161.0166	13
179.0289	10
201.05956	8
245.03983	32
287.05066	76
287.06238	68
288.58078	6
289.07111	278
290.07285	8
290.08298	8
299.05603	45
307.22601	7
374.06595	7
381.10336	6
407.05801	34
407.07578	166
408.07907	31
409.07739	6
409.09085	9
416.19943	6
423.06375	7
425.08456	518
426.09036	139
426.86679	8
427.09885	15
449.0939	10
450.10056	7
451.09616	78
451.11267	19
451.13898	14
451.45526	7
452.09613	7
454.10013	6
455.09406	7
480.39017	10
534.16681	6
559.14117	8
559.15735	6
560.11548	8
560.13135	20
561.11517	8
575.12671	7
576.11627	13
576.14008	7
576.92053	6
577.13391	1000

NAME: isookanin-7-O-glucoside
PRECURSORMZ: 449.10893504783
PRECURSORTYPE: [M-H]-
INSTRUMENTTYPE: LC-ESI-QTOF
SMILES: OCC1OC(OC2=C(O)C3=C(C=C2)C(=O)CC(O3)C2=CC(O)=C(O)C=C2)C(O)C(O)C1O
INCHIKEY: DGGOLFCPSUVVHX-UHFFFAOYNA-N
Ontology: Flavonoid-7-O-glycosides
COLLISIONENERGY: 10
FORMULA: C21H22O11
RETENTIONTIME: 3.482733
IONMODE: Negative
Comment: registered in RIKEN PlaSMA
Num Peaks: 12
151.00079	16
169.01495	6
269.0459	14
285.04135	15
287.05447	421
288.05856	90
289.06155	11
313.04565	7
313.0596	25
431.09747	28
448.09738	6
449.10748	1000

NAME: Quercetin-3-O-vicianoside
PRECURSORMZ: 595.13045834783
PRECURSORTYPE: [M-H]-
INSTRUMENTTYPE: LC-ESI-QTOF
SMILES: OC1COC(OCC2OC(OC3=C(OC4=CC(O)=CC(O)=C4C3=O)C3=CC(O)=C(O)C=C3)C(O)C(O)C2O)C(O)C1O
INCHIKEY: YNMFDPCLPIMRFD-UHFFFAOYNA-N
Ontology: Flavonoid-3-O-glycosides
COLLISIONENERGY: 10
FORMULA: C26H28O16
RETENTIONTIME: 3.695633
IONMODE: Negative
Comment: registered in RIKEN PlaSMA
Num Peaks: 6
300.0148	8
301.03491	28
593.12	11
594.11517	20
595.13049	1000
595.17102	7

NAME: Apigenin-7-O-glucoside
PRECURSORMZ: 431.09837034783
PRECURSORTYPE: [M-H]-
INSTRUMENTTYPE: LC-ESI-QTOF
SMILES: OCC1OC(OC2=CC(O)=C3C(=O)C=C(OC3=C2)C2=CC=C(O)C=C2)C(O)C(O)C1O
INCHIKEY: KMOUJOKENFFTPU-UHFFFAOYNA-N
Ontology: Flavonoid-7-O-glycosides
COLLISIONENERGY: 10
FORMULA: C21H20O10
RETENTIONTIME: 4.446617
IONMODE: Negative
Comment: registered in RIKEN PlaSMA
Num Peaks: 4
268.03952	8
269.04379	39
270.04919	6
431.09677	1000

NAME: 3,4-Dimethoxycinnamic acid
PRECURSORMZ: 207.06628244783
PRECURSORTYPE: [M-H]-
INSTRUMENTTYPE: LC-ESI-QTOF
SMILES: COC1=C(OC)C=C(C=CC(O)=O)C=C1
INCHIKEY: HJBWJAPEBGSQPR-UHFFFAOYSA-N
Ontology: Coumaric acids and derivatives
COLLISIONENERGY: 10
FORMULA: C11H12O4
RETENTIONTIME: 5.186817
IONMODE: Negative
Comment: registered in RIKEN PlaSMA
Num Peaks: 23
103.05405	497
104.05865	54
105.06651	9
115.05042	8
118.0392	21
131.04854	34
131.05521	18
132.05597	18
133.06201	53
133.07004	22
134.40883	11
148.05368	8
163.05788	8
163.06535	30
163.07547	121
164.07558	11
164.09625	7
192.03812	28
192.04892	11
193.04431	16
195.62854	14
207.01747	12
207.06578	1000

NAME: Sakuranetin
PRECURSORMZ: 285.07684714783
PRECURSORTYPE: [M-H]-
INSTRUMENTTYPE: LC-ESI-QTOF
SMILES: COC1=CC(O)=C2C(=O)CC(OC2=C1)C1=CC=C(O)C=C1
INCHIKEY: DJOJDHGQRNZXQQ-UHFFFAOYNA-N
Ontology: 7-O-methylated flavonoids
COLLISIONENERGY: 10
FORMULA: C16H14O5
RETENTIONTIME: 7.422333
IONMODE: Negative
Comment: registered in RIKEN PlaSMA
Num Peaks: 9
93.03311	46
119.04793	109
120.05328	21
165.01796	505
166.01953	18
166.02493	29
167.02687	5
191.03308	11
285.07559	1000

NAME: Procyanidin B1
PRECURSORMZ: 577.13514984783
PRECURSORTYPE: [M-H]-
INSTRUMENTTYPE: LC-ESI-QTOF
SMILES: OC1CC2=C(OC1C1=CC(O)=C(O)C=C1)C(C1C(O)C(OC3=CC(O)=CC(O)=C13)C1=CC(O)=C(O)C=C1)=C(O)C=C2O
INCHIKEY: XFZJEEAOWLFHDH-UHFFFAOYNA-N
Ontology: Biflavonoids and polyflavonoids
COLLISIONENERGY: 30
FORMULA: C30H26O12
RETENTIONTIME: 2.8429
IONMODE: Negative
Comment: registered in RIKEN PlaSMA
Num Peaks: 141
75.95211	19
109.02543	68
109.03218	56
110.03278	25
121.02158	23
121.02882	52
122.03607	18
122.04243	30
123.04289	50
125.02293	1000
126.02223	40
126.0282	43
133.02544	22
137.02008	174
137.02713	125
138.02347	33
147.10019	33
151.03519	52
151.04309	45
161.02135	441
161.05522	25
162.02544	18
162.03545	49
163.00287	21
163.03723	53
163.04681	31
164.00362	57
164.01178	43
165.02399	36
175.03841	93
176.04703	27
177.0098	21
177.01923	113
178.02042	20
179.04158	41
180.04297	19
187.03549	23
188.04126	60
189.04688	21
191.02968	18
199.04115	23
203.04604	22
203.06929	46
204.06863	19
204.07903	61
205.01292	18
205.04587	246
205.0589	33
206.04282	29
206.05171	22
207.02872	20
210.06392	21
211.03874	21
211.8183	18
212.09998	29
219.02104	25
220.07545	25
221.07463	20
221.09056	21
225.41501	18
226.02386	36
227.07338	23
229.0455	30
230.02704	23
231.02817	18
239.06767	22
241.05479	19
243.02594	65
243.06483	55
245.04359	69
245.0804	433
245.09915	42
246.05574	24
246.06789	18
246.08714	51
247.06221	46
247.09019	20
248.02443	21
255.01912	29
255.03107	119
255.05788	44
256.02188	28
256.03296	42
257.03641	37
257.0791	39
258.05206	27
261.04568	25
262.04297	21
273.04831	26
273.0871	22
274.03113	20
275.06253	35
280.0741	20
281.04175	136
282.04062	63
282.05121	21
283.02524	71
283.03842	19
284.03091	29
284.04562	24
284.0726	80
285.02713	21
285.04669	18
286.05038	18
289.06204	240
289.0723	540
290.06879	61
290.08087	26
291.07193	42
293.07278	20
297.03683	22
297.078	43
298.04593	23
298.06244	25
299.04413	23
299.05396	26
300.05676	26
313.10947	19
315.08508	18
320.00784	32
321.08139	18
321.12479	20
323.05646	19
328.09995	25
339.08655	133
339.09845	36
341.07065	35
342.09415	22
346.26065	20
363.10382	21
364.11017	30
381.08261	18
393.09552	27
407.07709	660
407.11459	49
408.0784	263
409.07404	19
410.08548	22
431.13205	24
449.09543	27
458.75278	24

NAME: isookanin-7-O-glucoside
PRECURSORMZ: 449.10893504783
PRECURSORTYPE: [M-H]-
INSTRUMENTTYPE: LC-ESI-QTOF
SMILES: OCC1OC(OC2=C(O)C3=C(C=C2)C(=O)CC(O3)C2=CC(O)=C(O)C=C2)C(O)C(O)C1O
INCHIKEY: DGGOLFCPSUVVHX-UHFFFAOYNA-N
Ontology: Flavonoid-7-O-glycosides
COLLISIONENERGY: 30
FORMULA: C21H22O11
RETENTIONTIME: 3.482733
IONMODE: Negative
Comment: registered in RIKEN PlaSMA
Num Peaks: 25
107.01146	35
107.01652	22
123.00163	11
123.0065	33
133.02451	5
135.04379	1000
136.04619	98
137.05032	7
149.99371	17
151.00215	722
152.00586	60
153.00899	16
161.02618	9
164.00972	6
169.01224	9
177.01634	11
241.04755	7
258.04666	5
268.04071	26
269.04654	93
270.04428	16
285.04694	6
286.05267	8
287.0528	56
288.06244	6

NAME: Quercetin-3-O-vicianoside
PRECURSORMZ: 595.13045834783
PRECURSORTYPE: [M-H]-
INSTRUMENTTYPE: LC-ESI-QTOF
SMILES: OC1COC(OCC2OC(OC3=C(OC4=CC(O)=CC(O)=C4C3=O)C3=CC(O)=C(O)C=C3)C(O)C(O)C2O)C(O)C1O
INCHIKEY: YNMFDPCLPIMRFD-UHFFFAOYNA-N
Ontology: Flavonoid-3-O-glycosides
COLLISIONENERGY: 30
FORMULA: C26H28O16
RETENTIONTIME: 3.695633
IONMODE: Negative
Comment: registered in RIKEN PlaSMA
Num Peaks: 19
150.99934	31
178.99841	39
243.02783	7
255.01936	15
255.03246	54
271.02454	111
272.02747	16
273.03986	12
299.00876	16
299.01978	11
299.27927	5
300.02621	1000
301.03253	522
302.03381	100
303.04224	6
343.04449	17
464.11432	5
595.12134	47
595.15204	17

NAME: Apigenin-7-O-glucoside
PRECURSORMZ: 431.09837034783
PRECURSORTYPE: [M-H]-
INSTRUMENTTYPE: LC-ESI-QTOF
SMILES: OCC1OC(OC2=CC(O)=C3C(=O)C=C(OC3=C2)C2=CC=C(O)C=C2)C(O)C(O)C1O
INCHIKEY: KMOUJOKENFFTPU-UHFFFAOYNA-N
Ontology: Flavonoid-7-O-glycosides
COLLISIONENERGY: 30
FORMULA: C21H20O10
RETENTIONTIME: 4.446617
IONMODE: Negative
Comment: registered in RIKEN PlaSMA
Num Peaks: 9
150.99797	6
151.00508	7
240.0383	8
268.03604	1000
269.04245	375
270.03979	32
270.05072	31
270.05911	13
431.09741	36

NAME: 3,4-Dimethoxycinnamic acid
PRECURSORMZ: 207.06628244783
PRECURSORTYPE: [M-H]-
INSTRUMENTTYPE: LC-ESI-QTOF
SMILES: COC1=C(OC)C=C(C=CC(O)=O)C=C1
INCHIKEY: HJBWJAPEBGSQPR-UHFFFAOYSA-N
Ontology: Coumaric acids and derivatives
COLLISIONENERGY: 30
FORMULA: C11H12O4
RETENTIONTIME: 5.186817
IONMODE: Negative
Comment: registered in RIKEN PlaSMA
Num Peaks: 4
51.02156	255
129.03824	351
131.0526	1000
132.0192	319

NAME: Sakuranetin
PRECURSORMZ: 285.07684714783
PRECURSORTYPE: [M-H]-
INSTRUMENTTYPE: LC-ESI-QTOF
SMILES: COC1=CC(O)=C2C(=O)CC(OC2=C1)C1=CC=C(O)C=C1
INCHIKEY: DJOJDHGQRNZXQQ-UHFFFAOYNA-N
Ontology: 7-O-methylated flavonoids
COLLISIONENERGY: 30
FORMULA: C16H14O5
RETENTIONTIME: 7.422333
IONMODE: Negative
Comment: registered in RIKEN PlaSMA
Num Peaks: 31
65.00145	28
78.01046	12
89.00309	42
89.00791	14
91.02144	9
93.03294	21
94.00334	15
97.02847	102
98.03367	9
106.00839	6
107.01345	5
108.01915	21
117.03222	12
119.04909	1000
120.05109	75
121.03012	67
121.05227	10
121.99808	23
123.00526	6
136.01625	23
142.03761	5
143.05196	10
145.03189	7
149.99321	63
151.0013	16
164.00964	9
165.01904	81
166.01651	5
166.02615	7
242.05321	6
269.04147	10

NAME: Procyanidin B1
PRECURSORMZ: 577.13514984783
PRECURSORTYPE: [M-H]-
INSTRUMENTTYPE: LC-ESI-QTOF
SMILES: OC1CC2=C(OC1C1=CC(O)=C(O)C=C1)C(C1C(O)C(OC3=CC(O)=CC(O)=C13)C1=CC(O)=C(O)C=C1)=C(O)C=C2O
INCHIKEY: XFZJEEAOWLFHDH-UHFFFAOYNA-N
Ontology: Biflavonoids and polyflavonoids
COLLISIONENERGY: 50
FORMULA: C30H26O12
RETENTIONTIME: 2.8429
IONMODE: Negative
Comment: registered in RIKEN PlaSMA
Num Peaks: 101
71.0509	41
81.02955	44
83.0105	35
93.03585	48
97.02739	32
105.03706	44
107.05224	40
109.02576	170
110.02834	51
110.03451	33
117.03118	38
121.02881	111
121.06835	38
122.03123	37
122.03809	49
123.03767	43
123.04697	233
125.02401	1000
126.02155	65
126.02843	63
127.02361	33
131.04636	30
133.02803	44
135.03723	33
136.98824	32
137.02135	76
137.02911	46
138.02113	37
138.0349	29
139.03284	56
139.04398	29
141.90742	29
143.0515	117
145.02518	51
146.04694	35
149.02702	87
150.03575	32
151.04031	238
159.04088	40
161.02345	310
161.05873	65
162.02931	130
162.99597	32
163.03226	30
164.01006	200
165.01372	29
165.02428	29
165.05515	105
172.04105	49
174.06972	49
175.04033	105
176.01003	33
176.05353	46
177.01648	151
177.04971	38
178.02115	35
184.05101	32
184.05646	52
185.05568	38
185.48213	30
187.03847	106
187.04662	40
188.04082	95
189.0602	59
192.69876	62
203.0013	29
203.02977	35
203.07037	287
205.04337	52
213.05031	33
213.05879	63
214.05963	70
217.05281	32
226.02972	43
227.02855	29
229.05585	63
231.01483	29
233.03955	40
238.05084	48
238.33186	33
239.02831	43
243.02165	68
243.03426	113
251.91106	29
252.50581	46
253.83716	38
255.03136	167
255.06253	32
256.02982	32
256.04355	103
257.03986	100
262.06616	52
263.92508	32
267.10056	41
269.03714	41
281.04529	76
294.02145	40
303.06525	29
343.06247	40
349.06561	40
455.09073	38

NAME: isookanin-7-O-glucoside
PRECURSORMZ: 449.10893504783
PRECURSORTYPE: [M-H]-
INSTRUMENTTYPE: LC-ESI-QTOF
SMILES: OCC1OC(OC2=C(O)C3=C(C=C2)C(=O)CC(O3)C2=CC(O)=C(O)C=C2)C(O)C(O)C1O
INCHIKEY: DGGOLFCPSUVVHX-UHFFFAOYNA-N
Ontology: Flavonoid-7-O-glycosides
COLLISIONENERGY: 50
FORMULA: C21H22O11
RETENTIONTIME: 3.482733
IONMODE: Negative
Comment: registered in RIKEN PlaSMA
Num Peaks: 21
79.01422	11
94.00652	7
95.01377	61
107.01316	89
107.0466	10
108.01881	15
117.03556	10
123.00699	149
124.01305	9
124.01939	7
125.02702	6
134.03677	75
135.04326	1000
136.04738	79
149.98923	8
151.00221	103
152.00221	8
169.01434	5
170.03873	8
211.03375	13
213.05656	13

NAME: Quercetin-3-O-vicianoside
PRECURSORMZ: 595.13045834783
PRECURSORTYPE: [M-H]-
INSTRUMENTTYPE: LC-ESI-QTOF
SMILES: OC1COC(OCC2OC(OC3=C(OC4=CC(O)=CC(O)=C4C3=O)C3=CC(O)=C(O)C=C3)C(O)C(O)C2O)C(O)C1O
INCHIKEY: YNMFDPCLPIMRFD-UHFFFAOYNA-N
Ontology: Flavonoid-3-O-glycosides
COLLISIONENERGY: 50
FORMULA: C26H28O16
RETENTIONTIME: 3.695633
IONMODE: Negative
Comment: registered in RIKEN PlaSMA
Num Peaks: 82
83.01339	6
107.01083	18
108.0164	16
108.02355	5
109.02953	9
119.01377	8
121.02403	11
121.03158	13
124.01134	8
127.05554	5
133.02997	6
135.00427	22
136.00578	6
136.0105	13
137.02179	9
148.01146	10
149.02156	15
151.00174	118
152.005	27
152.01448	14
153.01724	7
158.02968	6
161.48778	6
163.00264	36
164.00473	12
164.01237	5
171.04362	6
173.06575	9
178.99371	9
179.00087	9
179.99388	6
183.04385	13
185.0213	14
190.9817	6
191.00137	7
192.00189	10
192.01334	5
200.04765	14
202.03392	12
203.37411	8
211.03616	19
211.04706	13
212.04416	13
215.02434	6
215.04517	5
226.02916	20
227.0311	64
227.04758	11
228.0477	7
229.04723	10
230.01323	5
235.87239	7
239.03421	14
240.03813	8
242.02135	19
243.02821	124
244.02812	16
244.04225	15
245.04005	20
246.0424	9
251.19141	5
253.02135	9
254.01598	52
255.02765	462
256.03152	106
256.04919	8
256.92599	5
257.03003	6
257.04141	5
271.02371	1000
271.14502	5
272.02646	168
273.01608	7
273.03442	11
273.04379	8
274.04248	7
283.0239	9
284.02505	11
300.02509	258
301.0307	85
301.04398	20
302.02975	9

NAME: Apigenin-7-O-glucoside
PRECURSORMZ: 431.09837034783
PRECURSORTYPE: [M-H]-
INSTRUMENTTYPE: LC-ESI-QTOF
SMILES: OCC1OC(OC2=CC(O)=C3C(=O)C=C(OC3=C2)C2=CC=C(O)C=C2)C(O)C(O)C1O
INCHIKEY: KMOUJOKENFFTPU-UHFFFAOYNA-N
Ontology: Flavonoid-7-O-glycosides
COLLISIONENERGY: 50
FORMULA: C21H20O10
RETENTIONTIME: 4.446617
IONMODE: Negative
Comment: registered in RIKEN PlaSMA
Num Peaks: 110
63.02317	24
65.00173	9
77.04206	8
83.0134	128
89.00024	9
92.02141	6
92.03119	17
93.03501	9
93.99709	5
94.00517	28
105.03475	7
106.04112	11
107.01376	216
107.82034	6
108.01357	10
115.06947	11
116.02141	8
117.03357	138
118.03539	6
120.01963	6
121.02409	22
121.03107	30
121.99983	35
122.00916	7
123.0266	9
130.00253	11
130.04262	14
132.02341	9
135.00372	7
136.0141	9
142.03958	6
142.04684	9
143.04909	14
145.02615	7
147.01154	11
148.01553	17
149.01724	25
149.02487	42
149.98674	21
149.9939	55
151.00252	325
151.88577	8
155.04919	27
156.0497	31
156.06079	18
157.06749	7
158.03622	37
159.22311	8
161.02576	6
166.04597	9
167.05165	29
168.05313	43
168.06313	9
169.05325	7
169.06047	6
170.02991	6
171.04044	53
171.0504	21
172.05083	96
174.06122	10
179.03912	6
179.04732	13
180.05992	7
181.02344	16
181.06177	6
183.04272	73
183.04895	25
184.00853	9
184.04083	19
184.05585	9
185.05545	10
186.02065	8
194.0441	9
195.03564	39
195.04178	84
196.05214	78
197.02759	6
197.05009	16
200.04033	29
200.0513	31
201.04231	14
210.03702	16
211.03833	442
212.01591	8
212.04515	142
213.01979	14
213.04813	13
213.05998	11
214.19873	9
223.04886	8
224.04034	10
225.05759	7
227.04562	9
238.99835	6
239.02754	149
239.03777	192
240.04073	256
240.06474	9
241.035	15
241.04472	43
242.04117	10
242.05621	9
264.49591	6
266.01724	7
266.30737	9
267.0293	154
268.03644	1000
269.04269	147
270.04117	22
271.04535	6

NAME: 3,4-Dimethoxycinnamic acid
PRECURSORMZ: 207.06628244783
PRECURSORTYPE: [M-H]-
INSTRUMENTTYPE: LC-ESI-QTOF
SMILES: COC1=C(OC)C=C(C=CC(O)=O)C=C1
INCHIKEY: HJBWJAPEBGSQPR-UHFFFAOYSA-N
Ontology: Coumaric acids and derivatives
COLLISIONENERGY: 50
FORMULA: C11H12O4
RETENTIONTIME: 5.186817
IONMODE: Negative
Comment: registered in RIKEN PlaSMA
Num Peaks: 1
119.04723	1000

NAME: Sakuranetin
PRECURSORMZ: 285.07684714783
PRECURSORTYPE: [M-H]-
INSTRUMENTTYPE: LC-ESI-QTOF
SMILES: COC1=CC(O)=C2C(=O)CC(OC2=C1)C1=CC=C(O)C=C1
INCHIKEY: DJOJDHGQRNZXQQ-UHFFFAOYNA-N
Ontology: 7-O-methylated flavonoids
COLLISIONENERGY: 50
FORMULA: C16H14O5
RETENTIONTIME: 7.422333
IONMODE: Negative
Comment: registered in RIKEN PlaSMA
Num Peaks: 20
65.00326	42
89.005	53
91.01407	12
91.0213	13
91.05685	20
92.73814	21
93.03381	44
94.00319	31
95.01109	13
97.03078	48
106.00342	9
108.02181	13
117.03545	38
119.0495	1000
120.04988	38
120.05613	61
142.03476	10
158.0381	21
172.04832	11
218.45027	14

NAME: Procyanidin B1
PRECURSORMZ: 577.13514984783
PRECURSORTYPE: [M-H]-
INSTRUMENTTYPE: LC-ESI-QTOF
SMILES: OC1CC2=C(OC1C1=CC(O)=C(O)C=C1)C(C1C(O)C(OC3=CC(O)=CC(O)=C13)C1=CC(O)=C(O)C=C1)=C(O)C=C2O
INCHIKEY: XFZJEEAOWLFHDH-UHFFFAOYNA-N
Ontology: Biflavonoids and polyflavonoids
COLLISIONENERGY: 10
FORMULA: C30H26O12
RETENTIONTIME: 2.8429
IONMODE: Negative
Comment: registered in RIKEN PlaSMA
Num Peaks: 136
57.03297	15
97.02778	14
106.76736	14
109.02824	35
123.04255	21
125.02336	430
135.04686	19
137.02126	106
148.97736	15
150.02905	17
151.03951	58
161.01642	17
161.0269	125
161.0544	19
161.06337	18
162.04109	15
162.06319	19
164.00626	15
165.02245	14
173.02356	26
174.03754	14
175.03717	42
175.04471	44
175.07997	24
177.01363	23
178.02507	39
179.03165	35
179.04265	42
180.04628	27
181.06047	20
187.02518	15
187.0464	44
188.04057	15
189.01843	16
190.05884	20
198.07108	21
201.02014	21
202.01544	14
203.05264	41
203.06987	79
203.07983	44
204.03491	22
205.05222	121
206.0141	22
206.04076	15
213.01695	16
215.62561	14
217.04228	17
221.08157	20
229.04819	35
231.02611	17
239.05594	15
240.43234	15
242.06303	15
243.06335	17
244.06702	15
245.04279	132
245.06334	22
245.07829	91
245.09059	37
246.08916	74
247.05295	68
253.0583	40
254.09753	16
256.03049	44
256.04199	33
257.03232	21
258.04709	15
269.04556	92
270.04517	29
271.06537	14
271.09238	14
273.03217	77
280.0358	17
281.03806	59
285.03561	14
285.04831	14
286.04541	32
287.05179	14
287.0629	16
288.06418	14
289.07278	971
290.06854	49
297.06897	15
297.07922	44
298.05682	17
299.00351	21
299.05054	134
300.06104	48
301.07104	17
301.46283	17
307.06525	17
313.02872	15
321.07416	19
328.10245	14
330.06406	20
331.08435	43
335.94025	16
336.06683	14
339.08524	70
339.15771	14
341.06537	15
342.05676	20
343.06558	20
363.09851	22
364.07742	19
382.10864	17
383.10306	14
389.06058	14
395.65268	26
406.92264	14
407.07501	1000
408.08105	198
409.08093	95
410.07864	17
423.07574	21
424.05872	21
425.08875	386
425.92444	17
426.08228	70
426.108	20
427.0976	32
451.08466	45
451.10367	137
452.10217	62
452.11453	78
453.10782	22
467.09317	14
502.77963	17
533.14709	15
559.11554	29
576.13049	71
576.90619	18
577.10315	16
577.13263	590
577.16693	54

NAME: isookanin-7-O-glucoside
PRECURSORMZ: 449.10893504783
PRECURSORTYPE: [M-H]-
INSTRUMENTTYPE: LC-ESI-QTOF
SMILES: OCC1OC(OC2=C(O)C3=C(C=C2)C(=O)CC(O3)C2=CC(O)=C(O)C=C2)C(O)C(O)C1O
INCHIKEY: DGGOLFCPSUVVHX-UHFFFAOYNA-N
Ontology: Flavonoid-7-O-glycosides
COLLISIONENERGY: 10
FORMULA: C21H22O11
RETENTIONTIME: 3.482733
IONMODE: Negative
Comment: registered in RIKEN PlaSMA
Num Peaks: 44
107.01427	15
123.00712	32
125.02445	8
134.03658	7
135.04347	632
136.04346	72
136.05046	25
137.04816	7
149.98932	5
149.99742	8
151.00186	667
151.06223	5
152.00415	38
153.00845	15
165.01895	10
166.99953	7
169.01068	36
214.0659	6
240.04196	7
241.04408	9
242.0537	5
243.76712	5
251.04094	7
268.03381	12
269.04108	139
269.05435	27
270.04712	41
285.03802	8
286.04407	37
287.05466	968
288.05649	192
289.04837	7
289.0654	10
289.07834	10
313.04834	18
313.06342	16
314.05008	7
314.06256	5
330.06824	9
355.86493	5
431.09317	100
432.09879	23
433.10309	8
449.10568	1000

NAME: Quercetin-3-O-vicianoside
PRECURSORMZ: 595.13045834783
PRECURSORTYPE: [M-H]-
INSTRUMENTTYPE: LC-ESI-QTOF
SMILES: OC1COC(OCC2OC(OC3=C(OC4=CC(O)=CC(O)=C4C3=O)C3=CC(O)=C(O)C=C3)C(O)C(O)C2O)C(O)C1O
INCHIKEY: YNMFDPCLPIMRFD-UHFFFAOYNA-N
Ontology: Flavonoid-3-O-glycosides
COLLISIONENERGY: 10
FORMULA: C26H28O16
RETENTIONTIME: 3.695633
IONMODE: Negative
Comment: registered in RIKEN PlaSMA
Num Peaks: 22
150.99586	7
151.00305	23
163.00285	5
178.99617	42
243.03218	5
255.02516	31
255.04071	6
256.02576	9
270.01294	6
271.02194	110
272.02155	15
273.03522	8
299.00266	12
299.01593	21
300.02698	600
301.03098	455
302.03598	75
303.03894	7
343.04337	8
593.11383	9
595.13031	1000
595.19012	10

NAME: Apigenin-7-O-glucoside
PRECURSORMZ: 431.09837034783
PRECURSORTYPE: [M-H]-
INSTRUMENTTYPE: LC-ESI-QTOF
SMILES: OCC1OC(OC2=CC(O)=C3C(=O)C=C(OC3=C2)C2=CC=C(O)C=C2)C(O)C(O)C1O
INCHIKEY: KMOUJOKENFFTPU-UHFFFAOYNA-N
Ontology: Flavonoid-7-O-glycosides
COLLISIONENERGY: 10
FORMULA: C21H20O10
RETENTIONTIME: 4.446617
IONMODE: Negative
Comment: registered in RIKEN PlaSMA
Num Peaks: 17
107.0116	6
107.01706	5
150.99805	10
196.05086	8
211.03873	10
239.03336	26
239.04315	6
240.03366	8
240.04619	20
267.03345	9
268.03564	655
269.04181	356
270.04779	59
271.04956	7
311.05334	7
431.09784	1000
431.13647	11

NAME: 3,4-Dimethoxycinnamic acid
PRECURSORMZ: 207.06628244783
PRECURSORTYPE: [M-H]-
INSTRUMENTTYPE: LC-ESI-QTOF
SMILES: COC1=C(OC)C=C(C=CC(O)=O)C=C1
INCHIKEY: HJBWJAPEBGSQPR-UHFFFAOYSA-N
Ontology: Coumaric acids and derivatives
COLLISIONENERGY: 10
FORMULA: C11H12O4
RETENTIONTIME: 5.186817
IONMODE: Negative
Comment: registered in RIKEN PlaSMA
Num Peaks: 16
51.02205	23
103.0542	1000
104.05396	22
106.07406	31
119.04721	25
131.04112	21
131.05237	98
133.06006	32
134.07146	19
134.74706	19
148.01273	18
148.04507	32
163.07033	62
163.08189	90
204.10692	34
207.06564	565

NAME: Sakuranetin
PRECURSORMZ: 285.07684714783
PRECURSORTYPE: [M-H]-
INSTRUMENTTYPE: LC-ESI-QTOF
SMILES: COC1=CC(O)=C2C(=O)CC(OC2=C1)C1=CC=C(O)C=C1
INCHIKEY: DJOJDHGQRNZXQQ-UHFFFAOYNA-N
Ontology: 7-O-methylated flavonoids
COLLISIONENERGY: 10
FORMULA: C16H14O5
RETENTIONTIME: 7.422333
IONMODE: Negative
Comment: registered in RIKEN PlaSMA
Num Peaks: 27
65.00432	7
91.01864	18
93.03349	90
95.04247	6
97.02715	56
106.00237	5
108.01951	11
119.04817	808
120.05161	79
121.02827	50
121.99805	21
124.01433	6
145.02875	14
145.03665	5
149.99309	45
150.99988	7
164.01035	19
165.01744	1000
166.02161	97
167.02321	6
168.02596	6
179.03098	11
179.03835	13
191.03023	7
269.04715	7
270.05444	8
285.07526	690

NAME: Procyanidin B1
PRECURSORMZ: 577.13514984783
PRECURSORTYPE: [M-H]-
INSTRUMENTTYPE: LC-ESI-QTOF
SMILES: OC1CC2=C(OC1C1=CC(O)=C(O)C=C1)C(C1C(O)C(OC3=CC(O)=CC(O)=C13)C1=CC(O)=C(O)C=C1)=C(O)C=C2O
INCHIKEY: XFZJEEAOWLFHDH-UHFFFAOYNA-N
Ontology: Biflavonoids and polyflavonoids
COLLISIONENERGY: 10
FORMULA: C30H26O12
RETENTIONTIME: 2.8429
IONMODE: Negative
Comment: registered in RIKEN PlaSMA
Num Peaks: 49
125.02203	71
161.01646	8
161.02417	11
205.05275	7
245.05261	8
246.04691	11
273.04358	11
285.04559	5
287.04398	34
287.05417	58
287.07019	6
288.05692	6
289.05713	32
289.07077	108
290.07275	49
293.36011	7
299.05457	44
300.05997	13
313.45114	6
329.06995	5
337.93237	6
339.09003	7
353.80338	5
357.77063	5
381.09351	14
391.65833	8
407.07568	164
408.08191	51
409.08344	10
409.10126	6
425.08691	339
426.0657	9
426.09286	86
427.09955	6
451.06372	7
451.10986	115
451.13776	6
452.10004	13
453.12717	5
467.09946	12
468.117	7
532.11188	8
533.13257	7
559.13379	25
575.13757	5
576.1145	5
577.08533	5
577.13348	1000
577.18518	8

NAME: isookanin-7-O-glucoside
PRECURSORMZ: 449.10893504783
PRECURSORTYPE: [M-H]-
INSTRUMENTTYPE: LC-ESI-QTOF
SMILES: OCC1OC(OC2=C(O)C3=C(C=C2)C(=O)CC(O3)C2=CC(O)=C(O)C=C2)C(O)C(O)C1O
INCHIKEY: DGGOLFCPSUVVHX-UHFFFAOYNA-N
Ontology: Flavonoid-7-O-glycosides
COLLISIONENERGY: 10
FORMULA: C21H22O11
RETENTIONTIME: 3.482733
IONMODE: Negative
Comment: registered in RIKEN PlaSMA
Num Peaks: 11
135.0461	6
151.00266	14
269.04977	8
287.05652	411
288.06012	79
289.06598	6
313.05573	11
431.09863	16
431.10938	8
432.10269	10
449.1102	1000

NAME: Quercetin-3-O-vicianoside
PRECURSORMZ: 595.13045834783
PRECURSORTYPE: [M-H]-
INSTRUMENTTYPE: LC-ESI-QTOF
SMILES: OC1COC(OCC2OC(OC3=C(OC4=CC(O)=CC(O)=C4C3=O)C3=CC(O)=C(O)C=C3)C(O)C(O)C2O)C(O)C1O
INCHIKEY: YNMFDPCLPIMRFD-UHFFFAOYNA-N
Ontology: Flavonoid-3-O-glycosides
COLLISIONENERGY: 10
FORMULA: C26H28O16
RETENTIONTIME: 3.695633
IONMODE: Negative
Comment: registered in RIKEN PlaSMA
Num Peaks: 6
300.02808	8
301.03232	21
301.04846	5
593.10767	13
594.13477	6
595.13049	1000

NAME: Apigenin-7-O-glucoside
PRECURSORMZ: 431.09837034783
PRECURSORTYPE: [M-H]-
INSTRUMENTTYPE: LC-ESI-QTOF
SMILES: OCC1OC(OC2=CC(O)=C3C(=O)C=C(OC3=C2)C2=CC=C(O)C=C2)C(O)C(O)C1O
INCHIKEY: KMOUJOKENFFTPU-UHFFFAOYNA-N
Ontology: Flavonoid-7-O-glycosides
COLLISIONENERGY: 10
FORMULA: C21H20O10
RETENTIONTIME: 4.446617
IONMODE: Negative
Comment: registered in RIKEN PlaSMA
Num Peaks: 4
268.03394	12
269.04456	35
431.09662	1000
431.14133	7

NAME: 3,4-Dimethoxycinnamic acid
PRECURSORMZ: 207.06628244783
PRECURSORTYPE: [M-H]-
INSTRUMENTTYPE: LC-ESI-QTOF
SMILES: COC1=C(OC)C=C(C=CC(O)=O)C=C1
INCHIKEY: HJBWJAPEBGSQPR-UHFFFAOYSA-N
Ontology: Coumaric acids and derivatives
COLLISIONENERGY: 10
FORMULA: C11H12O4
RETENTIONTIME: 5.186817
IONMODE: Negative
Comment: registered in RIKEN PlaSMA
Num Peaks: 23
51.47729	6
78.38173	9
89.16945	7
103.05422	586
104.05596	22
105.06582	20
106.07633	8
115.05283	13
116.05752	8
118.0425	8
119.04485	8
131.04947	73
131.0578	10
132.04921	8
132.05855	8
133.06345	71
134.06693	7
148.05032	28
163.075	123
163.17287	6
192.03514	6
192.04379	13
207.06598	1000

NAME: Sakuranetin
PRECURSORMZ: 285.07684714783
PRECURSORTYPE: [M-H]-
INSTRUMENTTYPE: LC-ESI-QTOF
SMILES: COC1=CC(O)=C2C(=O)CC(OC2=C1)C1=CC=C(O)C=C1
INCHIKEY: DJOJDHGQRNZXQQ-UHFFFAOYNA-N
Ontology: 7-O-methylated flavonoids
COLLISIONENERGY: 10
FORMULA: C16H14O5
RETENTIONTIME: 7.422333
IONMODE: Negative
Comment: registered in RIKEN PlaSMA
Num Peaks: 10
93.03281	49
119.0489	112
120.04971	5
145.03059	8
165.01732	528
166.01639	15
166.02196	42
167.021	6
191.03435	18
285.07547	1000

NAME: Procyanidin B1
PRECURSORMZ: 577.13514984783
PRECURSORTYPE: [M-H]-
INSTRUMENTTYPE: LC-ESI-QTOF
SMILES: OC1CC2=C(OC1C1=CC(O)=C(O)C=C1)C(C1C(O)C(OC3=CC(O)=CC(O)=C13)C1=CC(O)=C(O)C=C1)=C(O)C=C2O
INCHIKEY: XFZJEEAOWLFHDH-UHFFFAOYNA-N
Ontology: Biflavonoids and polyflavonoids
COLLISIONENERGY: 30
FORMULA: C30H26O12
RETENTIONTIME: 2.8429
IONMODE: Negative
Comment: registered in RIKEN PlaSMA
Num Peaks: 137
109.0256	53
117.31652	11
120.92239	12
121.02834	31
123.04361	26
124.05074	18
125.02216	739
126.02531	86
137.01764	69
137.02428	266
143.05154	12
149.01898	15
149.03163	13
150.03116	23
151.03423	47
151.04376	12
161.02451	358
161.0598	32
162.01961	40
162.02736	48
162.03658	38
162.06265	13
162.1461	13
163.03329	11
165.0162	18
165.02466	14
165.47485	11
167.03867	14
173.05577	22
173.06326	12
175.03577	44
175.08188	20
177.01038	21
177.01567	60
177.04822	14
179.02863	115
179.03737	53
187.03545	25
187.04828	12
188.04214	33
189.03459	11
189.04684	13
189.09167	13
191.03468	15
199.04533	15
200.89777	12
201.05309	33
201.09854	13
203.06619	56
203.07281	154
204.00159	20
205.01436	26
205.03911	66
205.0484	71
206.05438	15
212.04294	18
213.05072	15
214.01877	13
215.03239	34
217.03885	11
217.0546	42
218.02895	23
219.03082	15
219.06473	15
221.07634	15
225.05225	11
227.03931	18
227.06537	32
228.03427	13
229.04385	13
229.05269	51
231.01961	18
231.03539	13
242.01271	12
243.03033	12
243.0717	18
244.06027	16
245.04456	124
245.05797	55
245.07919	325
246.07788	28
246.09346	27
247.05327	16
247.08336	15
248.2377	12
250.08844	22
253.05049	11
254.05424	13
255.02934	79
255.06071	12
256.03259	26
257.04541	20
259.07117	13
260.07065	12
261.03979	14
269.01688	15
269.0321	12
270.04175	31
271.05557	15
273.03464	87
273.06415	39
281.04907	36
285.03601	107
286.04187	17
287.04556	36
287.05933	13
289.06992	1000
289.74142	11
290.07172	123
291.07565	14
297.04346	11
297.05804	31
297.07993	46
298.07843	13
299.04764	16
301.07004	14
302.0726	35
311.05563	25
327.05219	12
327.09302	18
330.06522	20
339.08209	40
339.09821	32
340.09549	13
357.09445	13
363.09204	13
375.08606	12
379.93292	15
381.0921	12
389.07504	12
393.09271	12
407.07797	547
408.07812	134
408.09961	62
409.09793	11
409.11417	11
419.08209	13

NAME: isookanin-7-O-glucoside
PRECURSORMZ: 449.10893504783
PRECURSORTYPE: [M-H]-
INSTRUMENTTYPE: LC-ESI-QTOF
SMILES: OCC1OC(OC2=C(O)C3=C(C=C2)C(=O)CC(O3)C2=CC(O)=C(O)C=C2)C(O)C(O)C1O
INCHIKEY: DGGOLFCPSUVVHX-UHFFFAOYNA-N
Ontology: Flavonoid-7-O-glycosides
COLLISIONENERGY: 30
FORMULA: C21H22O11
RETENTIONTIME: 3.482733
IONMODE: Negative
Comment: registered in RIKEN PlaSMA
Num Peaks: 26
107.01218	43
123.00846	55
125.02155	11
135.04318	1000
136.04657	86
137.05145	6
149.98941	9
149.99687	16
151.00148	771
151.99934	13
152.0072	32
153.0089	8
161.01842	6
161.02783	6
169.01332	11
177.01593	5
240.04884	5
267.02213	8
268.0322	33
269.04291	92
270.03952	9
271.04822	6
286.04022	15
286.05295	6
287.05301	49
288.05261	6

NAME: Quercetin-3-O-vicianoside
PRECURSORMZ: 595.13045834783
PRECURSORTYPE: [M-H]-
INSTRUMENTTYPE: LC-ESI-QTOF
SMILES: OC1COC(OCC2OC(OC3=C(OC4=CC(O)=CC(O)=C4C3=O)C3=CC(O)=C(O)C=C3)C(O)C(O)C2O)C(O)C1O
INCHIKEY: YNMFDPCLPIMRFD-UHFFFAOYNA-N
Ontology: Flavonoid-3-O-glycosides
COLLISIONENERGY: 30
FORMULA: C26H28O16
RETENTIONTIME: 3.695633
IONMODE: Negative
Comment: registered in RIKEN PlaSMA
Num Peaks: 20
151.00075	29
151.0092	9
178.99637	37
227.03156	13
229.04712	10
243.03532	6
255.02837	33
270.02042	12
271.02335	83
272.0321	14
273.04684	6
299.01508	11
300.02631	1000
301.03317	586
302.0358	96
303.03018	11
303.04373	11
330.41229	7
343.03659	14
595.12671	65

NAME: Apigenin-7-O-glucoside
PRECURSORMZ: 431.09837034783
PRECURSORTYPE: [M-H]-
INSTRUMENTTYPE: LC-ESI-QTOF
SMILES: OCC1OC(OC2=CC(O)=C3C(=O)C=C(OC3=C2)C2=CC=C(O)C=C2)C(O)C(O)C1O
INCHIKEY: KMOUJOKENFFTPU-UHFFFAOYNA-N
Ontology: Flavonoid-7-O-glycosides
COLLISIONENERGY: 30
FORMULA: C21H20O10
RETENTIONTIME: 4.446617
IONMODE: Negative
Comment: registered in RIKEN PlaSMA
Num Peaks: 8
149.0215	6
151.00209	10
240.04376	13
268.03531	1000
269.0415	396
270.03879	28
270.04742	55
431.09888	42

NAME: 3,4-Dimethoxycinnamic acid
PRECURSORMZ: 207.06628244783
PRECURSORTYPE: [M-H]-
INSTRUMENTTYPE: LC-ESI-QTOF
SMILES: COC1=C(OC)C=C(C=CC(O)=O)C=C1
INCHIKEY: HJBWJAPEBGSQPR-UHFFFAOYSA-N
Ontology: Coumaric acids and derivatives
COLLISIONENERGY: 30
FORMULA: C11H12O4
RETENTIONTIME: 5.186817
IONMODE: Negative
Comment: registered in RIKEN PlaSMA
Num Peaks: 3
103.04972	733
103.0586	1000
134.03217	320

NAME: Sakuranetin
PRECURSORMZ: 285.07684714783
PRECURSORTYPE: [M-H]-
INSTRUMENTTYPE: LC-ESI-QTOF
SMILES: COC1=CC(O)=C2C(=O)CC(OC2=C1)C1=CC=C(O)C=C1
INCHIKEY: DJOJDHGQRNZXQQ-UHFFFAOYNA-N
Ontology: 7-O-methylated flavonoids
COLLISIONENERGY: 30
FORMULA: C16H14O5
RETENTIONTIME: 7.422333
IONMODE: Negative
Comment: registered in RIKEN PlaSMA
Num Peaks: 23
65.00185	27
89.00285	47
91.01759	22
93.03226	36
93.03633	11
94.00326	18
94.00793	14
97.02937	66
106.00298	9
108.01669	7
108.02238	7
119.0489	1000
120.05178	103
121.02852	38
121.99822	27
124.01411	6
136.01604	20
143.04797	7
149.99315	39
150.9953	8
164.00887	9
165.01814	94
269.04279	6

NAME: Procyanidin B1
PRECURSORMZ: 577.13514984783
PRECURSORTYPE: [M-H]-
INSTRUMENTTYPE: LC-ESI-QTOF
SMILES: OC1CC2=C(OC1C1=CC(O)=C(O)C=C1)C(C1C(O)C(OC3=CC(O)=CC(O)=C13)C1=CC(O)=C(O)C=C1)=C(O)C=C2O
INCHIKEY: XFZJEEAOWLFHDH-UHFFFAOYNA-N
Ontology: Biflavonoids and polyflavonoids
COLLISIONENERGY: 50
FORMULA: C30H26O12
RETENTIONTIME: 2.8429
IONMODE: Negative
Comment: registered in RIKEN PlaSMA
Num Peaks: 191
79.05302	21
81.03294	31
83.01204	43
89.03433	48
93.0291	16
95.01216	18
95.04605	23
97.02708	36
97.03127	15
99.04543	22
105.03047	15
105.03705	35
107.04921	20
108.02227	19
109.0271	275
110.03667	27
112.14541	14
112.46014	17
112.66727	15
117.03665	19
121.02564	57
122.03225	20
122.04051	55
122.87241	16
123.04288	356
125.02339	1000
126.02674	32
131.0528	25
133.0238	60
134.80098	17
135.00551	34
136.01631	16
136.04509	21
137.02165	97
137.02594	204
138.02325	23
138.03278	21
139.03836	31
143.04675	27
145.02708	38
145.06528	63
147.00804	14
147.04723	41
148.02003	16
149.02538	37
149.06125	52
150.02934	85
151.04163	276
152.03529	26
153.05742	22
155.05339	18
158.03186	14
159.04675	201
160.05165	21
161.01964	342
161.02747	77
161.0585	112
162.03122	225
162.06116	48
163.00055	38
163.00783	38
163.04117	120
163.25905	14
163.94598	15
164.00111	17
164.00891	43
164.01689	25
164.97026	27
165.01311	31
165.02325	15
166.01141	18
166.02245	67
166.34613	14
166.71605	14
167.0399	16
167.05806	16
173.03038	22
173.7666	30
174.02769	23
174.0722	33
175.03993	245
175.06841	17
175.07597	31
176.03642	38
176.05576	30
176.08234	19
176.98978	21
177.0152	85
177.05229	35
178.01254	25
178.0208	23
178.32248	31
183.05051	27
183.0842	14
186.06096	23
187.03624	76
187.04536	24
187.05527	19
188.04514	168
188.06306	18
189.01918	19
189.0444	29
191.02881	31
191.82964	14
193.48918	15
194.04315	14
199.03409	20
199.0446	37
200.01961	27
200.04077	17
201.05469	39
202.05446	43
202.06226	43
203.03136	42
203.04272	33
203.07242	164
204.07686	59
205.01276	15
205.04669	62
205.05975	65
207.04457	30
207.08261	21
210.03494	38
210.66919	29
211.03026	29
211.03963	36
212.04662	51
212.06754	14
213.01656	25
213.05122	80
214.02904	76
216.02754	16
217.04883	56
217.08934	35
221.08875	45
222.06985	58
222.08125	16
223.78062	28
225.05397	15
225.09859	29
227.02492	19
227.03867	47
227.07222	48
228.03743	14
228.04868	49
229.04976	32
230.05589	60
231.03117	51
231.06418	22
232.0351	19
239.03868	16
242.03046	14
243.03131	32
243.10556	22
245.0408	15
245.08261	27
246.04027	20
246.05704	28
247.06425	35
248.07387	31
250.05508	15
252.64346	19
253.04843	34
255.03023	225
255.07941	20
256.02719	73
256.04156	51
256.05975	19
257.04352	76
259.04367	35
265.04349	16
267.03464	15
267.05795	19
267.06821	15
269.03751	21
269.04489	51
270.04306	14
271.06546	14
275.06717	17
281.04462	57
282.0274	15
282.04764	18
282.41351	14
286.04919	33
287.0697	35
289.07468	16
340.08813	34
362.05969	23
364.08527	15
373.06998	19
425.10498	16

NAME: isookanin-7-O-glucoside
PRECURSORMZ: 449.10893504783
PRECURSORTYPE: [M-H]-
INSTRUMENTTYPE: LC-ESI-QTOF
SMILES: OCC1OC(OC2=C(O)C3=C(C=C2)C(=O)CC(O3)C2=CC(O)=C(O)C=C2)C(O)C(O)C1O
INCHIKEY: DGGOLFCPSUVVHX-UHFFFAOYNA-N
Ontology: Flavonoid-7-O-glycosides
COLLISIONENERGY: 50
FORMULA: C21H22O11
RETENTIONTIME: 3.482733
IONMODE: Negative
Comment: registered in RIKEN PlaSMA
Num Peaks: 20
79.01659	10
91.05025	8
91.05678	6
94.00471	5
95.01295	48
107.01199	54
107.0178	17
108.02242	13
123.00747	130
124.00999	9
134.0361	59
135.04353	1000
136.04587	99
137.05205	14
145.03053	10
151.0038	77
152.00882	8
164.00745	7
183.03841	8
185.06047	5

NAME: Quercetin-3-O-vicianoside
PRECURSORMZ: 595.13045834783
PRECURSORTYPE: [M-H]-
INSTRUMENTTYPE: LC-ESI-QTOF
SMILES: OC1COC(OCC2OC(OC3=C(OC4=CC(O)=CC(O)=C4C3=O)C3=CC(O)=C(O)C=C3)C(O)C(O)C2O)C(O)C1O
INCHIKEY: YNMFDPCLPIMRFD-UHFFFAOYNA-N
Ontology: Flavonoid-3-O-glycosides
COLLISIONENERGY: 50
FORMULA: C26H28O16
RETENTIONTIME: 3.695633
IONMODE: Negative
Comment: registered in RIKEN PlaSMA
Num Peaks: 62
63.02395	5
91.01256	6
107.01212	21
107.01759	11
108.01936	7
109.02898	8
120.01258	6
121.02804	23
134.25404	6
135.01007	5
136.01355	15
148.01088	10
149.02588	11
151.00233	182
152.00508	25
159.06369	11
162.02979	6
162.99455	12
163.00359	21
163.04243	7
164.00748	18
167.04744	12
177.01886	9
179.00009	35
180.00543	12
182.81851	10
187.03209	12
192.00345	12
196.81892	6
199.0349	12
211.04247	5
212.04137	11
215.03722	14
216.03632	27
226.02553	19
227.032	44
228.03627	12
230.05936	8
239.03239	8
242.02126	15
243.02696	150
244.03159	10
245.04175	20
245.05275	12
246.06149	5
254.02168	27
255.02734	498
256.0322	84
256.94583	10
257.03662	7
259.0275	9
271.02222	1000
272.02173	61
272.0307	73
273.02875	12
283.02533	13
299.02356	14
300.02383	232
300.03293	118
301.02777	80
301.04095	21
302.03323	10

NAME: Apigenin-7-O-glucoside
PRECURSORMZ: 431.09837034783
PRECURSORTYPE: [M-H]-
INSTRUMENTTYPE: LC-ESI-QTOF
SMILES: OCC1OC(OC2=CC(O)=C3C(=O)C=C(OC3=C2)C2=CC=C(O)C=C2)C(O)C(O)C1O
INCHIKEY: KMOUJOKENFFTPU-UHFFFAOYNA-N
Ontology: Flavonoid-7-O-glycosides
COLLISIONENERGY: 50
FORMULA: C21H20O10
RETENTIONTIME: 4.446617
IONMODE: Negative
Comment: registered in RIKEN PlaSMA
Num Peaks: 127
63.02109	33
64.02908	6
65.00188	9
65.00504	12
81.03304	7
83.00935	28
83.01483	45
92.02473	8
94.0086	8
105.03601	7
106.0108	10
106.52428	10
107.01213	322
108.01287	37
108.02196	7
113.04148	10
116.02336	6
117.03289	119
117.04688	9
118.038	16
119.04687	9
120.01649	14
121.02936	44
121.99655	22
122.8496	9
122.99729	12
123.00937	6
130.04218	32
130.14963	6
135.00891	13
141.02837	6
143.04385	11
143.04987	24
146.99823	6
148.0143	33
148.02139	36
149.01651	19
149.02979	26
149.99086	49
150.00183	8
151.0034	320
152.01308	26
152.02351	8
154.07535	6
155.04332	8
155.05251	21
157.06459	6
158.03482	50
159.03654	9
159.04497	16
160.0451	8
161.02151	7
161.02911	16
166.04616	15
167.04509	56
168.05194	63
168.06023	21
169.03139	8
169.05069	6
169.07309	6
170.03482	6
171.04472	108
172.05284	59
173.05173	7
174.05042	7
181.05107	6
181.06184	19
181.06747	7
182.04327	8
183.04321	143
184.01094	9
184.04399	34
184.05421	65
185.03201	7
185.05009	9
186.02863	6
187.31528	7
193.71146	6
194.04419	7
195.04103	85
196.04814	23
196.0602	15
197.01385	8
197.02699	9
197.06419	9
199.04048	45
200.04808	41
201.04057	14
201.05098	30
206.03494	6
210.02438	7
210.03185	10
211.01587	6
211.03804	414
211.07082	10
212.01103	6
212.0274	13
212.04337	92
212.05563	25
213.04832	23
223.03842	32
224.03198	11
224.05168	8
225.02319	8
225.04782	8
227.02948	31
229.01527	6
239.03444	427
240.03716	332
240.04951	98
241.02692	6
241.04367	60
242.03069	6
242.05202	11
243.31978	6
266.00473	6
266.02103	7
267.02835	158
267.05325	6
268.03748	1000
269.02695	35
269.04211	154
270.03806	19
270.04977	19
271.04364	7
272.96518	6
339.19324	6

NAME: Sakuranetin
PRECURSORMZ: 285.07684714783
PRECURSORTYPE: [M-H]-
INSTRUMENTTYPE: LC-ESI-QTOF
SMILES: COC1=CC(O)=C2C(=O)CC(OC2=C1)C1=CC=C(O)C=C1
INCHIKEY: DJOJDHGQRNZXQQ-UHFFFAOYNA-N
Ontology: 7-O-methylated flavonoids
COLLISIONENERGY: 50
FORMULA: C16H14O5
RETENTIONTIME: 7.422333
IONMODE: Negative
Comment: registered in RIKEN PlaSMA
Num Peaks: 31
61.00632	12
65.00101	19
68.9959	9
80.022	11
89.00137	57
90.00507	8
91.01574	8
91.01929	16
93.03033	33
93.03445	83
94.00407	33
95.01213	7
97.02657	19
108.01738	8
109.02432	10
117.03293	47
117.04022	9
119.04892	1000
120.01908	7
120.05044	98
120.0639	9
121.0271	7
121.05141	10
121.99712	15
122.0099	7
123.0055	20
145.02803	7
152.06323	8
155.03365	7
195.0415	7
199.03456	9

NAME: Procyanidin B1
PRECURSORMZ: 577.13514984783
PRECURSORTYPE: [M-H]-
INSTRUMENTTYPE: LC-ESI-QTOF
SMILES: OC1CC2=C(OC1C1=CC(O)=C(O)C=C1)C(C1C(O)C(OC3=CC(O)=CC(O)=C13)C1=CC(O)=C(O)C=C1)=C(O)C=C2O
INCHIKEY: XFZJEEAOWLFHDH-UHFFFAOYNA-N
Ontology: Biflavonoids and polyflavonoids
COLLISIONENERGY: 10
FORMULA: C30H26O12
RETENTIONTIME: 2.8429
IONMODE: Negative
Comment: registered in RIKEN PlaSMA
Num Peaks: 119
98.02945	20
109.02999	24
121.02608	20
124.70187	25
125.02153	592
129.26637	20
133.03482	25
137.02217	60
139.03856	21
139.07892	25
143.04265	18
145.03075	20
146.03384	26
149.02202	33
150.02638	20
152.03499	20
161.02097	109
161.0291	105
162.02635	20
162.0331	31
162.06987	50
163.03844	41
164.00471	28
165.02628	21
166.01903	22
166.02676	34
168.03894	24
173.05927	34
174.02586	21
175.03592	129
176.05005	21
177.01981	39
178.21735	22
179.0341	71
180.03397	44
187.03845	38
189.01617	21
202.01839	25
202.06749	30
203.06239	26
203.07259	63
203.87303	39
205.00656	24
205.01939	25
205.05421	18
206.04619	20
211.07785	19
212.05005	20
219.04918	23
227.06442	26
229.03969	22
230.04671	25
230.06033	57
240.07983	24
243.02617	47
245.03432	33
245.04526	45
245.08147	245
246.08041	46
246.0898	25
247.08212	20
255.01872	31
255.03152	25
256.03903	156
258.43854	21
269.05502	26
273.02521	24
273.04379	53
277.88855	24
279.02484	25
281.04889	56
283.01379	28
283.02509	24
284.02704	20
284.03906	25
285.03687	59
285.05148	21
285.06287	18
287.04788	44
287.06454	20
288.05783	20
289.04855	54
289.07083	1000
290.05994	26
290.07162	18
291.07446	20
297.04395	24
297.07376	24
298.03696	20
299.04422	51
299.0578	114
325.073	18
339.08221	93
339.09567	55
341.05948	24
407.07715	644
407.38708	21
408.052	24
408.07394	147
411.10519	20
417.00668	24
418.06476	27
425.08499	377
425.10172	134
427.08676	18
433.08789	34
434.08734	21
450.91638	27
451.09418	100
451.1113	78
452.08496	47
452.10495	24
453.10791	21
454.08722	18
473.12244	19
559.11218	20
559.1413	20
576.10028	18
577.13409	758

NAME: isookanin-7-O-glucoside
PRECURSORMZ: 449.10893504783
PRECURSORTYPE: [M-H]-
INSTRUMENTTYPE: LC-ESI-QTOF
SMILES: OCC1OC(OC2=C(O)C3=C(C=C2)C(=O)CC(O3)C2=CC(O)=C(O)C=C2)C(O)C(O)C1O
INCHIKEY: DGGOLFCPSUVVHX-UHFFFAOYNA-N
Ontology: Flavonoid-7-O-glycosides
COLLISIONENERGY: 10
FORMULA: C21H22O11
RETENTIONTIME: 3.482733
IONMODE: Negative
Comment: registered in RIKEN PlaSMA
Num Peaks: 36
108.01565	11
121.99745	9
123.00883	32
135.04236	548
136.04726	52
149.98892	8
149.99646	9
151.00212	652
152.0038	37
152.01582	6
153.00975	7
161.03151	6
164.00833	8
165.01935	6
169.01447	44
170.06636	6
177.0116	6
196.53738	7
241.04797	7
268.0314	20
269.04373	136
270.03406	13
285.02689	7
285.03745	7
285.04782	7
286.04272	12
287.05365	1000
288.05789	134
289.061	7
313.05942	44
314.06262	9
329.07452	11
387.14624	5
431.10052	84
449.05011	6
449.1069	780

NAME: Quercetin-3-O-vicianoside
PRECURSORMZ: 595.13045834783
PRECURSORTYPE: [M-H]-
INSTRUMENTTYPE: LC-ESI-QTOF
SMILES: OC1COC(OCC2OC(OC3=C(OC4=CC(O)=CC(O)=C4C3=O)C3=CC(O)=C(O)C=C3)C(O)C(O)C2O)C(O)C1O
INCHIKEY: YNMFDPCLPIMRFD-UHFFFAOYNA-N
Ontology: Flavonoid-3-O-glycosides
COLLISIONENERGY: 10
FORMULA: C26H28O16
RETENTIONTIME: 3.695633
IONMODE: Negative
Comment: registered in RIKEN PlaSMA
Num Peaks: 17
150.99837	23
151.00433	34
178.99356	17
242.01846	10
243.02718	12
255.02495	41
270.01501	9
271.02097	79
272.02545	19
299.03314	6
300.02606	516
301.03397	378
302.03705	75
303.03568	15
593.1073	11
594.11157	11
595.12872	1000

NAME: Apigenin-7-O-glucoside
PRECURSORMZ: 431.09837034783
PRECURSORTYPE: [M-H]-
INSTRUMENTTYPE: LC-ESI-QTOF
SMILES: OCC1OC(OC2=CC(O)=C3C(=O)C=C(OC3=C2)C2=CC=C(O)C=C2)C(O)C(O)C1O
INCHIKEY: KMOUJOKENFFTPU-UHFFFAOYNA-N
Ontology: Flavonoid-7-O-glycosides
COLLISIONENERGY: 10
FORMULA: C21H20O10
RETENTIONTIME: 4.446617
IONMODE: Negative
Comment: registered in RIKEN PlaSMA
Num Peaks: 16
117.03072	8
149.02165	6
151.00252	9
172.06015	5
212.0452	11
224.04317	6
239.03522	13
240.03722	5
267.02988	13
268.03607	630
269.04309	418
270.03091	9
270.04709	64
271.05533	7
311.061	6
431.09805	1000

NAME: 3,4-Dimethoxycinnamic acid
PRECURSORMZ: 207.06628244783
PRECURSORTYPE: [M-H]-
INSTRUMENTTYPE: LC-ESI-QTOF
SMILES: COC1=C(OC)C=C(C=CC(O)=O)C=C1
INCHIKEY: HJBWJAPEBGSQPR-UHFFFAOYSA-N
Ontology: Coumaric acids and derivatives
COLLISIONENERGY: 10
FORMULA: C11H12O4
RETENTIONTIME: 5.186817
IONMODE: Negative
Comment: registered in RIKEN PlaSMA
Num Peaks: 15
77.03595	23
103.05316	1000
103.24107	25
104.05667	137
105.06969	43
119.05033	88
131.05144	114
132.02071	43
133.06059	28
133.06966	79
148.04425	71
148.05284	30
163.07152	38
163.07759	96
207.06738	448

NAME: Sakuranetin
PRECURSORMZ: 285.07684714783
PRECURSORTYPE: [M-H]-
INSTRUMENTTYPE: LC-ESI-QTOF
SMILES: COC1=CC(O)=C2C(=O)CC(OC2=C1)C1=CC=C(O)C=C1
INCHIKEY: DJOJDHGQRNZXQQ-UHFFFAOYNA-N
Ontology: 7-O-methylated flavonoids
COLLISIONENERGY: 10
FORMULA: C16H14O5
RETENTIONTIME: 7.422333
IONMODE: Negative
Comment: registered in RIKEN PlaSMA
Num Peaks: 39
65.00201	38
89.00256	6
91.01774	11
93.03281	132
93.04121	8
94.00322	25
94.03252	8
94.03835	9
97.02765	49
97.03704	10
108.02045	10
119.04803	904
120.05199	71
121.02691	53
121.99702	12
136.00903	7
137.02365	6
145.02924	9
149.99287	44
150.00215	13
150.99339	6
151.00371	7
163.00212	5
164.00618	18
164.0139	15
165.01678	1000
166.01501	36
166.02213	49
167.01797	6
179.03093	19
187.03439	7
191.03041	24
191.03859	19
192.04103	9
224.04424	8
241.0549	6
269.05914	9
270.05289	14
285.07626	700

NAME: Procyanidin B1
PRECURSORMZ: 577.13514984783
PRECURSORTYPE: [M-H]-
INSTRUMENTTYPE: LC-ESI-QTOF
SMILES: OC1CC2=C(OC1C1=CC(O)=C(O)C=C1)C(C1C(O)C(OC3=CC(O)=CC(O)=C13)C1=CC(O)=C(O)C=C1)=C(O)C=C2O
INCHIKEY: XFZJEEAOWLFHDH-UHFFFAOYNA-N
Ontology: Biflavonoids and polyflavonoids
COLLISIONENERGY: 10
FORMULA: C30H26O12
RETENTIONTIME: 2.8429
IONMODE: Negative
Comment: registered in RIKEN PlaSMA
Num Peaks: 54
125.02327	75
161.01927	6
161.02614	12
273.03183	9
273.6503	6
287.04791	45
287.05789	33
287.07401	7
287.78741	9
288.04868	18
288.08316	9
289.06845	208
290.06467	23
290.07629	23
291.07321	9
299.0549	15
299.37781	11
300.05826	8
301.67853	7
304.98474	10
330.06448	16
407.06747	97
407.08414	100
408.08142	43
408.09167	15
408.1188	9
409.08124	9
409.09372	7
423.07935	16
425.08676	420
425.11719	12
426.06552	9
426.08746	76
427.08511	8
428.08044	9
428.09714	10
449.09445	7
450.07425	8
450.09692	7
451.10388	125
451.11581	43
452.10141	6
453.11371	8
559.11658	18
559.13794	8
560.12323	15
561.13165	23
567.04077	9
575.10986	21
576.09601	10
576.11255	38
576.14362	14
577.08801	8
577.13123	1000

NAME: isookanin-7-O-glucoside
PRECURSORMZ: 449.10893504783
PRECURSORTYPE: [M-H]-
INSTRUMENTTYPE: LC-ESI-QTOF
SMILES: OCC1OC(OC2=C(O)C3=C(C=C2)C(=O)CC(O3)C2=CC(O)=C(O)C=C2)C(O)C(O)C1O
INCHIKEY: DGGOLFCPSUVVHX-UHFFFAOYNA-N
Ontology: Flavonoid-7-O-glycosides
COLLISIONENERGY: 10
FORMULA: C21H22O11
RETENTIONTIME: 3.482733
IONMODE: Negative
Comment: registered in RIKEN PlaSMA
Num Peaks: 12
151.0018	15
269.0441	9
285.03784	7
286.04599	7
287.05341	407
288.05774	66
289.05948	16
313.05054	12
431.09689	34
432.10107	14
448.08835	7
449.10767	1000

NAME: Quercetin-3-O-vicianoside
PRECURSORMZ: 595.13045834783
PRECURSORTYPE: [M-H]-
INSTRUMENTTYPE: LC-ESI-QTOF
SMILES: OC1COC(OCC2OC(OC3=C(OC4=CC(O)=CC(O)=C4C3=O)C3=CC(O)=C(O)C=C3)C(O)C(O)C2O)C(O)C1O
INCHIKEY: YNMFDPCLPIMRFD-UHFFFAOYNA-N
Ontology: Flavonoid-3-O-glycosides
COLLISIONENERGY: 10
FORMULA: C26H28O16
RETENTIONTIME: 3.695633
IONMODE: Negative
Comment: registered in RIKEN PlaSMA
Num Peaks: 6
300.02338	10
301.03281	32
593.09979	9
593.12671	13
594.11987	13
595.12872	1000

NAME: Apigenin-7-O-glucoside
PRECURSORMZ: 431.09837034783
PRECURSORTYPE: [M-H]-
INSTRUMENTTYPE: LC-ESI-QTOF
SMILES: OCC1OC(OC2=CC(O)=C3C(=O)C=C(OC3=C2)C2=CC=C(O)C=C2)C(O)C(O)C1O
INCHIKEY: KMOUJOKENFFTPU-UHFFFAOYNA-N
Ontology: Flavonoid-7-O-glycosides
COLLISIONENERGY: 10
FORMULA: C21H20O10
RETENTIONTIME: 4.446617
IONMODE: Negative
Comment: registered in RIKEN PlaSMA
Num Peaks: 2
269.04614	29
431.09778	1000

NAME: 3,4-Dimethoxycinnamic acid
PRECURSORMZ: 207.06628244783
PRECURSORTYPE: [M-H]-
INSTRUMENTTYPE: LC-ESI-QTOF
SMILES: COC1=C(OC)C=C(C=CC(O)=O)C=C1
INCHIKEY: HJBWJAPEBGSQPR-UHFFFAOYSA-N
Ontology: Coumaric acids and derivatives
COLLISIONENERGY: 10
FORMULA: C11H12O4
RETENTIONTIME: 5.186817
IONMODE: Negative
Comment: registered in RIKEN PlaSMA
Num Peaks: 19
74.14126	14
103.05347	492
103.06561	16
104.05478	40
104.06235	24
105.07537	12
115.05495	31
119.04564	7
131.04546	57
133.06201	103
134.78142	9
147.03786	11
149.05984	8
163.07521	141
163.08298	26
164.08763	11
192.04173	20
206.61949	9
207.06499	1000

NAME: Sakuranetin
PRECURSORMZ: 285.07684714783
PRECURSORTYPE: [M-H]-
INSTRUMENTTYPE: LC-ESI-QTOF
SMILES: COC1=CC(O)=C2C(=O)CC(OC2=C1)C1=CC=C(O)C=C1
INCHIKEY: DJOJDHGQRNZXQQ-UHFFFAOYNA-N
Ontology: 7-O-methylated flavonoids
COLLISIONENERGY: 10
FORMULA: C16H14O5
RETENTIONTIME: 7.422333
IONMODE: Negative
Comment: registered in RIKEN PlaSMA
Num Peaks: 10
93.03341	52
119.04934	96
120.0532	11
121.03221	6
145.02745	8
165.01839	542
166.02092	36
166.02751	16
191.03511	17
285.07642	1000

NAME: Procyanidin B1
PRECURSORMZ: 577.13514984783
PRECURSORTYPE: [M-H]-
INSTRUMENTTYPE: LC-ESI-QTOF
SMILES: OC1CC2=C(OC1C1=CC(O)=C(O)C=C1)C(C1C(O)C(OC3=CC(O)=CC(O)=C13)C1=CC(O)=C(O)C=C1)=C(O)C=C2O
INCHIKEY: XFZJEEAOWLFHDH-UHFFFAOYNA-N
Ontology: Biflavonoids and polyflavonoids
COLLISIONENERGY: 30
FORMULA: C30H26O12
RETENTIONTIME: 2.8429
IONMODE: Negative
Comment: registered in RIKEN PlaSMA
Num Peaks: 115
109.02724	50
118.32349	22
123.04828	34
125.02402	1000
126.03351	53
127.02477	23
133.03065	36
133.68933	42
137.01613	65
137.02144	174
138.01779	38
149.02371	70
151.0349	61
151.04181	76
154.69031	23
161.02245	317
161.03578	53
161.06451	56
162.02853	67
163.02727	27
163.04628	31
165.01257	24
165.01828	40
167.03107	22
175.04044	47
177.01694	23
177.0576	28
178.02744	53
179.03287	89
180.03896	57
187.03976	117
188.04318	107
191.02969	25
194.05836	22
201.06017	24
203.03113	28
203.06764	192
204.06975	56
205.05023	203
206.05133	68
212.92644	31
214.05777	22
215.04045	33
217.00534	44
217.08534	68
221.07607	27
222.07681	39
229.0081	30
229.04387	23
229.0515	69
229.09601	22
237.05763	28
241.0527	23
243.06224	27
245.04317	56
245.08241	255
246.05377	27
246.08833	31
247.06233	55
256.03455	83
256.0498	32
256.96136	22
257.04263	49
259.73886	28
260.06366	28
269.04788	38
271.05618	33
271.06586	20
273.03979	67
273.04935	34
275.05234	22
281.05408	57
282.02292	26
283.02347	88
283.03802	25
284.02621	27
285.02811	34
285.04044	52
285.06445	27
287.03592	24
287.04996	23
289.06976	665
290.07251	43
290.08395	84
296.10492	43
299.04843	23
299.06577	47
300.05487	26
301.47226	55
310.04282	27
313.0257	27
337.10733	22
339.05911	36
339.07388	76
339.09543	42
340.08307	33
341.06097	38
341.0802	24
343.10986	22
347.07001	47
357.0914	20
357.10269	25
381.09375	23
389.06024	39
397.09042	25
407.0509	24
407.0802	552
407.10394	49
408.0816	217
409.0528	34
409.07266	33
409.09293	66
422.11496	24
423.11606	23
425.0816	23

NAME: isookanin-7-O-glucoside
PRECURSORMZ: 449.10893504783
PRECURSORTYPE: [M-H]-
INSTRUMENTTYPE: LC-ESI-QTOF
SMILES: OCC1OC(OC2=C(O)C3=C(C=C2)C(=O)CC(O3)C2=CC(O)=C(O)C=C2)C(O)C(O)C1O
INCHIKEY: DGGOLFCPSUVVHX-UHFFFAOYNA-N
Ontology: Flavonoid-7-O-glycosides
COLLISIONENERGY: 30
FORMULA: C21H22O11
RETENTIONTIME: 3.482733
IONMODE: Negative
Comment: registered in RIKEN PlaSMA
Num Peaks: 23
107.01302	25
109.02674	6
123.00806	52
124.01101	12
133.0298	9
134.03555	9
135.04378	1000
136.04832	94
137.0564	6
145.02727	11
149.99791	27
151.00211	756
152.00594	57
213.04904	12
241.04622	7
243.06647	8
268.04041	17
269.0437	113
270.04535	20
286.03815	7
286.05301	12
287.05112	58
288.06152	15

NAME: Quercetin-3-O-vicianoside
PRECURSORMZ: 595.13045834783
PRECURSORTYPE: [M-H]-
INSTRUMENTTYPE: LC-ESI-QTOF
SMILES: OC1COC(OCC2OC(OC3=C(OC4=CC(O)=CC(O)=C4C3=O)C3=CC(O)=C(O)C=C3)C(O)C(O)C2O)C(O)C1O
INCHIKEY: YNMFDPCLPIMRFD-UHFFFAOYNA-N
Ontology: Flavonoid-3-O-glycosides
COLLISIONENERGY: 30
FORMULA: C26H28O16
RETENTIONTIME: 3.695633
IONMODE: Negative
Comment: registered in RIKEN PlaSMA
Num Peaks: 22
150.99529	23
151.00076	58
152.00674	7
169.01497	6
178.99387	25
179.00247	22
211.04097	9
255.02806	33
255.05751	6
271.01984	31
271.03214	18
272.02551	8
272.03784	5
283.02332	6
289.42343	5
299.01651	17
300.02737	1000
301.0343	645
302.03656	81
303.03601	10
343.0437	5
595.13312	107

NAME: Apigenin-7-O-glucoside
PRECURSORMZ: 431.09837034783
PRECURSORTYPE: [M-H]-
INSTRUMENTTYPE: LC-ESI-QTOF
SMILES: OCC1OC(OC2=CC(O)=C3C(=O)C=C(OC3=C2)C2=CC=C(O)C=C2)C(O)C(O)C1O
INCHIKEY: KMOUJOKENFFTPU-UHFFFAOYNA-N
Ontology: Flavonoid-7-O-glycosides
COLLISIONENERGY: 30
FORMULA: C21H20O10
RETENTIONTIME: 4.446617
IONMODE: Negative
Comment: registered in RIKEN PlaSMA
Num Peaks: 10
107.01244	6
151.00398	13
225.05629	5
240.04037	12
268.03564	1000
269.0415	405
270.04559	57
283.05536	5
311.04849	5
431.09253	40

NAME: 3,4-Dimethoxycinnamic acid
PRECURSORMZ: 207.06628244783
PRECURSORTYPE: [M-H]-
INSTRUMENTTYPE: LC-ESI-QTOF
SMILES: COC1=C(OC)C=C(C=CC(O)=O)C=C1
INCHIKEY: HJBWJAPEBGSQPR-UHFFFAOYSA-N
Ontology: Coumaric acids and derivatives
COLLISIONENERGY: 30
FORMULA: C11H12O4
RETENTIONTIME: 5.186817
IONMODE: Negative
Comment: registered in RIKEN PlaSMA
Num Peaks: 2
103.05181	1000
132.02264	610

NAME: Sakuranetin
PRECURSORMZ: 285.07684714783
PRECURSORTYPE: [M-H]-
INSTRUMENTTYPE: LC-ESI-QTOF
SMILES: COC1=CC(O)=C2C(=O)CC(OC2=C1)C1=CC=C(O)C=C1
INCHIKEY: DJOJDHGQRNZXQQ-UHFFFAOYNA-N
Ontology: 7-O-methylated flavonoids
COLLISIONENERGY: 30
FORMULA: C16H14O5
RETENTIONTIME: 7.422333
IONMODE: Negative
Comment: registered in RIKEN PlaSMA
Num Peaks: 22
64.99852	8
65.00243	27
89.00182	40
89.01347	5
91.02237	15
93.03367	46
94.00351	26
97.02734	87
108.01937	13
119.0486	1000
120.05286	93
121.0272	50
121.05409	5
121.99745	31
136.01425	10
149.99374	74
150.99924	8
164.0117	10
165.01195	13
165.0191	35
180.05598	10
195.04271	10

NAME: Procyanidin B1
PRECURSORMZ: 577.13514984783
PRECURSORTYPE: [M-H]-
INSTRUMENTTYPE: LC-ESI-QTOF
SMILES: OC1CC2=C(OC1C1=CC(O)=C(O)C=C1)C(C1C(O)C(OC3=CC(O)=CC(O)=C13)C1=CC(O)=C(O)C=C1)=C(O)C=C2O
INCHIKEY: XFZJEEAOWLFHDH-UHFFFAOYNA-N
Ontology: Biflavonoids and polyflavonoids
COLLISIONENERGY: 50
FORMULA: C30H26O12
RETENTIONTIME: 2.8429
IONMODE: Negative
Comment: registered in RIKEN PlaSMA
Num Peaks: 78
65.03896	52
96.04825	52
103.04814	91
109.02571	101
120.01481	58
121.0256	58
121.03256	60
123.01077	49
123.04013	132
123.04565	122
125.02328	1000
127.02821	47
131.04771	60
133.02133	115
136.05009	43
137.02153	243
138.0369	49
145.02397	47
149.02931	68
150.03265	56
151.03796	322
151.04317	151
152.04262	60
159.04254	91
160.05185	146
161.02834	151
163.00378	47
163.03506	76
163.04182	80
163.06645	45
164.00868	148
173.02477	56
174.03098	58
175.04201	159
175.07063	47
175.07773	49
177.02075	111
178.01758	68
179.03648	70
185.06015	70
187.04333	89
187.48848	62
188.03999	37
190.03075	60
192.03371	41
199.0443	43
200.00375	72
200.03986	54
200.05168	41
202.05608	37
202.06311	107
203.04582	62
203.07343	56
205.04262	43
211.03259	49
213.05084	91
215.04211	70
217.04884	45
221.07335	78
223.03064	41
223.09894	37
227.03256	113
228.04784	62
245.08305	49
246.07481	47
247.09117	45
252.39899	37
253.05777	70
255.02957	293
255.03671	93
256.03494	175
257.04691	41
258.03378	37
269.02448	74
281.04404	43
293.07117	54
297.07343	43
317.03427	85

NAME: isookanin-7-O-glucoside
PRECURSORMZ: 449.10893504783
PRECURSORTYPE: [M-H]-
INSTRUMENTTYPE: LC-ESI-QTOF
SMILES: OCC1OC(OC2=C(O)C3=C(C=C2)C(=O)CC(O3)C2=CC(O)=C(O)C=C2)C(O)C(O)C1O
INCHIKEY: DGGOLFCPSUVVHX-UHFFFAOYNA-N
Ontology: Flavonoid-7-O-glycosides
COLLISIONENERGY: 50
FORMULA: C21H22O11
RETENTIONTIME: 3.482733
IONMODE: Negative
Comment: registered in RIKEN PlaSMA
Num Peaks: 21
79.01565	14
79.05183	5
94.00081	5
95.01247	32
107.01193	76
117.0345	7
123.00834	138
125.01944	7
134.0378	52
135.04326	1000
136.04697	133
137.05026	8
137.15669	6
149.98921	7
151.00182	109
151.01694	6
152.00653	6
152.01607	13
175.03688	5
212.03763	5
241.04062	5

NAME: Quercetin-3-O-vicianoside
PRECURSORMZ: 595.13045834783
PRECURSORTYPE: [M-H]-
INSTRUMENTTYPE: LC-ESI-QTOF
SMILES: OC1COC(OCC2OC(OC3=C(OC4=CC(O)=CC(O)=C4C3=O)C3=CC(O)=C(O)C=C3)C(O)C(O)C2O)C(O)C1O
INCHIKEY: YNMFDPCLPIMRFD-UHFFFAOYNA-N
Ontology: Flavonoid-3-O-glycosides
COLLISIONENERGY: 50
FORMULA: C26H28O16
RETENTIONTIME: 3.695633
IONMODE: Negative
Comment: registered in RIKEN PlaSMA
Num Peaks: 74
65.00178	6
106.05915	5
107.01072	27
108.02178	7
109.01939	5
109.02513	8
109.03119	12
119.00961	5
121.02299	9
121.03167	8
123.03438	6
123.0486	7
136.01054	7
139.05423	5
147.01382	7
148.01817	18
151.00365	131
152.00897	17
163.00298	20
164.01109	23
170.0368	10
174.03601	17
178.97087	7
178.99855	55
183.04482	12
189.05304	7
192.00214	8
197.02721	8
198.99197	6
199.04265	5
201.01399	5
202.02452	7
203.0206	5
211.0304	19
211.04546	13
212.04765	13
215.02789	12
216.03604	16
216.0482	11
226.02016	23
226.05075	5
227.02766	22
227.03586	35
227.19473	6
229.04277	9
230.05013	6
230.06595	6
231.02766	5
239.03526	10
241.0117	13
243.02823	166
244.036	32
245.04582	24
254.02138	26
254.03317	11
255.03036	391
256.02563	49
256.03723	55
256.05359	10
257.04092	6
261.58347	5
265.41162	5
271.02393	1000
272.02847	145
272.04993	7
273.02167	12
273.0351	11
299.02066	16
300.02686	293
301.03134	52
302.0322	20
411.4115	5
447.3569	5
595.1311	62

NAME: Apigenin-7-O-glucoside
PRECURSORMZ: 431.09837034783
PRECURSORTYPE: [M-H]-
INSTRUMENTTYPE: LC-ESI-QTOF
SMILES: OCC1OC(OC2=CC(O)=C3C(=O)C=C(OC3=C2)C2=CC=C(O)C=C2)C(O)C(O)C1O
INCHIKEY: KMOUJOKENFFTPU-UHFFFAOYNA-N
Ontology: Flavonoid-7-O-glycosides
COLLISIONENERGY: 50
FORMULA: C21H20O10
RETENTIONTIME: 4.446617
IONMODE: Negative
Comment: registered in RIKEN PlaSMA
Num Peaks: 124
63.02248	33
65.00083	30
66.00658	7
76.45725	6
83.01036	49
87.02177	8
92.02389	12
92.9948	7
94.00935	18
104.03008	13
107.01154	224
108.01408	12
111.06419	6
112.97196	10
116.02908	9
117.03295	114
118.03419	17
120.026	25
121.02673	6
122.00143	13
122.99522	7
123.00795	28
126.0471	7
130.0399	7
131.04108	6
134.03899	9
135.00592	6
141.03708	6
142.03986	6
143.04318	17
143.05238	7
145.01761	8
147.01405	7
148.01428	42
149.02771	39
149.987	16
149.99342	46
151.00079	262
151.04997	6
152.00043	6
152.01286	9
153.00424	7
153.01237	9
154.03764	17
156.05678	16
157.05882	15
157.15227	6
159.04256	13
161.02142	6
166.0399	22
166.04715	8
166.40082	6
167.04576	43
167.05457	29
168.0524	24
169.05818	12
171.03825	44
171.04549	88
172.05318	26
174.05879	7
175.02501	6
179.04568	6
180.04262	9
180.05368	25
181.0677	7
182.03484	32
183.03622	10
183.04608	67
184.04883	44
184.05684	32
185.01814	8
185.02571	9
185.05051	15
185.05843	7
186.06308	6
194.03217	11
195.03799	42
195.05402	37
195.99754	9
196.05157	56
197.01564	6
197.0322	6
198.03159	14
199.02263	6
199.03848	45
200.04495	51
201.04974	7
202.04997	7
207.05661	9
210.0352	6
211.0182	6
211.03683	376
212.04086	80
212.049	68
213.03238	7
213.04224	16
213.05092	14
214.02528	7
223.0378	35
223.04929	7
224.04671	6
225.04451	14
227.02068	6
227.03581	20
239.03287	343
240.03955	312
240.9192	9
241.04834	88
242.06213	8
245.17682	6
250.03035	6
251.03349	16
264.42923	12
267.01282	13
267.0314	99
268.03619	1000
269.04025	195
269.06293	7
270.04926	8
271.05667	10
279.26489	8
307.06229	7
307.4054	12
307.72296	8

NAME: Sakuranetin
PRECURSORMZ: 285.07684714783
PRECURSORTYPE: [M-H]-
INSTRUMENTTYPE: LC-ESI-QTOF
SMILES: COC1=CC(O)=C2C(=O)CC(OC2=C1)C1=CC=C(O)C=C1
INCHIKEY: DJOJDHGQRNZXQQ-UHFFFAOYNA-N
Ontology: 7-O-methylated flavonoids
COLLISIONENERGY: 50
FORMULA: C16H14O5
RETENTIONTIME: 7.422333
IONMODE: Negative
Comment: registered in RIKEN PlaSMA
Num Peaks: 17
62.28524	10
65.00336	11
78.00597	12
89.00285	39
91.0519	28
93.0337	71
94.00069	11
94.00658	10
117.03348	43
118.0391	11
119.03383	17
119.04792	1000
120.0517	81
120.10445	10
143.0527	11
150.00601	12
249.175	23

NAME: Kaempferol-3-O-rhamnoside-7-O-rhamnoside
PRECURSORMZ: 577.15627914783
PRECURSORTYPE: [M-H]-
INSTRUMENTTYPE: LC-ESI-QTOF
SMILES: CC1OC(OC2=CC(O)=C3C(=O)C(OC4OC(C)C(O)C(O)C4O)=C(OC3=C2)C2=CC=C(O)C=C2)C(O)C(O)C1O
INCHIKEY: PUPKKEQDLNREIM-UHFFFAOYNA-N
Ontology: Flavonoid-7-O-glycosides
COLLISIONENERGY: 10
FORMULA: C27H30O14
RETENTIONTIME: 3.952833
IONMODE: Negative
Comment: registered in RIKEN PlaSMA
Num Peaks: 19
189.05861	10
213.0453	6
214.02927	6
255.03096	25
257.04333	6
283.02252	350
284.02255	63
285.03876	757
286.04337	179
287.04004	7
287.04956	11
288.05173	6
430.08688	133
431.09546	462
432.10004	93
433.09152	14
433.10696	11
434.10751	5
577.15454	1000

NAME: Eriodictyol-7-O-neohesperidoside
PRECURSORMZ: 595.16684384783
PRECURSORTYPE: [M-H]-
INSTRUMENTTYPE: LC-ESI-QTOF
SMILES: CC1OC(OC2C(O)C(O)C(CO)OC2OC2=CC(O)=C3C(=O)CC(OC3=C2)C2=CC(O)=C(O)C=C2)C(O)C(O)C1O
INCHIKEY: OBKKEZLIABHSGY-UHFFFAOYNA-N
Ontology: Flavonoid-7-O-glycosides
COLLISIONENERGY: 10
FORMULA: C27H32O15
RETENTIONTIME: 4.035367
IONMODE: Negative
Comment: registered in RIKEN PlaSMA
Num Peaks: 31
107.01532	9
135.04329	121
135.05429	9
136.04808	11
151.00175	329
152.00327	7
161.02289	20
164.0101	6
175.00081	8
177.02411	8
193.01012	25
201.0247	8
205.00978	19
211.02615	7
235.02454	46
285.03937	15
287.04971	40
295.04016	10
296.04251	7
311.05322	6
339.06387	23
340.07397	6
357.08105	12
441.09479	9
442.10413	6
459.1152	256
460.1181	59
461.11292	9
473.11533	6
594.14429	17
595.16577	1000

NAME: Okanin-4'-O-glucoside
PRECURSORMZ: 449.10893504783
PRECURSORTYPE: [M-H]-
INSTRUMENTTYPE: LC-ESI-QTOF
SMILES: OCC1OC(OC2=C(O)C(O)=C(C=C2)C(=O)C=CC2=CC(O)=C(O)C=C2)C(O)C(O)C1O
INCHIKEY: XGEYXJDOVMEJNG-UHFFFAOYNA-N
Ontology: Flavonoid O-glycosides
COLLISIONENERGY: 10
FORMULA: C21H22O11
RETENTIONTIME: 4.082684
IONMODE: Negative
Comment: registered in RIKEN PlaSMA
Num Peaks: 55
107.01117	11
107.0171	5
123.00641	32
134.03337	8
135.04326	763
136.04626	84
145.0287	14
149.98755	12
149.99486	15
151.00169	766
152.00084	26
152.00859	14
153.0209	7
161.02148	17
163.00194	6
169.0119	42
171.01762	5
177.01843	7
191.02281	6
213.04926	5
217.78391	6
241.04601	21
241.05487	10
243.05841	7
244.06934	8
267.02994	6
268.034	10
268.04523	26
269.04486	110
270.04456	14
270.05637	18
285.03522	13
285.04581	43
286.04153	20
286.05441	16
287.05511	1000
288.05869	199
289.06271	17
290.00641	5
313.04556	19
313.06281	24
314.05844	7
358.10034	7
367.68176	7
396.32233	7
402.9794	8
419.63663	5
431.10242	100
432.10593	28
433.10556	6
447.09119	6
448.08057	7
448.10138	5
448.11679	9
449.10825	864

NAME: Kaempferol-3-O-rhamnoside
PRECURSORMZ: 431.09837034783
PRECURSORTYPE: [M-H]-
INSTRUMENTTYPE: LC-ESI-QTOF
SMILES: CC1OC(OC2=C(OC3=CC(O)=CC(O)=C3C2=O)C2=CC=C(O)C=C2)C(O)C(O)C1O
INCHIKEY: SOSLMHZOJATCCP-UHFFFAOYNA-N
Ontology: Flavonoid-3-O-glycosides
COLLISIONENERGY: 10
FORMULA: C21H20O10
RETENTIONTIME: 4.714167
IONMODE: Negative
Comment: registered in RIKEN PlaSMA
Num Peaks: 32
135.01001	6
162.99725	6
163.00426	11
185.05827	22
187.04099	20
189.05482	5
195.04192	5
197.05284	5
211.03607	6
212.04617	12
213.04663	6
223.03331	7
227.03374	221
228.03555	38
229.04866	58
230.05081	5
239.03331	16
240.04837	6
241.05154	10
255.02887	386
256.02951	51
256.03839	41
257.04004	42
257.05481	7
258.04593	11
267.02884	8
284.03067	506
285.03854	1000
286.03989	177
287.04312	17
287.05902	6
431.09686	860

NAME: Cyanidin
PRECURSORMZ: 285.03991301576
PRECURSORTYPE: [M-2H]-
INSTRUMENTTYPE: LC-ESI-QTOF
SMILES: OC1=CC2=[O+]C(=C(O)C=C2C(O)=C1)C1=CC(O)=C(O)C=C1
INCHIKEY: VEVZSMAEJFVWIL-UHFFFAOYSA-O
Ontology: 7-hydroxyflavonoids
COLLISIONENERGY: 10
FORMULA: C15H11O6
RETENTIONTIME: 6.012067
IONMODE: Negative
Comment: registered in RIKEN PlaSMA
Num Peaks: 31
93.03559	21
105.0365	13
108.01939	11
109.02907	23
109.03435	10
117.03296	37
117.03954	11
133.03085	22
135.01498	23
141.0302	11
155.04523	23
155.05281	28
156.05911	11
159.04428	13
161.06592	12
164.01103	10
167.04703	16
169.06929	29
182.03404	24
186.0625	22
187.0285	11
190.05966	16
195.04428	10
211.03601	37
213.05438	25
214.02446	13
229.05084	23
239.04178	12
243.0274	13
283.02832	10
285.03937	1000

NAME: 3,5-Dimethoxycinnamic acid
PRECURSORMZ: 207.06628244783
PRECURSORTYPE: [M-H]-
INSTRUMENTTYPE: LC-ESI-QTOF
SMILES: COC1=CC(C=CC(O)=O)=CC(OC)=C1
INCHIKEY: VLSRUFWCGBMYDJ-UHFFFAOYSA-N
Ontology: Coumaric acids and derivatives
COLLISIONENERGY: 10
FORMULA: C11H12O4
RETENTIONTIME: 6.25115
IONMODE: Negative
Comment: registered in RIKEN PlaSMA
Num Peaks: 24
103.05237	34
104.05625	10
105.07395	19
117.07024	10
118.0343	18
118.03975	24
119.04442	15
120.05428	10
131.0488	65
133.06421	1000
134.06715	137
147.04343	22
148.04115	11
148.05569	10
161.05301	12
161.06023	15
161.06822	12
163.04468	10
163.07027	21
163.07587	59
163.08765	16
164.07954	38
166.08453	9
207.06493	404

NAME: Kaempferol-3-O-rhamnoside-7-O-rhamnoside
PRECURSORMZ: 577.15627914783
PRECURSORTYPE: [M-H]-
INSTRUMENTTYPE: LC-ESI-QTOF
SMILES: CC1OC(OC2=CC(O)=C3C(=O)C(OC4OC(C)C(O)C(O)C4O)=C(OC3=C2)C2=CC=C(O)C=C2)C(O)C(O)C1O
INCHIKEY: PUPKKEQDLNREIM-UHFFFAOYNA-N
Ontology: Flavonoid-7-O-glycosides
COLLISIONENERGY: 10
FORMULA: C27H30O14
RETENTIONTIME: 3.952833
IONMODE: Negative
Comment: registered in RIKEN PlaSMA
Num Peaks: 5
285.0386	11
431.09537	107
432.09879	23
432.10977	7
577.15631	1000

NAME: Eriodictyol-7-O-neohesperidoside
PRECURSORMZ: 595.16684384783
PRECURSORTYPE: [M-H]-
INSTRUMENTTYPE: LC-ESI-QTOF
SMILES: CC1OC(OC2C(O)C(O)C(CO)OC2OC2=CC(O)=C3C(=O)CC(OC3=C2)C2=CC(O)=C(O)C=C2)C(O)C(O)C1O
INCHIKEY: OBKKEZLIABHSGY-UHFFFAOYNA-N
Ontology: Flavonoid-7-O-glycosides
COLLISIONENERGY: 10
FORMULA: C27H32O15
RETENTIONTIME: 4.035367
IONMODE: Negative
Comment: registered in RIKEN PlaSMA
Num Peaks: 4
459.1153	43
460.11276	5
593.15033	13
595.16638	1000

NAME: Okanin-4'-O-glucoside
PRECURSORMZ: 449.10893504783
PRECURSORTYPE: [M-H]-
INSTRUMENTTYPE: LC-ESI-QTOF
SMILES: OCC1OC(OC2=C(O)C(O)=C(C=C2)C(=O)C=CC2=CC(O)=C(O)C=C2)C(O)C(O)C1O
INCHIKEY: XGEYXJDOVMEJNG-UHFFFAOYNA-N
Ontology: Flavonoid O-glycosides
COLLISIONENERGY: 10
FORMULA: C21H22O11
RETENTIONTIME: 4.082684
IONMODE: Negative
Comment: registered in RIKEN PlaSMA
Num Peaks: 15
135.04224	7
151.00261	16
269.03537	6
269.04694	5
285.03995	13
286.04755	11
287.05478	502
288.05768	80
289.05899	14
313.05176	20
431.09238	23
431.10834	17
432.09378	7
448.09366	7
449.10736	1000

NAME: Kaempferol-3-O-rhamnoside
PRECURSORMZ: 431.09837034783
PRECURSORTYPE: [M-H]-
INSTRUMENTTYPE: LC-ESI-QTOF
SMILES: CC1OC(OC2=C(OC3=CC(O)=CC(O)=C3C2=O)C2=CC=C(O)C=C2)C(O)C(O)C1O
INCHIKEY: SOSLMHZOJATCCP-UHFFFAOYNA-N
Ontology: Flavonoid-3-O-glycosides
COLLISIONENERGY: 10
FORMULA: C21H20O10
RETENTIONTIME: 4.714167
IONMODE: Negative
Comment: registered in RIKEN PlaSMA
Num Peaks: 5
284.02893	42
285.03851	336
286.04474	53
287.0481	6
431.09692	1000

NAME: Cyanidin
PRECURSORMZ: 285.03991301576
PRECURSORTYPE: [M-2H]-
INSTRUMENTTYPE: LC-ESI-QTOF
SMILES: OC1=CC2=[O+]C(=C(O)C=C2C(O)=C1)C1=CC(O)=C(O)C=C1
INCHIKEY: VEVZSMAEJFVWIL-UHFFFAOYSA-O
Ontology: 7-hydroxyflavonoids
COLLISIONENERGY: 10
FORMULA: C15H11O6
RETENTIONTIME: 6.012067
IONMODE: Negative
Comment: registered in RIKEN PlaSMA
Num Peaks: 8
65.65268	6
137.02513	6
150.99689	17
163.00511	7
199.03954	6
239.03027	7
284.0278	5
285.03848	1000

NAME: 3,5-Dimethoxycinnamic acid
PRECURSORMZ: 207.06628244783
PRECURSORTYPE: [M-H]-
INSTRUMENTTYPE: LC-ESI-QTOF
SMILES: COC1=CC(C=CC(O)=O)=CC(OC)=C1
INCHIKEY: VLSRUFWCGBMYDJ-UHFFFAOYSA-N
Ontology: Coumaric acids and derivatives
COLLISIONENERGY: 10
FORMULA: C11H12O4
RETENTIONTIME: 6.25115
IONMODE: Negative
Comment: registered in RIKEN PlaSMA
Num Peaks: 16
103.05544	60
105.07197	7
120.05284	7
131.04832	24
132.9599	6
133.06456	1000
134.06664	113
147.04364	8
148.05254	42
161.06427	13
163.07401	221
164.07593	5
165.10208	6
177.05608	5
207.06488	785
207.08812	7

NAME: Kaempferol-3-O-rhamnoside-7-O-rhamnoside
PRECURSORMZ: 577.15627914783
PRECURSORTYPE: [M-H]-
INSTRUMENTTYPE: LC-ESI-QTOF
SMILES: CC1OC(OC2=CC(O)=C3C(=O)C(OC4OC(C)C(O)C(O)C4O)=C(OC3=C2)C2=CC=C(O)C=C2)C(O)C(O)C1O
INCHIKEY: PUPKKEQDLNREIM-UHFFFAOYNA-N
Ontology: Flavonoid-7-O-glycosides
COLLISIONENERGY: 30
FORMULA: C27H30O14
RETENTIONTIME: 3.952833
IONMODE: Negative
Comment: registered in RIKEN PlaSMA
Num Peaks: 13
257.04126	6
283.02469	279
284.03073	73
285.04013	1000
286.0434	178
287.03973	9
287.05084	10
430.09158	163
430.10553	47
431.09827	178
432.10446	30
432.12271	9
433.10678	8

NAME: Eriodictyol-7-O-neohesperidoside
PRECURSORMZ: 595.16684384783
PRECURSORTYPE: [M-H]-
INSTRUMENTTYPE: LC-ESI-QTOF
SMILES: CC1OC(OC2C(O)C(O)C(CO)OC2OC2=CC(O)=C3C(=O)CC(OC3=C2)C2=CC(O)=C(O)C=C2)C(O)C(O)C1O
INCHIKEY: OBKKEZLIABHSGY-UHFFFAOYNA-N
Ontology: Flavonoid-7-O-glycosides
COLLISIONENERGY: 30
FORMULA: C27H32O15
RETENTIONTIME: 4.035367
IONMODE: Negative
Comment: registered in RIKEN PlaSMA
Num Peaks: 47
71.0135	5
107.01254	12
109.02784	11
125.02042	13
135.04395	309
136.04536	31
151.00227	1000
152.00594	67
153.00249	11
161.02113	25
174.99989	43
175.0092	17
177.02267	21
193.01317	106
194.01443	17
194.02406	10
201.0161	7
205.01218	42
217.01398	22
235.02426	138
236.02827	14
242.05946	6
253.04109	11
258.05499	7
269.04315	21
277.03568	14
284.02563	7
285.04169	16
286.04089	15
287.05426	102
288.0607	18
295.0466	11
297.06229	12
329.06735	6
339.07446	79
340.07712	16
357.07468	10
357.08865	26
358.08115	8
441.10959	12
459.11313	239
460.11728	87
461.11441	11
461.13718	7
593.16296	9
595.14789	9
595.17609	41

NAME: Okanin-4'-O-glucoside
PRECURSORMZ: 449.10893504783
PRECURSORTYPE: [M-H]-
INSTRUMENTTYPE: LC-ESI-QTOF
SMILES: OCC1OC(OC2=C(O)C(O)=C(C=C2)C(=O)C=CC2=CC(O)=C(O)C=C2)C(O)C(O)C1O
INCHIKEY: XGEYXJDOVMEJNG-UHFFFAOYNA-N
Ontology: Flavonoid O-glycosides
COLLISIONENERGY: 30
FORMULA: C21H22O11
RETENTIONTIME: 4.082684
IONMODE: Negative
Comment: registered in RIKEN PlaSMA
Num Peaks: 30
107.01026	10
107.0167	8
123.00635	48
124.01515	13
125.02406	14
133.0264	9
135.04399	1000
136.04779	109
137.04762	8
137.05333	10
141.01543	5
149.99049	33
149.99899	9
151.00224	905
152.00165	30
152.0096	29
157.07567	5
212.04553	6
240.03271	6
240.04417	8
241.05183	13
251.03728	6
268.03378	6
269.04401	78
269.05252	24
270.03278	8
270.04593	9
285.03854	27
286.04514	11
287.05701	34

NAME: Kaempferol-3-O-rhamnoside
PRECURSORMZ: 431.09837034783
PRECURSORTYPE: [M-H]-
INSTRUMENTTYPE: LC-ESI-QTOF
SMILES: CC1OC(OC2=C(OC3=CC(O)=CC(O)=C3C2=O)C2=CC=C(O)C=C2)C(O)C(O)C1O
INCHIKEY: SOSLMHZOJATCCP-UHFFFAOYNA-N
Ontology: Flavonoid-3-O-glycosides
COLLISIONENERGY: 30
FORMULA: C21H20O10
RETENTIONTIME: 4.714167
IONMODE: Negative
Comment: registered in RIKEN PlaSMA
Num Peaks: 51
107.01064	12
135.00632	16
151.00301	20
155.05051	6
157.06346	5
163.0011	46
164.00798	7
165.01349	5
167.04619	11
169.0643	12
171.04225	9
173.02098	9
182.03026	5
183.04688	5
185.06239	10
187.0343	8
187.04166	8
189.05765	6
195.04684	6
196.0507	5
197.06085	17
198.03134	6
199.03647	15
201.0556	8
211.03433	25
211.04298	27
213.05211	14
213.0611	8
215.03807	8
227.0338	465
228.03136	45
228.03928	68
229.04826	204
230.05441	20
239.03404	20
239.04582	17
241.04634	24
255.02843	1000
255.05034	6
255.08421	5
256.03284	238
257.04208	133
257.05984	14
257.49039	5
258.04639	35
267.03067	17
284.03088	793
285.03931	767
286.04105	128
287.04391	18
431.09839	13

NAME: Cyanidin
PRECURSORMZ: 285.03991301576
PRECURSORTYPE: [M-2H]-
INSTRUMENTTYPE: LC-ESI-QTOF
SMILES: OC1=CC2=[O+]C(=C(O)C=C2C(O)=C1)C1=CC(O)=C(O)C=C1
INCHIKEY: VEVZSMAEJFVWIL-UHFFFAOYSA-O
Ontology: 7-hydroxyflavonoids
COLLISIONENERGY: 30
FORMULA: C15H11O6
RETENTIONTIME: 6.012067
IONMODE: Negative
Comment: registered in RIKEN PlaSMA
Num Peaks: 59
92.02407	153
92.99218	153
93.0298	109
93.03709	393
95.01125	115
107.00739	180
107.01347	306
115.05772	104
119.02039	115
120.02111	208
121.02676	137
123.00961	180
129.03204	115
133.03189	104
135.04533	104
136.01434	279
139.05109	142
141.03406	137
141.07326	115
143.04886	1000
143.22372	98
144.05406	158
145.02919	109
152.00536	164
154.03979	115
155.03738	131
155.05133	219
156.05206	268
157.02988	126
157.06377	197
159.0388	142
159.04935	339
161.01842	98
161.06129	137
162.99713	186
163.00278	120
167.04688	109
169.0621	109
169.07545	224
171.0408	262
173.05377	109
183.04739	148
184.05305	191
185.05724	158
187.03558	109
188.04518	104
191.0311	164
195.0529	126
211.03729	142
212.03947	109
213.01093	208
214.0228	137
215.0266	164
227.02541	109
228.04163	219
239.03526	98
240.04333	98
269.03879	120
285.02689	104

NAME: 3,5-Dimethoxycinnamic acid
PRECURSORMZ: 207.06628244783
PRECURSORTYPE: [M-H]-
INSTRUMENTTYPE: LC-ESI-QTOF
SMILES: COC1=CC(C=CC(O)=O)=CC(OC)=C1
INCHIKEY: VLSRUFWCGBMYDJ-UHFFFAOYSA-N
Ontology: Coumaric acids and derivatives
COLLISIONENERGY: 30
FORMULA: C11H12O4
RETENTIONTIME: 6.25115
IONMODE: Negative
Comment: registered in RIKEN PlaSMA
Num Peaks: 5
106.03954	63
118.03979	1000
119.04773	84
122.03125	98
147.03963	175

NAME: Kaempferol-3-O-rhamnoside-7-O-rhamnoside
PRECURSORMZ: 577.15627914783
PRECURSORTYPE: [M-H]-
INSTRUMENTTYPE: LC-ESI-QTOF
SMILES: CC1OC(OC2=CC(O)=C3C(=O)C(OC4OC(C)C(O)C(O)C4O)=C(OC3=C2)C2=CC=C(O)C=C2)C(O)C(O)C1O
INCHIKEY: PUPKKEQDLNREIM-UHFFFAOYNA-N
Ontology: Flavonoid-7-O-glycosides
COLLISIONENERGY: 50
FORMULA: C27H30O14
RETENTIONTIME: 3.952833
IONMODE: Negative
Comment: registered in RIKEN PlaSMA
Num Peaks: 75
93.02911	6
109.02625	13
131.05093	7
135.00764	20
136.01634	8
137.01964	5
143.04314	7
147.00877	9
151.00047	36
152.00615	6
154.03944	14
154.04442	26
155.04903	31
158.02901	5
159.04111	27
160.0452	6
160.05185	7
161.99535	5
163.00363	21
165.01707	41
168.05232	12
169.06207	72
182.0258	6
183.04051	22
183.04889	32
184.04633	13
184.05708	10
185.02507	14
185.05609	49
185.06412	15
186.0605	5
186.07141	10
187.03693	36
187.07599	6
188.03583	5
189.05327	44
195.0416	24
197.06042	17
198.02412	17
199.03854	29
211.03783	44
212.04265	12
213.04996	23
213.05873	16
214.02744	21
215.03461	30
218.04955	9
227.03636	142
228.02919	8
228.04135	11
229.04581	20
229.05424	16
239.03082	25
239.04112	10
240.04277	12
241.04498	15
241.06151	11
242.95833	6
243.03093	20
244.03566	8
255.02858	821
256.03381	117
256.26141	6
257.03448	30
257.04553	55
258.04437	7
258.0578	5
267.02515	8
271.07324	8
283.02341	1000
283.06738	5
284.02731	200
285.03842	665
286.04358	156
287.04221	9

NAME: Eriodictyol-7-O-neohesperidoside
PRECURSORMZ: 595.16684384783
PRECURSORTYPE: [M-H]-
INSTRUMENTTYPE: LC-ESI-QTOF
SMILES: CC1OC(OC2C(O)C(O)C(CO)OC2OC2=CC(O)=C3C(=O)CC(OC3=C2)C2=CC(O)=C(O)C=C2)C(O)C(O)C1O
INCHIKEY: OBKKEZLIABHSGY-UHFFFAOYNA-N
Ontology: Flavonoid-7-O-glycosides
COLLISIONENERGY: 50
FORMULA: C27H32O15
RETENTIONTIME: 4.035367
IONMODE: Negative
Comment: registered in RIKEN PlaSMA
Num Peaks: 47
65.00309	23
81.03205	11
81.03497	5
83.01238	36
107.01167	197
108.01432	18
108.99646	5
109.02724	37
117.03747	6
121.03088	8
125.02134	25
125.03017	5
132.45824	5
135.0016	7
135.04335	902
136.01163	25
136.01678	11
136.04721	64
137.02611	7
141.0674	6
150.94914	7
151.00182	1000
152.00552	92
153.00314	16
153.01291	21
161.01335	16
161.02458	18
164.0106	55
164.02271	5
165.00848	13
165.01823	11
165.03236	6
175.0007	23
178.01859	8
183.04807	12
187.03539	7
188.04346	5
201.04979	7
210.02959	5
225.05251	14
241.04865	17
257.03906	8
284.04172	6
285.02628	7
285.03928	8
285.04984	10
286.04166	10

NAME: Okanin-4'-O-glucoside
PRECURSORMZ: 449.10893504783
PRECURSORTYPE: [M-H]-
INSTRUMENTTYPE: LC-ESI-QTOF
SMILES: OCC1OC(OC2=C(O)C(O)=C(C=C2)C(=O)C=CC2=CC(O)=C(O)C=C2)C(O)C(O)C1O
INCHIKEY: XGEYXJDOVMEJNG-UHFFFAOYNA-N
Ontology: Flavonoid O-glycosides
COLLISIONENERGY: 50
FORMULA: C21H22O11
RETENTIONTIME: 4.082684
IONMODE: Negative
Comment: registered in RIKEN PlaSMA
Num Peaks: 17
58.93751	6
79.05248	13
94.00706	9
95.01451	21
107.01214	47
108.0243	16
117.03364	9
123.00769	99
134.03542	66
135.0437	1000
136.04675	85
137.02354	11
151.00009	65
171.04567	9
187.03024	7
211.03647	8
213.04671	6

NAME: Kaempferol-3-O-rhamnoside
PRECURSORMZ: 431.09837034783
PRECURSORTYPE: [M-H]-
INSTRUMENTTYPE: LC-ESI-QTOF
SMILES: CC1OC(OC2=C(OC3=CC(O)=CC(O)=C3C2=O)C2=CC=C(O)C=C2)C(O)C(O)C1O
INCHIKEY: SOSLMHZOJATCCP-UHFFFAOYNA-N
Ontology: Flavonoid-3-O-glycosides
COLLISIONENERGY: 50
FORMULA: C21H20O10
RETENTIONTIME: 4.714167
IONMODE: Negative
Comment: registered in RIKEN PlaSMA
Num Peaks: 75
83.0088	7
94.03711	6
103.0622	6
104.02466	5
105.03301	8
107.01133	44
108.01948	25
109.02082	5
117.03094	16
117.03799	10
120.01723	5
120.02319	9
129.03023	7
130.04257	12
131.04929	7
132.02382	30
133.02502	16
135.00616	22
136.00911	11
139.05331	6
143.04857	31
146.03383	7
151.00475	5
154.03998	9
155.04263	11
155.0488	34
156.06157	9
157.06415	18
158.03027	7
159.04739	45
163.00233	26
167.05214	32
171.0415	12
171.05009	17
172.04247	6
181.02184	6
182.03511	48
183.04533	235
183.19359	6
184.04814	37
184.05516	14
185.02393	105
185.04518	6
185.05568	16
186.01968	11
186.0295	6
187.03954	90
188.04433	9
195.03719	8
195.04483	14
199.03801	47
200.03279	6
200.04819	9
210.02068	8
210.03247	7
211.03912	184
212.04196	16
213.01758	40
214.0238	12
215.02589	5
227.03369	1000
228.03683	116
229.04619	48
229.05904	20
239.02826	7
239.03653	9
241.04211	7
254.03607	9
255.02895	626
256.03098	131
257.03119	12
257.04517	20
283.02747	11
284.02603	7
285.03534	14

NAME: Cyanidin
PRECURSORMZ: 285.03991301576
PRECURSORTYPE: [M-2H]-
INSTRUMENTTYPE: LC-ESI-QTOF
SMILES: OC1=CC2=[O+]C(=C(O)C=C2C(O)=C1)C1=CC(O)=C(O)C=C1
INCHIKEY: VEVZSMAEJFVWIL-UHFFFAOYSA-O
Ontology: 7-hydroxyflavonoids
COLLISIONENERGY: 50
FORMULA: C15H11O6
RETENTIONTIME: 6.012067
IONMODE: Negative
Comment: registered in RIKEN PlaSMA
Num Peaks: 11
65.00303	417
92.02518	383
93.03821	617
113.03737	383
119.01521	500
132.01926	333
139.05565	417
158.02982	550
173.02831	317
182.04018	1000
211.04599	483

NAME: 3,5-Dimethoxycinnamic acid
PRECURSORMZ: 207.06628244783
PRECURSORTYPE: [M-H]-
INSTRUMENTTYPE: LC-ESI-QTOF
SMILES: COC1=CC(C=CC(O)=O)=CC(OC)=C1
INCHIKEY: VLSRUFWCGBMYDJ-UHFFFAOYSA-N
Ontology: Coumaric acids and derivatives
COLLISIONENERGY: 50
FORMULA: C11H12O4
RETENTIONTIME: 6.25115
IONMODE: Negative
Comment: registered in RIKEN PlaSMA
Num Peaks: 2
105.03099	526
116.93085	1000

NAME: Kaempferol-3-O-rhamnoside-7-O-rhamnoside
PRECURSORMZ: 577.15627914783
PRECURSORTYPE: [M-H]-
INSTRUMENTTYPE: LC-ESI-QTOF
SMILES: CC1OC(OC2=CC(O)=C3C(=O)C(OC4OC(C)C(O)C(O)C4O)=C(OC3=C2)C2=CC=C(O)C=C2)C(O)C(O)C1O
INCHIKEY: PUPKKEQDLNREIM-UHFFFAOYNA-N
Ontology: Flavonoid-7-O-glycosides
COLLISIONENERGY: 10
FORMULA: C27H30O14
RETENTIONTIME: 3.952833
IONMODE: Negative
Comment: registered in RIKEN PlaSMA
Num Peaks: 19
151.00317	6
183.04781	5
213.05467	7
255.02826	32
256.0264	8
283.02325	300
284.02887	93
285.0386	753
286.04047	127
287.03607	14
321.86148	5
430.08807	178
431.09647	512
432.07904	6
432.10294	110
433.08905	6
433.11526	6
577.15485	1000
577.19751	6

NAME: Eriodictyol-7-O-neohesperidoside
PRECURSORMZ: 595.16684384783
PRECURSORTYPE: [M-H]-
INSTRUMENTTYPE: LC-ESI-QTOF
SMILES: CC1OC(OC2C(O)C(O)C(CO)OC2OC2=CC(O)=C3C(=O)CC(OC3=C2)C2=CC(O)=C(O)C=C2)C(O)C(O)C1O
INCHIKEY: OBKKEZLIABHSGY-UHFFFAOYNA-N
Ontology: Flavonoid-7-O-glycosides
COLLISIONENERGY: 10
FORMULA: C27H32O15
RETENTIONTIME: 4.035367
IONMODE: Negative
Comment: registered in RIKEN PlaSMA
Num Peaks: 33
107.01313	5
125.02222	12
135.04242	113
136.04248	19
136.04965	8
151.00221	344
152.00662	34
153.01079	5
161.02597	5
174.99777	12
175.007	5
177.01874	16
193.00641	17
193.01884	14
205.00981	9
217.01646	8
235.02267	72
236.02994	7
269.04272	8
285.03821	6
287.05432	76
288.05182	7
339.06848	35
357.07251	10
359.08688	5
441.08569	11
459.11349	305
460.12088	67
461.11786	12
577.16333	5
593.14246	14
594.1568	23
595.16565	1000

NAME: Okanin-4'-O-glucoside
PRECURSORMZ: 449.10893504783
PRECURSORTYPE: [M-H]-
INSTRUMENTTYPE: LC-ESI-QTOF
SMILES: OCC1OC(OC2=C(O)C(O)=C(C=C2)C(=O)C=CC2=CC(O)=C(O)C=C2)C(O)C(O)C1O
INCHIKEY: XGEYXJDOVMEJNG-UHFFFAOYNA-N
Ontology: Flavonoid O-glycosides
COLLISIONENERGY: 10
FORMULA: C21H22O11
RETENTIONTIME: 4.082684
IONMODE: Negative
Comment: registered in RIKEN PlaSMA
Num Peaks: 66
59.07441	5
66.52853	5
79.01591	5
95.01041	8
107.00965	18
123.00143	21
123.00799	30
124.00856	6
125.02502	5
134.03528	22
135.04277	737
136.04472	30
136.05113	25
137.02477	13
137.05029	5
149.99496	14
150.00168	6
151.00221	741
151.06476	8
152.00673	52
153.00021	6
154.9615	5
161.02754	16
165.01485	5
167.99927	9
169.01167	42
173.06013	6
176.14014	5
191.39499	12
193.01636	9
195.04745	8
214.29269	6
224.11441	5
225.05713	7
225.06909	6
229.0535	15
236.54178	6
239.04401	6
240.03935	12
241.04391	17
243.0567	11
266.07599	7
268.03864	9
269.04218	156
270.04501	44
272.01886	12
272.03799	5
272.06174	6
273.04089	7
278.03949	6
284.02582	5
285.04562	28
286.04895	28
287.0542	1000
287.73288	5
288.05725	174
289.05389	34
313.04922	37
313.06473	12
314.93967	5
389.01111	5
421.78198	6
431.06775	7
431.09894	113
448.10101	6
449.10886	814

NAME: Kaempferol-3-O-rhamnoside
PRECURSORMZ: 431.09837034783
PRECURSORTYPE: [M-H]-
INSTRUMENTTYPE: LC-ESI-QTOF
SMILES: CC1OC(OC2=C(OC3=CC(O)=CC(O)=C3C2=O)C2=CC=C(O)C=C2)C(O)C(O)C1O
INCHIKEY: SOSLMHZOJATCCP-UHFFFAOYNA-N
Ontology: Flavonoid-3-O-glycosides
COLLISIONENERGY: 10
FORMULA: C21H20O10
RETENTIONTIME: 4.714167
IONMODE: Negative
Comment: registered in RIKEN PlaSMA
Num Peaks: 34
135.00925	7
143.04878	6
151.00098	8
163.00343	7
174.03018	6
179.00325	7
183.03743	8
187.03828	10
195.04071	5
211.03542	14
212.03986	6
213.05099	13
227.03285	235
228.03056	9
228.0414	29
229.03653	13
229.05089	64
230.05118	8
239.03397	11
241.04765	7
255.02785	375
256.02637	38
256.03519	57
257.03046	10
257.04559	42
258.04346	6
258.0546	8
267.0206	7
284.0314	518
285.03735	1000
286.04129	170
287.03815	20
327.05042	8
431.0957	940

NAME: Cyanidin
PRECURSORMZ: 285.03991301576
PRECURSORTYPE: [M-2H]-
INSTRUMENTTYPE: LC-ESI-QTOF
SMILES: OC1=CC2=[O+]C(=C(O)C=C2C(O)=C1)C1=CC(O)=C(O)C=C1
INCHIKEY: VEVZSMAEJFVWIL-UHFFFAOYSA-O
Ontology: 7-hydroxyflavonoids
COLLISIONENERGY: 10
FORMULA: C15H11O6
RETENTIONTIME: 6.012067
IONMODE: Negative
Comment: registered in RIKEN PlaSMA
Num Peaks: 39
93.03505	15
107.01225	33
109.02464	13
117.03368	17
129.03433	12
131.05647	10
143.0667	10
148.01755	17
151.00487	19
154.0453	9
158.0343	26
159.03606	11
161.02081	9
161.03201	10
163.00244	11
164.00911	20
165.01974	12
167.04738	21
167.05515	20
169.06451	13
171.03705	17
183.05141	12
185.06047	10
188.0401	21
201.049	14
211.04103	10
211.04926	16
212.04099	9
214.03142	11
215.03415	14
227.04185	18
239.03073	38
240.04097	12
243.02122	14
245.03705	20
255.02007	19
256.02393	12
257.0441	13
285.03952	1000

NAME: 3,5-Dimethoxycinnamic acid
PRECURSORMZ: 207.06628244783
PRECURSORTYPE: [M-H]-
INSTRUMENTTYPE: LC-ESI-QTOF
SMILES: COC1=CC(C=CC(O)=O)=CC(OC)=C1
INCHIKEY: VLSRUFWCGBMYDJ-UHFFFAOYSA-N
Ontology: Coumaric acids and derivatives
COLLISIONENERGY: 10
FORMULA: C11H12O4
RETENTIONTIME: 6.25115
IONMODE: Negative
Comment: registered in RIKEN PlaSMA
Num Peaks: 22
71.50432	11
103.05232	20
103.05643	35
104.05841	19
105.06441	9
106.07018	14
118.04134	128
120.05566	10
131.04889	21
133.06435	1000
134.06772	96
145.06357	12
147.03378	20
147.04631	42
148.01091	18
148.04359	30
148.05511	29
161.05664	22
163.05975	10
163.07681	112
164.08067	36
207.06454	396

NAME: Kaempferol-3-O-rhamnoside-7-O-rhamnoside
PRECURSORMZ: 577.15627914783
PRECURSORTYPE: [M-H]-
INSTRUMENTTYPE: LC-ESI-QTOF
SMILES: CC1OC(OC2=CC(O)=C3C(=O)C(OC4OC(C)C(O)C(O)C4O)=C(OC3=C2)C2=CC=C(O)C=C2)C(O)C(O)C1O
INCHIKEY: PUPKKEQDLNREIM-UHFFFAOYNA-N
Ontology: Flavonoid-7-O-glycosides
COLLISIONENERGY: 10
FORMULA: C27H30O14
RETENTIONTIME: 3.952833
IONMODE: Negative
Comment: registered in RIKEN PlaSMA
Num Peaks: 5
285.04025	6
431.09592	58
431.11011	27
432.10233	18
577.15686	1000

NAME: Eriodictyol-7-O-neohesperidoside
PRECURSORMZ: 595.16684384783
PRECURSORTYPE: [M-H]-
INSTRUMENTTYPE: LC-ESI-QTOF
SMILES: CC1OC(OC2C(O)C(O)C(CO)OC2OC2=CC(O)=C3C(=O)CC(OC3=C2)C2=CC(O)=C(O)C=C2)C(O)C(O)C1O
INCHIKEY: OBKKEZLIABHSGY-UHFFFAOYNA-N
Ontology: Flavonoid-7-O-glycosides
COLLISIONENERGY: 10
FORMULA: C27H32O15
RETENTIONTIME: 4.035367
IONMODE: Negative
Comment: registered in RIKEN PlaSMA
Num Peaks: 5
459.11169	42
460.1282	6
593.15656	10
594.14923	9
595.16669	1000

NAME: Okanin-4'-O-glucoside
PRECURSORMZ: 449.10893504783
PRECURSORTYPE: [M-H]-
INSTRUMENTTYPE: LC-ESI-QTOF
SMILES: OCC1OC(OC2=C(O)C(O)=C(C=C2)C(=O)C=CC2=CC(O)=C(O)C=C2)C(O)C(O)C1O
INCHIKEY: XGEYXJDOVMEJNG-UHFFFAOYNA-N
Ontology: Flavonoid O-glycosides
COLLISIONENERGY: 10
FORMULA: C21H22O11
RETENTIONTIME: 4.082684
IONMODE: Negative
Comment: registered in RIKEN PlaSMA
Num Peaks: 15
135.04305	8
151.00221	19
169.0161	8
269.04108	19
285.03949	8
286.04288	22
287.05518	507
288.05872	80
289.06491	10
313.06204	18
431.09549	35
431.11914	6
432.10022	9
448.09222	19
449.1091	1000

NAME: Kaempferol-3-O-rhamnoside
PRECURSORMZ: 431.09837034783
PRECURSORTYPE: [M-H]-
INSTRUMENTTYPE: LC-ESI-QTOF
SMILES: CC1OC(OC2=C(OC3=CC(O)=CC(O)=C3C2=O)C2=CC=C(O)C=C2)C(O)C(O)C1O
INCHIKEY: SOSLMHZOJATCCP-UHFFFAOYNA-N
Ontology: Flavonoid-3-O-glycosides
COLLISIONENERGY: 10
FORMULA: C21H20O10
RETENTIONTIME: 4.714167
IONMODE: Negative
Comment: registered in RIKEN PlaSMA
Num Peaks: 5
284.0303	33
285.03888	315
286.04257	63
287.04712	7
431.09692	1000

NAME: Cyanidin
PRECURSORMZ: 285.03991301576
PRECURSORTYPE: [M-2H]-
INSTRUMENTTYPE: LC-ESI-QTOF
SMILES: OC1=CC2=[O+]C(=C(O)C=C2C(O)=C1)C1=CC(O)=C(O)C=C1
INCHIKEY: VEVZSMAEJFVWIL-UHFFFAOYSA-O
Ontology: 7-hydroxyflavonoids
COLLISIONENERGY: 10
FORMULA: C15H11O6
RETENTIONTIME: 6.012067
IONMODE: Negative
Comment: registered in RIKEN PlaSMA
Num Peaks: 6
150.9976	6
151.00278	17
230.2092	6
283.02029	7
284.66544	5
285.03857	1000

NAME: 3,5-Dimethoxycinnamic acid
PRECURSORMZ: 207.06628244783
PRECURSORTYPE: [M-H]-
INSTRUMENTTYPE: LC-ESI-QTOF
SMILES: COC1=CC(C=CC(O)=O)=CC(OC)=C1
INCHIKEY: VLSRUFWCGBMYDJ-UHFFFAOYSA-N
Ontology: Coumaric acids and derivatives
COLLISIONENERGY: 10
FORMULA: C11H12O4
RETENTIONTIME: 6.25115
IONMODE: Negative
Comment: registered in RIKEN PlaSMA
Num Peaks: 25
51.50024	5
103.05164	32
103.05746	31
107.04731	6
118.04014	20
119.0432	6
120.05318	6
131.04897	11
131.9856	6
133.06421	804
134.06844	113
134.78485	5
135.06587	8
145.06741	13
146.03714	10
147.03442	8
148.04892	11
148.05501	19
149.05698	6
163.07535	265
164.06438	7
164.08041	28
182.13972	5
202.92032	7
207.06422	1000

NAME: Kaempferol-3-O-rhamnoside-7-O-rhamnoside
PRECURSORMZ: 577.15627914783
PRECURSORTYPE: [M-H]-
INSTRUMENTTYPE: LC-ESI-QTOF
SMILES: CC1OC(OC2=CC(O)=C3C(=O)C(OC4OC(C)C(O)C(O)C4O)=C(OC3=C2)C2=CC=C(O)C=C2)C(O)C(O)C1O
INCHIKEY: PUPKKEQDLNREIM-UHFFFAOYNA-N
Ontology: Flavonoid-7-O-glycosides
COLLISIONENERGY: 30
FORMULA: C27H30O14
RETENTIONTIME: 3.952833
IONMODE: Negative
Comment: registered in RIKEN PlaSMA
Num Peaks: 12
283.02258	295
284.02832	73
285.03848	1000
286.04395	177
287.04755	22
430.08923	231
431.09482	200
431.13654	5
432.09302	34
432.10913	15
433.11322	6
577.16711	7

NAME: Eriodictyol-7-O-neohesperidoside
PRECURSORMZ: 595.16684384783
PRECURSORTYPE: [M-H]-
INSTRUMENTTYPE: LC-ESI-QTOF
SMILES: CC1OC(OC2C(O)C(O)C(CO)OC2OC2=CC(O)=C3C(=O)CC(OC3=C2)C2=CC(O)=C(O)C=C2)C(O)C(O)C1O
INCHIKEY: OBKKEZLIABHSGY-UHFFFAOYNA-N
Ontology: Flavonoid-7-O-glycosides
COLLISIONENERGY: 30
FORMULA: C27H32O15
RETENTIONTIME: 4.035367
IONMODE: Negative
Comment: registered in RIKEN PlaSMA
Num Peaks: 53
83.01173	5
107.00958	6
109.02927	11
125.02119	21
135.04388	268
136.04254	7
136.04857	21
151.00227	1000
152.00728	52
153.00317	9
161.01762	14
161.03017	7
164.01103	6
165.01894	13
175.00055	45
176.00743	8
177.0168	7
190.02368	5
193.01152	73
194.01971	5
205.01262	47
211.02946	11
216.01491	9
217.01582	13
235.02278	147
236.02458	13
243.79327	6
268.0332	8
269.0481	11
271.03802	7
277.02844	5
285.04053	29
286.05261	15
287.05219	83
287.0658	40
288.05878	15
295.04175	9
295.05234	6
297.05014	5
298.06027	8
329.0658	13
339.07095	62
340.06726	6
340.08136	9
357.08206	30
381.08395	7
459.11115	207
459.12369	84
460.10983	43
460.13101	20
461.10773	6
595.17151	64
595.20526	8

NAME: Okanin-4'-O-glucoside
PRECURSORMZ: 449.10893504783
PRECURSORTYPE: [M-H]-
INSTRUMENTTYPE: LC-ESI-QTOF
SMILES: OCC1OC(OC2=C(O)C(O)=C(C=C2)C(=O)C=CC2=CC(O)=C(O)C=C2)C(O)C(O)C1O
INCHIKEY: XGEYXJDOVMEJNG-UHFFFAOYNA-N
Ontology: Flavonoid O-glycosides
COLLISIONENERGY: 30
FORMULA: C21H22O11
RETENTIONTIME: 4.082684
IONMODE: Negative
Comment: registered in RIKEN PlaSMA
Num Peaks: 31
106.0048	8
107.01183	34
123.0061	39
123.0125	15
125.01968	11
133.03125	8
134.037	7
135.04388	1000
136.04604	133
137.02921	7
137.05296	11
149.99471	40
151.00272	753
152.00456	55
153.00935	7
161.02205	28
165.01282	7
175.00029	6
176.00562	7
225.05591	10
240.03703	7
241.04454	11
241.05573	13
251.02406	6
268.02344	11
268.03662	9
269.04517	119
286.03906	9
286.048	6
287.05487	41
288.06137	9

NAME: Kaempferol-3-O-rhamnoside
PRECURSORMZ: 431.09837034783
PRECURSORTYPE: [M-H]-
INSTRUMENTTYPE: LC-ESI-QTOF
SMILES: CC1OC(OC2=C(OC3=CC(O)=CC(O)=C3C2=O)C2=CC=C(O)C=C2)C(O)C(O)C1O
INCHIKEY: SOSLMHZOJATCCP-UHFFFAOYNA-N
Ontology: Flavonoid-3-O-glycosides
COLLISIONENERGY: 30
FORMULA: C21H20O10
RETENTIONTIME: 4.714167
IONMODE: Negative
Comment: registered in RIKEN PlaSMA
Num Peaks: 40
107.01279	6
135.00458	14
151.00014	10
151.00629	9
163.00073	48
164.00401	9
165.01549	9
167.0526	6
171.03929	9
174.02539	6
185.0618	10
186.33829	5
187.03664	33
189.05527	10
192.00755	5
195.0434	18
195.05138	5
197.05988	11
199.04045	15
211.03606	21
213.05251	40
214.01968	7
227.03371	434
228.03748	56
229.05096	166
230.04938	30
239.03249	29
240.04111	15
241.03694	6
241.0463	23
255.028	1000
256.03366	264
257.04129	145
257.05002	50
258.04376	6
267.02884	18
284.03262	715
285.03897	760
286.04239	94
287.04965	6

NAME: Cyanidin
PRECURSORMZ: 285.03991301576
PRECURSORTYPE: [M-2H]-
INSTRUMENTTYPE: LC-ESI-QTOF
SMILES: OC1=CC2=[O+]C(=C(O)C=C2C(O)=C1)C1=CC(O)=C(O)C=C1
INCHIKEY: VEVZSMAEJFVWIL-UHFFFAOYSA-O
Ontology: 7-hydroxyflavonoids
COLLISIONENERGY: 30
FORMULA: C15H11O6
RETENTIONTIME: 6.012067
IONMODE: Negative
Comment: registered in RIKEN PlaSMA
Num Peaks: 55
63.02237	154
77.03721	176
83.01176	160
91.01579	154
93.02957	122
105.02994	213
108.02123	106
109.0263	261
117.03224	1000
118.02901	96
129.02956	207
130.03831	218
131.0504	197
133.02699	112
135.04736	106
136.00897	154
137.01935	133
141.06902	106
143.04977	649
143.05656	138
145.02449	351
145.03343	138
151.01021	144
154.04134	234
155.04892	181
155.05533	165
156.05107	133
156.06355	319
157.0318	133
158.03798	149
159.04001	229
160.04576	144
161.01968	117
164.0015	106
165.01367	149
167.04443	154
168.05833	181
169.03467	96
171.03793	96
175.03683	106
183.04764	399
195.0509	133
201.04868	309
201.05942	149
213.06058	101
215.0294	181
238.01901	106
239.03491	96
240.04381	117
243.03613	101
255.04041	309
256.03433	106
267.02612	154
285.03436	287
285.04471	457

NAME: 3,5-Dimethoxycinnamic acid
PRECURSORMZ: 207.06628244783
PRECURSORTYPE: [M-H]-
INSTRUMENTTYPE: LC-ESI-QTOF
SMILES: COC1=CC(C=CC(O)=O)=CC(OC)=C1
INCHIKEY: VLSRUFWCGBMYDJ-UHFFFAOYSA-N
Ontology: Coumaric acids and derivatives
COLLISIONENERGY: 30
FORMULA: C11H12O4
RETENTIONTIME: 6.25115
IONMODE: Negative
Comment: registered in RIKEN PlaSMA
Num Peaks: 3
118.0423	1000
119.04203	83
134.8905	83

NAME: Kaempferol-3-O-rhamnoside-7-O-rhamnoside
PRECURSORMZ: 577.15627914783
PRECURSORTYPE: [M-H]-
INSTRUMENTTYPE: LC-ESI-QTOF
SMILES: CC1OC(OC2=CC(O)=C3C(=O)C(OC4OC(C)C(O)C(O)C4O)=C(OC3=C2)C2=CC=C(O)C=C2)C(O)C(O)C1O
INCHIKEY: PUPKKEQDLNREIM-UHFFFAOYNA-N
Ontology: Flavonoid-7-O-glycosides
COLLISIONENERGY: 50
FORMULA: C27H30O14
RETENTIONTIME: 3.952833
IONMODE: Negative
Comment: registered in RIKEN PlaSMA
Num Peaks: 91
83.0088	6
93.02242	6
93.03333	9
107.01007	14
117.0343	5
131.04955	7
132.0489	6
145.02789	6
148.02187	7
150.99693	9
151.00737	21
153.01834	7
154.03519	5
154.04318	21
155.04587	22
157.05725	7
157.06538	10
158.06805	10
159.0437	9
159.05324	9
160.05266	5
161.02788	5
163.00467	28
164.00789	11
165.01143	8
167.02179	5
167.04723	18
168.05734	9
169.06438	93
171.04323	14
172.04828	5
173.02238	16
174.0078	6
176.054	6
183.0457	46
184.04791	7
185.01979	5
185.05957	29
186.05592	5
187.03494	28
187.04338	20
188.04617	7
189.05595	41
191.06123	5
195.03868	8
196.05113	8
197.01614	5
198.03218	6
201.04698	13
201.05424	11
203.04681	5
210.02531	6
211.03099	22
211.04144	44
211.68755	9
212.04935	7
213.04785	18
213.05855	42
214.0244	24
214.03348	5
214.06067	13
215.02797	15
215.03903	29
219.30571	7
223.03952	5
227.03577	109
228.03978	14
229.04247	13
229.05263	16
230.05661	10
239.03519	36
241.04372	6
243.02838	44
243.03926	14
254.96904	9
255.02902	854
256.03107	138
257.03329	22
257.04105	66
258.03	10
258.04196	18
270.73871	6
282.8653	6
283.02444	1000
284.02783	136
284.03976	64
285.03848	638
286.04309	86
287.0416	25
339.00818	6
377.05002	7

NAME: Eriodictyol-7-O-neohesperidoside
PRECURSORMZ: 595.16684384783
PRECURSORTYPE: [M-H]-
INSTRUMENTTYPE: LC-ESI-QTOF
SMILES: CC1OC(OC2C(O)C(O)C(CO)OC2OC2=CC(O)=C3C(=O)CC(OC3=C2)C2=CC(O)=C(O)C=C2)C(O)C(O)C1O
INCHIKEY: OBKKEZLIABHSGY-UHFFFAOYNA-N
Ontology: Flavonoid-7-O-glycosides
COLLISIONENERGY: 50
FORMULA: C27H32O15
RETENTIONTIME: 4.035367
IONMODE: Negative
Comment: registered in RIKEN PlaSMA
Num Peaks: 53
65.00103	30
83.01252	43
100.05097	5
107.01298	234
108.01823	35
108.99091	7
109.02468	14
109.03008	17
117.03439	5
125.02641	26
133.02325	8
133.03177	8
134.03371	15
135.04376	892
136.01315	10
136.01862	7
136.04626	119
137.03044	9
137.0448	11
149.01921	6
151.00258	1000
151.03481	11
152.00633	83
153.00764	18
161.01863	9
161.02869	22
164.00319	6
164.01129	31
165.01605	25
173.06189	7
175.00079	15
177.01151	7
177.0222	11
178.0262	5
183.04747	6
184.04596	6
193.00887	13
198.03197	5
201.02312	6
202.98978	6
205.01262	7
205.0213	8
213.06056	6
218.01393	7
225.05241	9
227.02551	15
251.03523	7
256.0473	10
258.04507	8
284.03409	11
286.05151	14
287.05518	11
310.03571	5

NAME: Okanin-4'-O-glucoside
PRECURSORMZ: 449.10893504783
PRECURSORTYPE: [M-H]-
INSTRUMENTTYPE: LC-ESI-QTOF
SMILES: OCC1OC(OC2=C(O)C(O)=C(C=C2)C(=O)C=CC2=CC(O)=C(O)C=C2)C(O)C(O)C1O
INCHIKEY: XGEYXJDOVMEJNG-UHFFFAOYNA-N
Ontology: Flavonoid O-glycosides
COLLISIONENERGY: 50
FORMULA: C21H22O11
RETENTIONTIME: 4.082684
IONMODE: Negative
Comment: registered in RIKEN PlaSMA
Num Peaks: 23
94.00493	11
95.01005	7
96.0188	6
106.00581	10
107.01091	75
107.05227	13
108.02425	10
123.00806	110
124.00741	7
133.02505	10
134.03792	63
135.04352	1000
136.04704	110
137.05246	6
149.99615	10
151.00356	99
166.03868	5
171.03995	5
183.04263	8
227.02875	7
227.0401	8
240.04144	7
269.05322	8

NAME: Kaempferol-3-O-rhamnoside
PRECURSORMZ: 431.09837034783
PRECURSORTYPE: [M-H]-
INSTRUMENTTYPE: LC-ESI-QTOF
SMILES: CC1OC(OC2=C(OC3=CC(O)=CC(O)=C3C2=O)C2=CC=C(O)C=C2)C(O)C(O)C1O
INCHIKEY: SOSLMHZOJATCCP-UHFFFAOYNA-N
Ontology: Flavonoid-3-O-glycosides
COLLISIONENERGY: 50
FORMULA: C21H20O10
RETENTIONTIME: 4.714167
IONMODE: Negative
Comment: registered in RIKEN PlaSMA
Num Peaks: 76
63.02462	6
91.01959	6
93.03419	15
107.01285	38
108.02432	9
112.98317	8
117.02836	6
120.01626	6
127.04807	8
131.0488	10
132.01497	6
132.02298	36
132.05376	6
135.00388	11
135.01222	22
136.015	14
137.02072	15
139.05273	11
139.06433	6
143.04088	11
143.0502	19
154.04007	7
155.04858	21
157.02379	8
157.06812	23
159.03928	13
159.04758	21
160.04639	11
162.02811	6
163.00143	22
164.00676	9
164.01718	7
167.0443	21
167.05234	25
169.02835	9
171.04745	15
172.05399	11
173.02168	7
173.04666	6
173.05573	7
181.0275	7
182.03093	19
182.039	26
183.0437	222
184.04773	24
185.02145	88
185.0544	16
185.06171	10
186.02832	21
187.03732	61
188.04059	7
195.04262	14
196.0466	5
197.02467	8
198.02676	7
201.05411	13
210.03094	9
211.03786	133
212.04359	21
213.01413	20
213.05646	5
214.02133	12
215.02216	8
226.02713	8
227.03476	1000
228.0377	128
229.04068	26
229.05112	32
239.02831	8
239.03789	14
254.01932	10
255.02946	646
256.03043	87
257.04025	14
283.03589	6
285.03616	6

NAME: Cyanidin
PRECURSORMZ: 285.03991301576
PRECURSORTYPE: [M-2H]-
INSTRUMENTTYPE: LC-ESI-QTOF
SMILES: OC1=CC2=[O+]C(=C(O)C=C2C(O)=C1)C1=CC(O)=C(O)C=C1
INCHIKEY: VEVZSMAEJFVWIL-UHFFFAOYSA-O
Ontology: 7-hydroxyflavonoids
COLLISIONENERGY: 50
FORMULA: C15H11O6
RETENTIONTIME: 6.012067
IONMODE: Negative
Comment: registered in RIKEN PlaSMA
Num Peaks: 15
93.03325	446
95.0106	482
105.03401	357
107.00935	357
117.03457	929
135.00392	393
141.03015	750
145.0257	625
158.04124	875
164.00778	1000
182.03392	393
183.03648	643
183.05157	321
223.03864	357
265.01083	375

NAME: 3,5-Dimethoxycinnamic acid
PRECURSORMZ: 207.06628244783
PRECURSORTYPE: [M-H]-
INSTRUMENTTYPE: LC-ESI-QTOF
SMILES: COC1=CC(C=CC(O)=O)=CC(OC)=C1
INCHIKEY: VLSRUFWCGBMYDJ-UHFFFAOYSA-N
Ontology: Coumaric acids and derivatives
COLLISIONENERGY: 50
FORMULA: C11H12O4
RETENTIONTIME: 6.25115
IONMODE: Negative
Comment: registered in RIKEN PlaSMA
Num Peaks: 1
106.04533	1000

NAME: Kaempferol-3-O-rhamnoside-7-O-rhamnoside
PRECURSORMZ: 577.15627914783
PRECURSORTYPE: [M-H]-
INSTRUMENTTYPE: LC-ESI-QTOF
SMILES: CC1OC(OC2=CC(O)=C3C(=O)C(OC4OC(C)C(O)C(O)C4O)=C(OC3=C2)C2=CC=C(O)C=C2)C(O)C(O)C1O
INCHIKEY: PUPKKEQDLNREIM-UHFFFAOYNA-N
Ontology: Flavonoid-7-O-glycosides
COLLISIONENERGY: 10
FORMULA: C27H30O14
RETENTIONTIME: 3.952833
IONMODE: Negative
Comment: registered in RIKEN PlaSMA
Num Peaks: 16
213.05016	6
243.03946	8
255.0278	19
257.03836	6
283.02252	299
284.02808	64
285.03888	767
286.04086	143
287.04984	18
430.08826	179
431.0957	504
432.10129	132
433.09399	13
433.11517	17
577.15521	1000
577.224	5

NAME: Eriodictyol-7-O-neohesperidoside
PRECURSORMZ: 595.16684384783
PRECURSORTYPE: [M-H]-
INSTRUMENTTYPE: LC-ESI-QTOF
SMILES: CC1OC(OC2C(O)C(O)C(CO)OC2OC2=CC(O)=C3C(=O)CC(OC3=C2)C2=CC(O)=C(O)C=C2)C(O)C(O)C1O
INCHIKEY: OBKKEZLIABHSGY-UHFFFAOYNA-N
Ontology: Flavonoid-7-O-glycosides
COLLISIONENERGY: 10
FORMULA: C27H32O15
RETENTIONTIME: 4.035367
IONMODE: Negative
Comment: registered in RIKEN PlaSMA
Num Peaks: 32
107.01109	6
125.02007	7
125.02548	9
135.0433	91
136.04659	9
149.0246	6
151.00226	365
152.00655	29
161.0188	6
165.01628	7
175.00182	16
177.02071	6
193.01367	27
205.01059	9
217.01756	7
235.02261	61
277.04019	5
285.04352	9
287.05524	33
329.06821	6
339.05386	5
339.07352	26
357.07657	9
441.10059	13
459.11258	314
460.11688	67
461.10657	6
461.11938	18
593.13129	6
593.15485	17
594.15417	13
595.16589	1000

NAME: Okanin-4'-O-glucoside
PRECURSORMZ: 449.10893504783
PRECURSORTYPE: [M-H]-
INSTRUMENTTYPE: LC-ESI-QTOF
SMILES: OCC1OC(OC2=C(O)C(O)=C(C=C2)C(=O)C=CC2=CC(O)=C(O)C=C2)C(O)C(O)C1O
INCHIKEY: XGEYXJDOVMEJNG-UHFFFAOYNA-N
Ontology: Flavonoid O-glycosides
COLLISIONENERGY: 10
FORMULA: C21H22O11
RETENTIONTIME: 4.082684
IONMODE: Negative
Comment: registered in RIKEN PlaSMA
Num Peaks: 65
107.01082	6
108.01334	5
109.02234	5
123.00528	53
124.01006	9
126.02484	7
134.03419	23
134.45522	5
135.0433	647
135.12971	7
136.04744	43
137.0202	7
137.0461	13
143.33626	5
149.99477	12
151.00145	763
151.9985	24
152.00603	41
152.01221	16
153.00922	8
161.02402	11
164.00851	5
165.01762	7
166.67021	6
167.03421	7
169.00963	16
170.01202	12
183.03479	6
195.03952	6
202.06117	7
230.03955	7
240.03181	6
241.04724	25
241.05836	5
242.05626	13
255.03171	6
260.17349	8
269.04541	157
270.05173	14
283.42892	6
284.02039	7
285.03677	18
285.04544	7
286.03809	5
286.05011	15
286.94412	9
287.05441	1000
287.13065	13
288.05719	178
288.66302	5
289.05829	23
289.45004	6
293.91898	5
313.04742	8
313.05801	16
314.06024	6
357.80035	6
394.78299	8
431.08829	31
431.10403	57
432.10583	8
442.3591	6
447.08414	5
447.11438	5
449.10858	777

NAME: Kaempferol-3-O-rhamnoside
PRECURSORMZ: 431.09837034783
PRECURSORTYPE: [M-H]-
INSTRUMENTTYPE: LC-ESI-QTOF
SMILES: CC1OC(OC2=C(OC3=CC(O)=CC(O)=C3C2=O)C2=CC=C(O)C=C2)C(O)C(O)C1O
INCHIKEY: SOSLMHZOJATCCP-UHFFFAOYNA-N
Ontology: Flavonoid-3-O-glycosides
COLLISIONENERGY: 10
FORMULA: C21H20O10
RETENTIONTIME: 4.714167
IONMODE: Negative
Comment: registered in RIKEN PlaSMA
Num Peaks: 27
108.01576	6
135.00558	8
151.00354	7
159.04765	6
163.00417	20
165.01768	8
185.06136	13
213.05141	10
227.03235	238
228.04121	44
229.04948	55
230.05153	14
239.02515	6
255.02721	404
256.0246	32
256.03479	72
257.03851	20
257.05249	24
258.04462	9
267.02289	7
267.04224	8
284.03101	462
285.03787	1000
286.04303	172
287.04559	20
327.0462	5
431.09589	840

NAME: Cyanidin
PRECURSORMZ: 285.03991301576
PRECURSORTYPE: [M-2H]-
INSTRUMENTTYPE: LC-ESI-QTOF
SMILES: OC1=CC2=[O+]C(=C(O)C=C2C(O)=C1)C1=CC(O)=C(O)C=C1
INCHIKEY: VEVZSMAEJFVWIL-UHFFFAOYSA-O
Ontology: 7-hydroxyflavonoids
COLLISIONENERGY: 10
FORMULA: C15H11O6
RETENTIONTIME: 6.012067
IONMODE: Negative
Comment: registered in RIKEN PlaSMA
Num Peaks: 39
107.01314	12
109.02717	19
113.04123	11
117.02646	11
117.03468	8
120.05373	12
124.01141	13
129.02785	12
131.05528	11
145.03122	11
150.99962	8
155.04781	9
157.05931	9
157.06625	11
159.0368	9
160.04413	9
165.01775	10
168.05496	13
169.06558	13
169.07339	9
171.04997	9
172.04526	14
184.0425	12
184.05283	11
186.02882	10
195.04251	12
195.05109	11
211.04002	8
227.03156	21
229.05067	23
239.03674	9
241.02963	12
241.05403	12
243.03011	13
257.03769	14
268.05273	11
283.01596	13
284.043	13
285.04156	1000

NAME: 3,5-Dimethoxycinnamic acid
PRECURSORMZ: 207.06628244783
PRECURSORTYPE: [M-H]-
INSTRUMENTTYPE: LC-ESI-QTOF
SMILES: COC1=CC(C=CC(O)=O)=CC(OC)=C1
INCHIKEY: VLSRUFWCGBMYDJ-UHFFFAOYSA-N
Ontology: Coumaric acids and derivatives
COLLISIONENERGY: 10
FORMULA: C11H12O4
RETENTIONTIME: 6.25115
IONMODE: Negative
Comment: registered in RIKEN PlaSMA
Num Peaks: 21
101.93478	10
103.0552	76
112.4807	14
118.03577	26
118.04298	106
119.05071	11
120.05028	12
131.04506	13
131.05061	10
133.06425	1000
134.05733	16
134.06845	80
145.06282	13
147.04016	18
147.0459	19
148.0535	29
161.05266	11
163.07224	169
164.07535	30
170.23961	13
207.06458	326

NAME: Kaempferol-3-O-rhamnoside-7-O-rhamnoside
PRECURSORMZ: 577.15627914783
PRECURSORTYPE: [M-H]-
INSTRUMENTTYPE: LC-ESI-QTOF
SMILES: CC1OC(OC2=CC(O)=C3C(=O)C(OC4OC(C)C(O)C(O)C4O)=C(OC3=C2)C2=CC=C(O)C=C2)C(O)C(O)C1O
INCHIKEY: PUPKKEQDLNREIM-UHFFFAOYNA-N
Ontology: Flavonoid-7-O-glycosides
COLLISIONENERGY: 10
FORMULA: C27H30O14
RETENTIONTIME: 3.952833
IONMODE: Negative
Comment: registered in RIKEN PlaSMA
Num Peaks: 5
431.09909	118
432.09723	16
432.11069	11
433.10654	6
577.15771	1000

NAME: Eriodictyol-7-O-neohesperidoside
PRECURSORMZ: 595.16684384783
PRECURSORTYPE: [M-H]-
INSTRUMENTTYPE: LC-ESI-QTOF
SMILES: CC1OC(OC2C(O)C(O)C(CO)OC2OC2=CC(O)=C3C(=O)CC(OC3=C2)C2=CC(O)=C(O)C=C2)C(O)C(O)C1O
INCHIKEY: OBKKEZLIABHSGY-UHFFFAOYNA-N
Ontology: Flavonoid-7-O-glycosides
COLLISIONENERGY: 10
FORMULA: C27H32O15
RETENTIONTIME: 4.035367
IONMODE: Negative
Comment: registered in RIKEN PlaSMA
Num Peaks: 6
459.11194	42
460.11545	15
593.15082	9
594.15234	14
594.16693	6
595.16687	1000

NAME: Kaempferol-3-O-rhamnoside
PRECURSORMZ: 431.09837034783
PRECURSORTYPE: [M-H]-
INSTRUMENTTYPE: LC-ESI-QTOF
SMILES: CC1OC(OC2=C(OC3=CC(O)=CC(O)=C3C2=O)C2=CC=C(O)C=C2)C(O)C(O)C1O
INCHIKEY: SOSLMHZOJATCCP-UHFFFAOYNA-N
Ontology: Flavonoid-3-O-glycosides
COLLISIONENERGY: 10
FORMULA: C21H20O10
RETENTIONTIME: 4.714167
IONMODE: Negative
Comment: registered in RIKEN PlaSMA
Num Peaks: 5
284.03241	51
285.03876	324
286.04227	52
287.03955	9
431.09601	1000

NAME: Cyanidin
PRECURSORMZ: 285.03991301576
PRECURSORTYPE: [M-2H]-
INSTRUMENTTYPE: LC-ESI-QTOF
SMILES: OC1=CC2=[O+]C(=C(O)C=C2C(O)=C1)C1=CC(O)=C(O)C=C1
INCHIKEY: VEVZSMAEJFVWIL-UHFFFAOYSA-O
Ontology: 7-hydroxyflavonoids
COLLISIONENERGY: 10
FORMULA: C15H11O6
RETENTIONTIME: 6.012067
IONMODE: Negative
Comment: registered in RIKEN PlaSMA
Num Peaks: 6
150.99992	6
157.06131	5
171.05074	6
239.67741	6
258.05371	7
285.03879	1000

NAME: 3,5-Dimethoxycinnamic acid
PRECURSORMZ: 207.06628244783
PRECURSORTYPE: [M-H]-
INSTRUMENTTYPE: LC-ESI-QTOF
SMILES: COC1=CC(C=CC(O)=O)=CC(OC)=C1
INCHIKEY: VLSRUFWCGBMYDJ-UHFFFAOYSA-N
Ontology: Coumaric acids and derivatives
COLLISIONENERGY: 10
FORMULA: C11H12O4
RETENTIONTIME: 6.25115
IONMODE: Negative
Comment: registered in RIKEN PlaSMA
Num Peaks: 20
103.05518	28
104.05933	5
105.06709	10
115.05682	5
118.04333	22
131.04366	6
132.04994	13
133.06421	958
134.06673	68
135.0705	9
147.03999	6
148.05502	31
161.0564	6
163.0625	8
163.07593	216
164.07198	16
164.08047	21
179.07622	7
207.02431	6
207.06459	1000

NAME: Kaempferol-3-O-rhamnoside-7-O-rhamnoside
PRECURSORMZ: 577.15627914783
PRECURSORTYPE: [M-H]-
INSTRUMENTTYPE: LC-ESI-QTOF
SMILES: CC1OC(OC2=CC(O)=C3C(=O)C(OC4OC(C)C(O)C(O)C4O)=C(OC3=C2)C2=CC=C(O)C=C2)C(O)C(O)C1O
INCHIKEY: PUPKKEQDLNREIM-UHFFFAOYNA-N
Ontology: Flavonoid-7-O-glycosides
COLLISIONENERGY: 30
FORMULA: C27H30O14
RETENTIONTIME: 3.952833
IONMODE: Negative
Comment: registered in RIKEN PlaSMA
Num Peaks: 12
213.0522	6
213.05896	10
283.02444	293
284.03018	67
285.03857	1000
286.04245	168
287.03763	5
287.04959	11
430.08853	204
431.09567	201
432.09921	41
432.11072	14

NAME: Eriodictyol-7-O-neohesperidoside
PRECURSORMZ: 595.16684384783
PRECURSORTYPE: [M-H]-
INSTRUMENTTYPE: LC-ESI-QTOF
SMILES: CC1OC(OC2C(O)C(O)C(CO)OC2OC2=CC(O)=C3C(=O)CC(OC3=C2)C2=CC(O)=C(O)C=C2)C(O)C(O)C1O
INCHIKEY: OBKKEZLIABHSGY-UHFFFAOYNA-N
Ontology: Flavonoid-7-O-glycosides
COLLISIONENERGY: 30
FORMULA: C27H32O15
RETENTIONTIME: 4.035367
IONMODE: Negative
Comment: registered in RIKEN PlaSMA
Num Peaks: 56
107.01262	6
109.02638	11
109.03336	8
125.02353	16
135.04294	296
136.04768	32
149.02336	12
151.00208	1000
152.00102	34
152.00793	55
153.007	9
161.02254	24
162.02879	8
164.00294	5
164.0145	10
165.01472	15
169.0116	9
175.00113	35
176.00363	8
177.0186	26
193.01303	86
194.01065	10
201.01784	6
205.01591	32
217.00266	8
218.0179	5
229.00427	7
235.02196	174
236.03015	16
253.02863	5
258.05292	5
269.04041	11
269.05096	11
271.04868	5
277.02875	9
279.05148	7
284.02661	6
285.04245	21
286.04099	18
287.05444	138
288.0517	20
288.06247	9
289.05869	10
295.0434	15
329.05978	5
339.07114	80
340.08014	8
341.07864	6
357.08154	30
441.09009	6
441.10736	7
459.1152	334
459.14862	6
460.11664	66
461.12714	11
595.16669	63

NAME: Okanin-4'-O-glucoside
PRECURSORMZ: 449.10893504783
PRECURSORTYPE: [M-H]-
INSTRUMENTTYPE: LC-ESI-QTOF
SMILES: OCC1OC(OC2=C(O)C(O)=C(C=C2)C(=O)C=CC2=CC(O)=C(O)C=C2)C(O)C(O)C1O
INCHIKEY: XGEYXJDOVMEJNG-UHFFFAOYNA-N
Ontology: Flavonoid O-glycosides
COLLISIONENERGY: 30
FORMULA: C21H22O11
RETENTIONTIME: 4.082684
IONMODE: Negative
Comment: registered in RIKEN PlaSMA
Num Peaks: 34
107.01189	23
108.01291	6
120.02456	7
123.00503	41
123.0134	11
125.02132	8
134.03812	10
135.04369	1000
136.04628	94
137.04831	22
145.02742	23
149.99106	29
151.00186	788
152.00468	78
153.00433	14
165.01662	14
169.00806	7
169.01866	8
214.05704	6
239.03789	7
240.03847	6
241.04076	12
241.05418	7
242.0544	6
243.05428	6
251.04089	6
268.03436	37
269.04565	94
270.03748	7
270.05325	31
286.04242	15
286.05176	19
287.05664	44
431.09378	6

NAME: Kaempferol-3-O-rhamnoside
PRECURSORMZ: 431.09837034783
PRECURSORTYPE: [M-H]-
INSTRUMENTTYPE: LC-ESI-QTOF
SMILES: CC1OC(OC2=C(OC3=CC(O)=CC(O)=C3C2=O)C2=CC=C(O)C=C2)C(O)C(O)C1O
INCHIKEY: SOSLMHZOJATCCP-UHFFFAOYNA-N
Ontology: Flavonoid-3-O-glycosides
COLLISIONENERGY: 30
FORMULA: C21H20O10
RETENTIONTIME: 4.714167
IONMODE: Negative
Comment: registered in RIKEN PlaSMA
Num Peaks: 45
107.00793	6
135.00909	18
151.00276	18
159.04471	14
162.99933	31
163.01073	10
164.01375	10
165.01045	16
183.04152	5
185.05237	8
185.06506	11
186.06078	6
187.03677	15
189.05457	19
195.04445	21
196.05214	8
197.06152	13
198.06569	9
199.03467	11
199.04428	7
200.03929	7
211.03702	24
213.05127	21
213.06157	10
223.03757	7
227.03448	454
228.03764	76
229.04857	159
229.05759	46
230.0498	22
239.03583	29
240.0329	7
240.0426	18
241.04768	35
242.04503	5
255.02963	1000
256.03549	245
257.04266	134
258.04956	17
267.02219	21
267.03134	12
284.03201	847
285.03873	739
286.04111	151
431.10574	9

NAME: Cyanidin
PRECURSORMZ: 285.03991301576
PRECURSORTYPE: [M-2H]-
INSTRUMENTTYPE: LC-ESI-QTOF
SMILES: OC1=CC2=[O+]C(=C(O)C=C2C(O)=C1)C1=CC(O)=C(O)C=C1
INCHIKEY: VEVZSMAEJFVWIL-UHFFFAOYSA-O
Ontology: 7-hydroxyflavonoids
COLLISIONENERGY: 30
FORMULA: C15H11O6
RETENTIONTIME: 6.012067
IONMODE: Negative
Comment: registered in RIKEN PlaSMA
Num Peaks: 55
91.01991	137
92.02226	109
93.03235	656
105.03175	137
108.02049	131
109.02818	148
117.02819	115
117.03409	311
120.02252	109
129.04974	109
131.04163	224
131.04944	284
133.02267	120
134.0016	131
134.02721	148
134.70262	180
137.02029	104
143.04955	142
145.02963	443
145.06412	120
145.06978	251
146.03493	257
147.04002	169
154.03926	246
154.04845	202
155.04274	219
156.05888	344
157.02147	142
157.06396	454
158.03461	109
159.04144	557
160.0399	98
161.01108	109
164.01193	115
167.04591	333
167.05298	120
168.05342	492
169.07388	148
171.04381	126
183.04102	1000
184.04089	137
185.07603	230
187.04855	104
188.04343	98
195.03391	98
211.03601	492
219.03554	180
227.02299	235
227.037	208
239.03194	475
243.03513	120
255.02374	459
258.03809	131
267.0213	126
285.03983	115

NAME: 3,5-Dimethoxycinnamic acid
PRECURSORMZ: 207.06628244783
PRECURSORTYPE: [M-H]-
INSTRUMENTTYPE: LC-ESI-QTOF
SMILES: COC1=CC(C=CC(O)=O)=CC(OC)=C1
INCHIKEY: VLSRUFWCGBMYDJ-UHFFFAOYSA-N
Ontology: Coumaric acids and derivatives
COLLISIONENERGY: 30
FORMULA: C11H12O4
RETENTIONTIME: 6.25115
IONMODE: Negative
Comment: registered in RIKEN PlaSMA
Num Peaks: 6
99.92734	107
118.04192	1000
132.02444	88
133.07111	144
134.02979	144
145.02451	121

NAME: Kaempferol-3-O-rhamnoside-7-O-rhamnoside
PRECURSORMZ: 577.15627914783
PRECURSORTYPE: [M-H]-
INSTRUMENTTYPE: LC-ESI-QTOF
SMILES: CC1OC(OC2=CC(O)=C3C(=O)C(OC4OC(C)C(O)C(O)C4O)=C(OC3=C2)C2=CC=C(O)C=C2)C(O)C(O)C1O
INCHIKEY: PUPKKEQDLNREIM-UHFFFAOYNA-N
Ontology: Flavonoid-7-O-glycosides
COLLISIONENERGY: 50
FORMULA: C27H30O14
RETENTIONTIME: 3.952833
IONMODE: Negative
Comment: registered in RIKEN PlaSMA
Num Peaks: 83
116.09617	7
117.03185	15
121.0258	6
143.05055	10
148.2523	6
149.34225	8
151.00403	39
153.01273	5
153.88814	9
154.03996	29
155.05093	32
159.04347	21
159.05362	6
160.04428	7
161.02354	14
161.03516	5
161.99403	8
163.00273	8
164.00729	6
165.01888	24
167.05002	14
168.04301	7
168.05643	11
169.06413	108
171.05289	13
172.04144	8
172.0582	5
173.02118	28
173.0296	9
174.06665	7
183.04414	71
184.29797	6
185.02263	14
185.02901	7
185.06013	51
187.04111	38
188.04451	5
189.0558	40
190.05653	9
193.02316	7
195.04155	9
197.05913	17
198.04427	6
199.04091	5
201.05139	5
211.03638	28
212.05254	12
212.80365	5
213.05275	88
214.02362	21
215.03029	37
215.03827	12
217.04216	8
217.05063	6
226.02419	9
227.03465	63
227.04425	20
228.03598	14
228.9948	6
229.05086	59
230.04683	10
230.06966	6
239.03535	8
240.03876	14
241.03677	6
241.04655	19
243.02226	14
243.02959	23
255.02834	948
256.03134	126
256.04761	21
257.0451	92
257.06949	12
258.01318	6
264.98807	7
268.0256	6
283.02444	1000
284.02731	211
285.03815	750
286.03748	48
286.04938	68
287.04984	16
430.08023	9

NAME: Eriodictyol-7-O-neohesperidoside
PRECURSORMZ: 595.16684384783
PRECURSORTYPE: [M-H]-
INSTRUMENTTYPE: LC-ESI-QTOF
SMILES: CC1OC(OC2C(O)C(O)C(CO)OC2OC2=CC(O)=C3C(=O)CC(OC3=C2)C2=CC(O)=C(O)C=C2)C(O)C(O)C1O
INCHIKEY: OBKKEZLIABHSGY-UHFFFAOYNA-N
Ontology: Flavonoid-7-O-glycosides
COLLISIONENERGY: 50
FORMULA: C27H32O15
RETENTIONTIME: 4.035367
IONMODE: Negative
Comment: registered in RIKEN PlaSMA
Num Peaks: 60
65.00117	12
65.00701	6
85.02996	6
95.01852	11
106.03977	9
107.01276	305
107.04884	19
108.01291	14
108.02098	7
108.99357	11
109.02948	21
115.04113	6
121.02384	7
125.02402	42
131.01532	10
134.03888	14
135.0444	937
136.01234	13
136.04662	80
136.05528	19
137.05128	11
149.02551	13
151.00301	1000
152.0002	37
152.00648	42
153.00117	6
153.01387	7
161.02382	31
161.03474	8
163.02724	9
164.01282	27
164.02255	6
165.01707	11
166.02258	8
174.03287	11
175.00365	12
176.01332	13
177.00473	7
177.01833	8
177.07005	6
193.0135	8
194.01627	5
196.04266	7
197.05838	8
199.03191	11
201.01527	12
201.02461	20
201.05806	7
205.01534	5
212.06332	8
215.04251	6
217.0118	8
217.0486	8
225.05876	6
230.05515	5
240.04468	6
241.04997	9
256.03391	5
285.04422	22
286.0462	16

NAME: Okanin-4'-O-glucoside
PRECURSORMZ: 449.10893504783
PRECURSORTYPE: [M-H]-
INSTRUMENTTYPE: LC-ESI-QTOF
SMILES: OCC1OC(OC2=C(O)C(O)=C(C=C2)C(=O)C=CC2=CC(O)=C(O)C=C2)C(O)C(O)C1O
INCHIKEY: XGEYXJDOVMEJNG-UHFFFAOYNA-N
Ontology: Flavonoid O-glycosides
COLLISIONENERGY: 50
FORMULA: C21H22O11
RETENTIONTIME: 4.082684
IONMODE: Negative
Comment: registered in RIKEN PlaSMA
Num Peaks: 21
51.02377	7
79.01867	8
89.03979	14
94.0049	15
95.01247	35
107.01238	57
107.05212	13
108.01693	14
109.87596	7
117.03362	10
123.00707	105
134.03552	94
135.04359	1000
136.04697	110
137.04201	6
137.05083	11
151.00377	102
152.00279	12
184.05132	7
195.04692	6
211.04117	7

NAME: Kaempferol-3-O-rhamnoside
PRECURSORMZ: 431.09837034783
PRECURSORTYPE: [M-H]-
INSTRUMENTTYPE: LC-ESI-QTOF
SMILES: CC1OC(OC2=C(OC3=CC(O)=CC(O)=C3C2=O)C2=CC=C(O)C=C2)C(O)C(O)C1O
INCHIKEY: SOSLMHZOJATCCP-UHFFFAOYNA-N
Ontology: Flavonoid-3-O-glycosides
COLLISIONENERGY: 50
FORMULA: C21H20O10
RETENTIONTIME: 4.714167
IONMODE: Negative
Comment: registered in RIKEN PlaSMA
Num Peaks: 76
93.03425	7
107.00933	22
108.02118	6
109.02333	7
117.03101	15
119.00652	7
119.01489	7
129.03578	6
130.03929	10
131.04234	7
131.052	8
132.01797	29
132.0473	5
135.00237	14
135.00885	11
136.01295	7
141.03098	6
143.04251	12
143.05019	35
144.05284	7
145.02966	17
151.00487	10
154.03477	6
154.04123	10
155.04951	17
156.05667	21
157.06743	17
158.03311	9
159.0421	29
163.79921	7
167.04846	40
168.05318	11
169.02609	8
169.08459	5
171.04251	15
172.04927	7
172.05617	6
182.03789	52
183.04341	253
184.04637	38
185.02336	85
185.05147	6
185.06534	15
186.02924	8
186.05907	10
187.03816	65
188.04082	8
195.04352	11
197.64774	6
198.03964	5
199.03853	32
200.04958	22
210.02681	17
211.03851	130
211.0587	6
212.03975	11
212.04745	9
213.01547	39
213.04861	18
213.05913	6
226.02348	10
227.03381	1000
228.03029	39
228.03963	89
229.0329	17
229.04977	31
239.02744	7
240.03865	10
241.0473	5
243.03442	6
255.02858	656
256.02164	22
256.03589	129
257.03555	11
284.03113	14
285.03806	7

NAME: Cyanidin
PRECURSORMZ: 285.03991301576
PRECURSORTYPE: [M-2H]-
INSTRUMENTTYPE: LC-ESI-QTOF
SMILES: OC1=CC2=[O+]C(=C(O)C=C2C(O)=C1)C1=CC(O)=C(O)C=C1
INCHIKEY: VEVZSMAEJFVWIL-UHFFFAOYSA-O
Ontology: 7-hydroxyflavonoids
COLLISIONENERGY: 50
FORMULA: C15H11O6
RETENTIONTIME: 6.012067
IONMODE: Negative
Comment: registered in RIKEN PlaSMA
Num Peaks: 2
117.0308	1000
119.04717	214

NAME: 3,5-Dimethoxycinnamic acid
PRECURSORMZ: 207.06628244783
PRECURSORTYPE: [M-H]-
INSTRUMENTTYPE: LC-ESI-QTOF
SMILES: COC1=CC(C=CC(O)=O)=CC(OC)=C1
INCHIKEY: VLSRUFWCGBMYDJ-UHFFFAOYSA-N
Ontology: Coumaric acids and derivatives
COLLISIONENERGY: 50
FORMULA: C11H12O4
RETENTIONTIME: 6.25115
IONMODE: Negative
Comment: registered in RIKEN PlaSMA
Num Peaks: 1
83.93105	1000

NAME: Apigenin-8-C-glucoside-2'-rhamnoside
PRECURSORMZ: 577.15627914783
PRECURSORTYPE: [M-H]-
INSTRUMENTTYPE: LC-ESI-QTOF
SMILES: CC1OC(OC2C(O)C(O)C(CO)OC2C2=C(O)C=C(O)C3=C2OC(=CC3=O)C2=CC=C(O)C=C2)C(O)C(O)C1O
INCHIKEY: LYGPBZVKGHHTIE-UHFFFAOYNA-N
Ontology: Flavonoid 8-C-glycosides
COLLISIONENERGY: 10
FORMULA: C27H30O14
RETENTIONTIME: 3.85705
IONMODE: Negative
Comment: registered in RIKEN PlaSMA
Num Peaks: 25
103.03741	10
117.03768	6
175.00569	6
269.04797	14
281.04132	13
282.04749	17
282.0607	5
293.04471	1000
294.04718	175
295.04117	19
295.05725	12
296.05228	7
296.06281	5
311.05411	145
312.05167	26
313.07187	8
323.05765	10
341.06061	15
341.07574	11
342.07007	8
413.0881	433
414.08972	121
415.09302	22
457.11307	32
577.15479	786

NAME: Eriodictyol-7-O-rutinoside
PRECURSORMZ: 595.16684384783
PRECURSORTYPE: [M-H]-
INSTRUMENTTYPE: LC-ESI-QTOF
SMILES: CC1OC(OCC2OC(OC3=CC(O)=C4C(=O)CC(OC4=C3)C3=CC(O)=C(O)C=C3)C(O)C(O)C2O)C(O)C(O)C1O
INCHIKEY: OMQADRGFMLGFJF-UHFFFAOYNA-N
Ontology: Flavonoid-7-O-glycosides
COLLISIONENERGY: 10
FORMULA: C27H32O15
RETENTIONTIME: 3.9209
IONMODE: Negative
Comment: registered in RIKEN PlaSMA
Num Peaks: 28
107.01434	11
125.01952	10
125.02599	11
135.04378	85
136.04593	8
151.00125	467
151.9995	7
152.00845	18
153.00438	11
153.00996	6
175.00264	37
193.0134	7
217.01344	5
269.05331	8
285.03519	19
285.04971	18
287.05383	1000
288.05829	151
289.05063	9
289.06714	21
459.09781	11
459.1178	9
460.10947	12
593.15076	21
594.14471	14
594.17194	7
595.16449	435
595.2066	6

NAME: Eriodictyol-7-O-glucoside
PRECURSORMZ: 449.10893504783
PRECURSORTYPE: [M-H]-
INSTRUMENTTYPE: LC-ESI-QTOF
SMILES: OCC1OC(OC2=CC(O)=C3C(=O)CC(OC3=C2)C2=CC(O)=C(O)C=C2)C(O)C(O)C1O
INCHIKEY: RAFHNDRXYHOLSH-UHFFFAOYNA-N
Ontology: Flavonoid-7-O-glycosides
COLLISIONENERGY: 10
FORMULA: C21H22O11
RETENTIONTIME: 4.0848
IONMODE: Negative
Comment: registered in RIKEN PlaSMA
Num Peaks: 28
83.01116	5
107.00843	6
108.01967	5
125.02119	13
135.04295	192
136.04643	28
151.00203	527
152.009	54
153.00624	15
161.01624	7
165.02089	6
166.01111	5
175.00212	49
177.02441	9
193.01785	11
258.04465	5
269.04495	6
284.02719	5
285.04471	21
286.04422	9
287.05441	1000
288.05676	198
289.06595	37
311.06335	8
447.07693	12
448.07724	5
448.10565	8
449.10379	109

NAME: Kaempferol-7-O-rhamnoside
PRECURSORMZ: 431.09837034783
PRECURSORTYPE: [M-H]-
INSTRUMENTTYPE: LC-ESI-QTOF
SMILES: CC1OC(OC2=CC(O)=C3C(=O)C(O)=C(OC3=C2)C2=CC=C(O)C=C2)C(O)C(O)C1O
INCHIKEY: HQNOUCSPWAGQND-UHFFFAOYNA-N
Ontology: Flavonoid-7-O-glycosides
COLLISIONENERGY: 10
FORMULA: C21H20O10
RETENTIONTIME: 5.268567
IONMODE: Negative
Comment: registered in RIKEN PlaSMA
Num Peaks: 31
107.01114	47
122.00119	5
151.0016	229
152.00496	26
164.00534	7
185.05217	5
185.06938	7
187.03319	6
196.05359	6
212.04408	7
213.04868	5
213.058	12
228.04506	6
229.04497	10
229.0547	11
229.06906	6
230.04851	5
240.0416	13
241.04875	26
255.024	9
257.0441	150
258.04153	13
258.05121	14
283.0177	10
284.03101	318
285.0379	463
286.03772	59
286.05222	27
287.03888	21
287.05167	9
431.09543	1000

NAME: Eriodictyol
PRECURSORMZ: 287.05611164783
PRECURSORTYPE: [M-H]-
INSTRUMENTTYPE: LC-ESI-QTOF
SMILES: OC1=CC(O)=C2C(=O)CC(OC2=C1)C1=CC(O)=C(O)C=C1
INCHIKEY: SBHXYTNGIZCORC-UHFFFAOYNA-N
Ontology: Flavanones
COLLISIONENERGY: 10
FORMULA: C15H12O6
RETENTIONTIME: 5.340183
IONMODE: Negative
Comment: registered in RIKEN PlaSMA
Num Peaks: 22
65.00164	14
83.01241	11
107.01183	70
107.04597	6
108.01389	11
108.02017	8
109.02834	12
125.02236	34
134.03578	32
135.04395	735
136.04677	70
151.00218	1000
152.00429	83
153.00717	6
161.02167	13
165.00833	6
177.01941	6
199.03648	6
200.04985	6
269.04941	11
286.04071	7
287.05389	228

NAME: Apigenin-8-C-glucoside-2'-rhamnoside
PRECURSORMZ: 577.15627914783
PRECURSORTYPE: [M-H]-
INSTRUMENTTYPE: LC-ESI-QTOF
SMILES: CC1OC(OC2C(O)C(O)C(CO)OC2C2=C(O)C=C(O)C3=C2OC(=CC3=O)C2=CC=C(O)C=C2)C(O)C(O)C1O
INCHIKEY: LYGPBZVKGHHTIE-UHFFFAOYNA-N
Ontology: Flavonoid 8-C-glycosides
COLLISIONENERGY: 10
FORMULA: C27H30O14
RETENTIONTIME: 3.85705
IONMODE: Negative
Comment: registered in RIKEN PlaSMA
Num Peaks: 7
293.04886	12
413.08514	182
414.08517	26
414.10547	15
457.11478	21
577.15552	1000
577.2074	7

NAME: Eriodictyol-7-O-rutinoside
PRECURSORMZ: 595.16684384783
PRECURSORTYPE: [M-H]-
INSTRUMENTTYPE: LC-ESI-QTOF
SMILES: CC1OC(OCC2OC(OC3=CC(O)=C4C(=O)CC(OC4=C3)C3=CC(O)=C(O)C=C3)C(O)C(O)C2O)C(O)C(O)C1O
INCHIKEY: OMQADRGFMLGFJF-UHFFFAOYNA-N
Ontology: Flavonoid-7-O-glycosides
COLLISIONENERGY: 10
FORMULA: C27H32O15
RETENTIONTIME: 3.9209
IONMODE: Negative
Comment: registered in RIKEN PlaSMA
Num Peaks: 10
151.00029	10
285.02786	6
287.05322	738
288.0575	150
289.06274	16
459.11914	9
593.14941	27
594.13275	6
594.15765	27
595.16565	1000

NAME: Eriodictyol-7-O-glucoside
PRECURSORMZ: 449.10893504783
PRECURSORTYPE: [M-H]-
INSTRUMENTTYPE: LC-ESI-QTOF
SMILES: OCC1OC(OC2=CC(O)=C3C(=O)CC(OC3=C2)C2=CC(O)=C(O)C=C2)C(O)C(O)C1O
INCHIKEY: RAFHNDRXYHOLSH-UHFFFAOYNA-N
Ontology: Flavonoid-7-O-glycosides
COLLISIONENERGY: 10
FORMULA: C21H22O11
RETENTIONTIME: 4.0848
IONMODE: Negative
Comment: registered in RIKEN PlaSMA
Num Peaks: 8
151.00221	10
287.05338	1000
288.05829	154
289.05664	24
447.0864	10
448.08627	10
448.1015	7
449.1077	233

NAME: Kaempferol-7-O-rhamnoside
PRECURSORMZ: 431.09837034783
PRECURSORTYPE: [M-H]-
INSTRUMENTTYPE: LC-ESI-QTOF
SMILES: CC1OC(OC2=CC(O)=C3C(=O)C(O)=C(OC3=C2)C2=CC=C(O)C=C2)C(O)C(O)C1O
INCHIKEY: HQNOUCSPWAGQND-UHFFFAOYNA-N
Ontology: Flavonoid-7-O-glycosides
COLLISIONENERGY: 10
FORMULA: C21H20O10
RETENTIONTIME: 5.268567
IONMODE: Negative
Comment: registered in RIKEN PlaSMA
Num Peaks: 4
284.03366	7
285.03824	66
286.04099	7
431.09735	1000

NAME: Eriodictyol
PRECURSORMZ: 287.05611164783
PRECURSORTYPE: [M-H]-
INSTRUMENTTYPE: LC-ESI-QTOF
SMILES: OC1=CC(O)=C2C(=O)CC(OC2=C1)C1=CC(O)=C(O)C=C1
INCHIKEY: SBHXYTNGIZCORC-UHFFFAOYNA-N
Ontology: Flavanones
COLLISIONENERGY: 10
FORMULA: C15H12O6
RETENTIONTIME: 5.340183
IONMODE: Negative
Comment: registered in RIKEN PlaSMA
Num Peaks: 10
125.02327	27
135.04402	183
136.0455	10
151.00241	1000
152.00664	63
153.0083	8
269.04156	9
285.03946	5
286.0437	13
287.0545	554

NAME: Apigenin-8-C-glucoside-2'-rhamnoside
PRECURSORMZ: 577.15627914783
PRECURSORTYPE: [M-H]-
INSTRUMENTTYPE: LC-ESI-QTOF
SMILES: CC1OC(OC2C(O)C(O)C(CO)OC2C2=C(O)C=C(O)C3=C2OC(=CC3=O)C2=CC=C(O)C=C2)C(O)C(O)C1O
INCHIKEY: LYGPBZVKGHHTIE-UHFFFAOYNA-N
Ontology: Flavonoid 8-C-glycosides
COLLISIONENERGY: 30
FORMULA: C27H30O14
RETENTIONTIME: 3.85705
IONMODE: Negative
Comment: registered in RIKEN PlaSMA
Num Peaks: 17
89.02787	6
269.04495	9
282.05063	8
283.05515	9
293.0437	1000
294.04874	214
295.04999	35
297.03149	8
311.05478	137
312.05109	5
323.04987	15
324.05811	5
341.05655	6
341.07031	13
413.08496	114
414.08292	13
414.09558	12

NAME: Eriodictyol-7-O-rutinoside
PRECURSORMZ: 595.16684384783
PRECURSORTYPE: [M-H]-
INSTRUMENTTYPE: LC-ESI-QTOF
SMILES: CC1OC(OCC2OC(OC3=CC(O)=C4C(=O)CC(OC4=C3)C3=CC(O)=C(O)C=C3)C(O)C(O)C2O)C(O)C(O)C1O
INCHIKEY: OMQADRGFMLGFJF-UHFFFAOYNA-N
Ontology: Flavonoid-7-O-glycosides
COLLISIONENERGY: 30
FORMULA: C27H32O15
RETENTIONTIME: 3.9209
IONMODE: Negative
Comment: registered in RIKEN PlaSMA
Num Peaks: 22
107.01315	6
125.02107	27
135.04367	183
136.04706	22
151.00201	1000
152.00552	74
153.00488	9
175.00148	63
176.00896	9
193.0031	9
193.01033	12
205.01225	11
217.01485	6
269.04276	9
285.03891	38
286.03711	16
287.05356	408
288.05991	78
311.04901	8
329.07144	6
459.11163	8
460.10037	7

NAME: Eriodictyol-7-O-glucoside
PRECURSORMZ: 449.10893504783
PRECURSORTYPE: [M-H]-
INSTRUMENTTYPE: LC-ESI-QTOF
SMILES: OCC1OC(OC2=CC(O)=C3C(=O)CC(OC3=C2)C2=CC(O)=C(O)C=C2)C(O)C(O)C1O
INCHIKEY: RAFHNDRXYHOLSH-UHFFFAOYNA-N
Ontology: Flavonoid-7-O-glycosides
COLLISIONENERGY: 30
FORMULA: C21H22O11
RETENTIONTIME: 4.0848
IONMODE: Negative
Comment: registered in RIKEN PlaSMA
Num Peaks: 33
71.0167	5
83.01209	6
107.01255	49
109.02736	9
121.02564	8
125.02242	38
135.04378	478
136.04543	25
136.05412	10
137.0208	10
137.04889	8
151.00137	1000
152.00525	60
153.00488	5
161.01743	6
165.01453	20
175.00374	83
176.00171	5
177.01575	14
193.01054	7
193.01646	21
205.0159	6
217.00394	7
269.03772	11
284.02304	5
285.03665	42
286.03668	24
286.05173	6
287.05038	32
287.06012	47
288.05585	7
311.04944	11
311.06412	9

NAME: Kaempferol-7-O-rhamnoside
PRECURSORMZ: 431.09837034783
PRECURSORTYPE: [M-H]-
INSTRUMENTTYPE: LC-ESI-QTOF
SMILES: CC1OC(OC2=CC(O)=C3C(=O)C(O)=C(OC3=C2)C2=CC=C(O)C=C2)C(O)C(O)C1O
INCHIKEY: HQNOUCSPWAGQND-UHFFFAOYNA-N
Ontology: Flavonoid-7-O-glycosides
COLLISIONENERGY: 30
FORMULA: C21H20O10
RETENTIONTIME: 5.268567
IONMODE: Negative
Comment: registered in RIKEN PlaSMA
Num Peaks: 49
83.0135	18
93.03455	9
107.01301	114
108.01563	39
110.03128	5
121.99976	17
133.02527	5
143.05414	8
149.99535	17
151.00264	1000
152.00014	26
152.00757	46
163.00349	5
164.00243	9
164.01247	24
165.01631	6
172.04578	8
173.06105	6
185.05881	48
186.0295	7
188.03789	5
197.05777	5
211.03638	9
212.0477	17
213.05363	68
214.05734	31
229.04115	16
229.05214	12
229.06395	7
230.06593	5
240.04257	28
240.05447	12
241.04793	25
242.04042	6
256.02921	12
256.03827	11
257.04373	351
258.03775	23
258.05023	38
259.04788	8
283.0246	13
284.03189	727
285.03903	634
286.04111	140
286.06271	7
287.05554	16
288.05014	6
431.09128	7
431.10394	10

NAME: Eriodictyol
PRECURSORMZ: 287.05611164783
PRECURSORTYPE: [M-H]-
INSTRUMENTTYPE: LC-ESI-QTOF
SMILES: OC1=CC(O)=C2C(=O)CC(OC2=C1)C1=CC(O)=C(O)C=C1
INCHIKEY: SBHXYTNGIZCORC-UHFFFAOYNA-N
Ontology: Flavanones
COLLISIONENERGY: 30
FORMULA: C15H12O6
RETENTIONTIME: 5.340183
IONMODE: Negative
Comment: registered in RIKEN PlaSMA
Num Peaks: 17
65.00386	20
66.00609	7
83.012	18
107.01193	116
107.04838	8
108.01447	26
109.02431	5
124.01537	6
125.02567	7
133.03127	8
134.03609	65
135.04379	1000
136.04668	97
136.05704	9
137.02496	7
151.00304	67
161.02496	5

NAME: Apigenin-8-C-glucoside-2'-rhamnoside
PRECURSORMZ: 577.15627914783
PRECURSORTYPE: [M-H]-
INSTRUMENTTYPE: LC-ESI-QTOF
SMILES: CC1OC(OC2C(O)C(O)C(CO)OC2C2=C(O)C=C(O)C3=C2OC(=CC3=O)C2=CC=C(O)C=C2)C(O)C(O)C1O
INCHIKEY: LYGPBZVKGHHTIE-UHFFFAOYNA-N
Ontology: Flavonoid 8-C-glycosides
COLLISIONENERGY: 50
FORMULA: C27H30O14
RETENTIONTIME: 3.85705
IONMODE: Negative
Comment: registered in RIKEN PlaSMA
Num Peaks: 59
59.01175	6
73.02776	8
89.02213	6
93.03434	8
117.03325	119
118.03653	20
124.78	5
130.20152	6
131.00905	22
131.01607	19
133.02548	6
145.02872	6
159.04247	8
161.02373	17
162.03561	5
163.03795	10
165.01646	7
171.04311	7
173.02055	109
173.03494	11
174.02322	10
174.02982	26
175.00179	218
176.00224	6
176.01239	10
177.02065	8
180.05072	6
185.03079	10
193.06818	9
194.06235	6
197.06104	6
197.49016	6
209.05313	8
215.06953	8
221.05743	13
222.05914	7
237.04697	16
239.06639	7
249.05467	45
250.03386	5
253.05058	6
253.06335	6
265.05231	7
269.04468	12
281.04568	37
282.0459	27
282.06516	8
283.06033	141
284.05792	15
292.03241	6
293.04456	1000
293.06985	7
294.04486	174
295.05273	26
296.05386	6
307.06091	11
311.05515	44
312.0506	6
323.05814	6

NAME: Eriodictyol-7-O-rutinoside
PRECURSORMZ: 595.16684384783
PRECURSORTYPE: [M-H]-
INSTRUMENTTYPE: LC-ESI-QTOF
SMILES: CC1OC(OCC2OC(OC3=CC(O)=C4C(=O)CC(OC4=C3)C3=CC(O)=C(O)C=C3)C(O)C(O)C2O)C(O)C(O)C1O
INCHIKEY: OMQADRGFMLGFJF-UHFFFAOYNA-N
Ontology: Flavonoid-7-O-glycosides
COLLISIONENERGY: 50
FORMULA: C27H32O15
RETENTIONTIME: 3.9209
IONMODE: Negative
Comment: registered in RIKEN PlaSMA
Num Peaks: 41
65.00424	13
81.03485	7
83.01309	49
87.01008	8
91.02312	6
103.02135	5
107.01208	238
109.02071	6
109.027	18
110.03231	7
119.05174	6
121.02316	13
124.01324	8
125.0245	45
131.0146	19
133.03027	6
135.04408	844
136.04636	57
137.02312	8
151.00211	1000
152.00551	53
157.06969	5
161.0264	21
165.01517	11
173.02557	7
175.00185	38
176.00415	7
177.02017	14
183.04333	5
185.05388	5
189.02496	11
210.06944	10
223.07193	5
225.05695	19
228.03067	5
269.03339	8
269.05264	5
270.03882	5
285.03314	31
285.04498	31
286.0451	23

NAME: Eriodictyol-7-O-glucoside
PRECURSORMZ: 449.10893504783
PRECURSORTYPE: [M-H]-
INSTRUMENTTYPE: LC-ESI-QTOF
SMILES: OCC1OC(OC2=CC(O)=C3C(=O)CC(OC3=C2)C2=CC(O)=C(O)C=C2)C(O)C(O)C1O
INCHIKEY: RAFHNDRXYHOLSH-UHFFFAOYNA-N
Ontology: Flavonoid-7-O-glycosides
COLLISIONENERGY: 50
FORMULA: C21H22O11
RETENTIONTIME: 4.0848
IONMODE: Negative
Comment: registered in RIKEN PlaSMA
Num Peaks: 54
52.17554	5
65.00098	66
66.00077	6
66.00806	5
66.8357	7
83.01371	55
88.86184	5
90.6344	6
91.05215	14
91.99223	5
106.03983	6
106.99208	6
107.01371	248
107.04634	16
107.05341	8
108.01862	23
108.99709	10
109.02496	19
109.03052	18
117.03367	9
124.00661	6
125.02497	12
131.0128	24
133.03485	6
134.0327	36
134.04179	15
135.04376	1000
136.01146	16
136.01863	14
136.03935	29
136.04874	69
137.02246	18
137.05363	16
140.8654	5
146.03796	6
147.03876	6
149.02275	5
150.9975	93
151.00368	103
152.00462	11
159.04483	10
161.01984	5
167.0209	6
175.00291	9
185.01952	7
198.06712	6
199.03624	6
201.04947	5
203.03308	14
207.04388	6
211.04543	6
225.0569	9
227.02724	13
243.03059	6

NAME: Kaempferol-7-O-rhamnoside
PRECURSORMZ: 431.09837034783
PRECURSORTYPE: [M-H]-
INSTRUMENTTYPE: LC-ESI-QTOF
SMILES: CC1OC(OC2=CC(O)=C3C(=O)C(O)=C(OC3=C2)C2=CC=C(O)C=C2)C(O)C(O)C1O
INCHIKEY: HQNOUCSPWAGQND-UHFFFAOYNA-N
Ontology: Flavonoid-7-O-glycosides
COLLISIONENERGY: 50
FORMULA: C21H20O10
RETENTIONTIME: 5.268567
IONMODE: Negative
Comment: registered in RIKEN PlaSMA
Num Peaks: 112
53.30185	21
63.02255	207
64.02292	17
64.02636	16
65.00192	107
67.01751	19
80.02025	19
83.01335	194
85.01199	15
92.02629	40
93.03082	14
94.00581	33
95.01699	79
105.03294	33
106.68872	26
107.01267	791
108.01316	36
108.01988	98
117.03138	16
117.04001	19
119.0481	40
119.05868	20
120.0186	115
121.99582	14
122.00505	90
122.03967	23
124.01404	17
129.0294	16
129.03682	14
132.01572	56
132.02228	106
133.02333	15
133.03156	25
134.03355	22
135.00507	82
136.01776	60
137.02769	36
141.06267	26
142.04193	75
143.0462	224
144.05206	31
145.02818	191
145.05721	19
146.03452	29
146.04297	26
147.03343	42
147.04584	24
148.04524	36
150.98064	16
151.00172	1000
152.00581	70
153.00697	21
153.02788	33
155.05357	31
156.05074	45
156.05782	57
156.06522	17
157.02626	15
157.06346	16
157.07272	47
158.0378	21
158.06253	18
159.03802	14
161.0535	15
161.06476	43
162.99971	69
164.00868	167
164.01987	42
165.01289	21
167.0493	76
169.0658	43
170.02715	24
170.03685	24
171.04523	95
172.05362	18
172.56618	16
182.03856	14
183.03624	14
183.04883	39
184.04866	21
184.05942	37
185.05923	478
186.06761	44
189.04785	25
189.0573	54
189.06461	17
195.0369	17
195.05043	38
196.04849	40
199.03937	17
200.03998	56
211.03793	175
211.9277	15
212.04401	84
213.05411	79
214.05612	15
215.03107	16
223.04456	22
227.03072	150
229.05214	77
230.05205	16
231.0584	21
240.05162	16
255.01656	52
255.02725	152
256.04456	17
257.03839	66
258.05142	21
272.06891	25
283.02795	35
284.0416	43
380.75027	17

NAME: Eriodictyol
PRECURSORMZ: 287.05611164783
PRECURSORTYPE: [M-H]-
INSTRUMENTTYPE: LC-ESI-QTOF
SMILES: OC1=CC(O)=C2C(=O)CC(OC2=C1)C1=CC(O)=C(O)C=C1
INCHIKEY: SBHXYTNGIZCORC-UHFFFAOYNA-N
Ontology: Flavanones
COLLISIONENERGY: 50
FORMULA: C15H12O6
RETENTIONTIME: 5.340183
IONMODE: Negative
Comment: registered in RIKEN PlaSMA
Num Peaks: 24
65.00194	14
66.00473	12
79.05703	33
80.05648	20
83.01223	40
89.00768	21
89.03764	11
89.04192	18
91.0528	23
91.05853	34
101.03422	11
106.04496	13
107.04699	27
107.05227	20
108.01638	23
109.0316	72
117.0338	64
118.03757	13
133.02802	12
134.03522	370
135.04343	1000
136.00662	17
136.0451	71
140.06313	20

NAME: Apigenin-8-C-glucoside-2'-rhamnoside
PRECURSORMZ: 577.15627914783
PRECURSORTYPE: [M-H]-
INSTRUMENTTYPE: LC-ESI-QTOF
SMILES: CC1OC(OC2C(O)C(O)C(CO)OC2C2=C(O)C=C(O)C3=C2OC(=CC3=O)C2=CC=C(O)C=C2)C(O)C(O)C1O
INCHIKEY: LYGPBZVKGHHTIE-UHFFFAOYNA-N
Ontology: Flavonoid 8-C-glycosides
COLLISIONENERGY: 10
FORMULA: C27H30O14
RETENTIONTIME: 3.85705
IONMODE: Negative
Comment: registered in RIKEN PlaSMA
Num Peaks: 28
59.01449	6
103.04154	6
163.04378	7
173.02223	6
275.04306	6
281.04764	8
282.04984	9
282.06137	9
283.05914	28
293.04425	1000
294.04852	189
295.05051	13
311.05209	147
312.04984	13
323.05463	29
324.06003	8
335.05933	17
341.06082	19
413.08685	616
414.09259	101
415.09412	27
431.10022	5
457.09985	18
457.12012	25
458.11536	10
459.11548	6
494.8092	5
577.15564	874

NAME: Eriodictyol-7-O-rutinoside
PRECURSORMZ: 595.16684384783
PRECURSORTYPE: [M-H]-
INSTRUMENTTYPE: LC-ESI-QTOF
SMILES: CC1OC(OCC2OC(OC3=CC(O)=C4C(=O)CC(OC4=C3)C3=CC(O)=C(O)C=C3)C(O)C(O)C2O)C(O)C(O)C1O
INCHIKEY: OMQADRGFMLGFJF-UHFFFAOYNA-N
Ontology: Flavonoid-7-O-glycosides
COLLISIONENERGY: 10
FORMULA: C27H32O15
RETENTIONTIME: 3.9209
IONMODE: Negative
Comment: registered in RIKEN PlaSMA
Num Peaks: 25
64.99883	5
107.01077	14
111.73622	6
125.02033	15
135.04358	69
136.04997	9
151.00215	499
152.00349	34
153.0072	11
161.01775	5
174.99579	7
175.00578	41
177.02995	6
193.01279	26
269.04291	7
285.04099	29
286.04135	10
287.05426	1000
288.05844	153
289.06516	20
311.04749	6
459.11157	20
593.15515	17
594.15088	22
595.16394	389

NAME: Eriodictyol-7-O-glucoside
PRECURSORMZ: 449.10893504783
PRECURSORTYPE: [M-H]-
INSTRUMENTTYPE: LC-ESI-QTOF
SMILES: OCC1OC(OC2=CC(O)=C3C(=O)CC(OC3=C2)C2=CC(O)=C(O)C=C2)C(O)C(O)C1O
INCHIKEY: RAFHNDRXYHOLSH-UHFFFAOYNA-N
Ontology: Flavonoid-7-O-glycosides
COLLISIONENERGY: 10
FORMULA: C21H22O11
RETENTIONTIME: 4.0848
IONMODE: Negative
Comment: registered in RIKEN PlaSMA
Num Peaks: 27
107.00925	6
107.01609	6
109.02687	10
125.02441	13
131.01625	6
134.03011	5
135.04305	224
136.04552	28
137.04651	7
151.00212	488
152.00658	53
153.00781	6
161.02049	11
165.01695	9
175.0013	53
177.00899	5
194.0074	5
285.03995	19
286.03741	5
287.05472	1000
288.05814	186
289.06082	40
297.09286	6
311.04965	7
447.09122	11
448.08456	10
449.11005	88

NAME: Kaempferol-7-O-rhamnoside
PRECURSORMZ: 431.09837034783
PRECURSORTYPE: [M-H]-
INSTRUMENTTYPE: LC-ESI-QTOF
SMILES: CC1OC(OC2=CC(O)=C3C(=O)C(O)=C(OC3=C2)C2=CC=C(O)C=C2)C(O)C(O)C1O
INCHIKEY: HQNOUCSPWAGQND-UHFFFAOYNA-N
Ontology: Flavonoid-7-O-glycosides
COLLISIONENERGY: 10
FORMULA: C21H20O10
RETENTIONTIME: 5.268567
IONMODE: Negative
Comment: registered in RIKEN PlaSMA
Num Peaks: 31
63.02285	7
107.01197	37
149.99271	8
151.00304	271
152.00096	16
152.00795	13
163.00409	6
164.00862	12
164.01526	10
170.03961	5
171.34868	6
185.05864	10
198.03088	6
213.05273	25
214.06152	5
228.05229	6
229.05458	5
241.04785	27
255.02672	6
255.03601	8
257.04532	103
258.04092	6
258.05435	19
259.05063	7
283.01083	6
284.03134	251
285.039	438
286.04245	100
286.05246	28
287.04752	11
431.09955	1000

NAME: Eriodictyol
PRECURSORMZ: 287.05611164783
PRECURSORTYPE: [M-H]-
INSTRUMENTTYPE: LC-ESI-QTOF
SMILES: OC1=CC(O)=C2C(=O)CC(OC2=C1)C1=CC(O)=C(O)C=C1
INCHIKEY: SBHXYTNGIZCORC-UHFFFAOYNA-N
Ontology: Flavanones
COLLISIONENERGY: 10
FORMULA: C15H12O6
RETENTIONTIME: 5.340183
IONMODE: Negative
Comment: registered in RIKEN PlaSMA
Num Peaks: 19
65.00064	19
83.01064	12
83.01557	9
107.01196	107
107.04869	8
109.02571	7
125.0223	30
134.03473	15
135.04318	867
136.0481	131
137.04572	10
151.00148	1000
152.00478	82
153.00552	8
165.01511	7
177.02002	8
199.043	5
286.0401	8
287.05371	199

NAME: Apigenin-8-C-glucoside-2'-rhamnoside
PRECURSORMZ: 577.15627914783
PRECURSORTYPE: [M-H]-
INSTRUMENTTYPE: LC-ESI-QTOF
SMILES: CC1OC(OC2C(O)C(O)C(CO)OC2C2=C(O)C=C(O)C3=C2OC(=CC3=O)C2=CC=C(O)C=C2)C(O)C(O)C1O
INCHIKEY: LYGPBZVKGHHTIE-UHFFFAOYNA-N
Ontology: Flavonoid 8-C-glycosides
COLLISIONENERGY: 10
FORMULA: C27H30O14
RETENTIONTIME: 3.85705
IONMODE: Negative
Comment: registered in RIKEN PlaSMA
Num Peaks: 7
293.04456	15
413.08722	153
414.08847	36
415.09171	10
457.10617	7
457.12006	8
577.15564	1000

NAME: Eriodictyol-7-O-rutinoside
PRECURSORMZ: 595.16684384783
PRECURSORTYPE: [M-H]-
INSTRUMENTTYPE: LC-ESI-QTOF
SMILES: CC1OC(OCC2OC(OC3=CC(O)=C4C(=O)CC(OC4=C3)C3=CC(O)=C(O)C=C3)C(O)C(O)C2O)C(O)C(O)C1O
INCHIKEY: OMQADRGFMLGFJF-UHFFFAOYNA-N
Ontology: Flavonoid-7-O-glycosides
COLLISIONENERGY: 10
FORMULA: C27H32O15
RETENTIONTIME: 3.9209
IONMODE: Negative
Comment: registered in RIKEN PlaSMA
Num Peaks: 8
287.05463	634
288.0589	97
289.05609	14
459.12	8
593.1499	31
594.15045	28
594.1676	13
595.16602	1000

NAME: Eriodictyol-7-O-glucoside
PRECURSORMZ: 449.10893504783
PRECURSORTYPE: [M-H]-
INSTRUMENTTYPE: LC-ESI-QTOF
SMILES: OCC1OC(OC2=CC(O)=C3C(=O)CC(OC3=C2)C2=CC(O)=C(O)C=C2)C(O)C(O)C1O
INCHIKEY: RAFHNDRXYHOLSH-UHFFFAOYNA-N
Ontology: Flavonoid-7-O-glycosides
COLLISIONENERGY: 10
FORMULA: C21H22O11
RETENTIONTIME: 4.0848
IONMODE: Negative
Comment: registered in RIKEN PlaSMA
Num Peaks: 7
151.00591	6
287.05411	1000
288.05771	164
289.05881	30
447.09402	9
448.09674	14
449.10919	241

NAME: Kaempferol-7-O-rhamnoside
PRECURSORMZ: 431.09837034783
PRECURSORTYPE: [M-H]-
INSTRUMENTTYPE: LC-ESI-QTOF
SMILES: CC1OC(OC2=CC(O)=C3C(=O)C(O)=C(OC3=C2)C2=CC=C(O)C=C2)C(O)C(O)C1O
INCHIKEY: HQNOUCSPWAGQND-UHFFFAOYNA-N
Ontology: Flavonoid-7-O-glycosides
COLLISIONENERGY: 10
FORMULA: C21H20O10
RETENTIONTIME: 5.268567
IONMODE: Negative
Comment: registered in RIKEN PlaSMA
Num Peaks: 4
284.0275	8
285.03384	34
285.04663	21
431.09732	1000

NAME: Eriodictyol
PRECURSORMZ: 287.05611164783
PRECURSORTYPE: [M-H]-
INSTRUMENTTYPE: LC-ESI-QTOF
SMILES: OC1=CC(O)=C2C(=O)CC(OC2=C1)C1=CC(O)=C(O)C=C1
INCHIKEY: SBHXYTNGIZCORC-UHFFFAOYNA-N
Ontology: Flavanones
COLLISIONENERGY: 10
FORMULA: C15H12O6
RETENTIONTIME: 5.340183
IONMODE: Negative
Comment: registered in RIKEN PlaSMA
Num Peaks: 14
107.01188	8
125.02349	24
135.04367	185
136.04568	17
136.05185	6
151.00201	1000
152.00426	74
153.00401	14
153.0153	6
199.04117	5
269.04059	6
285.0303	6
286.03854	18
287.05508	610

NAME: Apigenin-8-C-glucoside-2'-rhamnoside
PRECURSORMZ: 577.15627914783
PRECURSORTYPE: [M-H]-
INSTRUMENTTYPE: LC-ESI-QTOF
SMILES: CC1OC(OC2C(O)C(O)C(CO)OC2C2=C(O)C=C(O)C3=C2OC(=CC3=O)C2=CC=C(O)C=C2)C(O)C(O)C1O
INCHIKEY: LYGPBZVKGHHTIE-UHFFFAOYNA-N
Ontology: Flavonoid 8-C-glycosides
COLLISIONENERGY: 30
FORMULA: C27H30O14
RETENTIONTIME: 3.85705
IONMODE: Negative
Comment: registered in RIKEN PlaSMA
Num Peaks: 21
103.03648	5
269.04675	16
281.04294	18
282.04517	8
282.05804	9
283.05917	24
293.04401	1000
294.047	208
295.0462	12
295.05713	22
311.05573	163
312.05685	23
323.05295	17
335.06931	8
341.05582	7
341.07266	15
353.05374	6
355.07278	5
413.08469	139
414.0856	12
414.10074	9

NAME: Eriodictyol-7-O-rutinoside
PRECURSORMZ: 595.16684384783
PRECURSORTYPE: [M-H]-
INSTRUMENTTYPE: LC-ESI-QTOF
SMILES: CC1OC(OCC2OC(OC3=CC(O)=C4C(=O)CC(OC4=C3)C3=CC(O)=C(O)C=C3)C(O)C(O)C2O)C(O)C(O)C1O
INCHIKEY: OMQADRGFMLGFJF-UHFFFAOYNA-N
Ontology: Flavonoid-7-O-glycosides
COLLISIONENERGY: 30
FORMULA: C27H32O15
RETENTIONTIME: 3.9209
IONMODE: Negative
Comment: registered in RIKEN PlaSMA
Num Peaks: 23
107.01182	19
125.02357	32
135.04411	167
136.04605	15
151.00226	1000
152.00661	79
153.00763	9
161.0271	8
165.01686	5
175.00014	40
175.00847	16
176.00211	10
193.00987	13
205.01244	6
269.0506	16
285.03406	28
285.0451	14
286.04288	18
287.05399	452
288.06006	100
311.05249	5
329.06424	7
459.11093	10

NAME: Eriodictyol-7-O-glucoside
PRECURSORMZ: 449.10893504783
PRECURSORTYPE: [M-H]-
INSTRUMENTTYPE: LC-ESI-QTOF
SMILES: OCC1OC(OC2=CC(O)=C3C(=O)CC(OC3=C2)C2=CC(O)=C(O)C=C2)C(O)C(O)C1O
INCHIKEY: RAFHNDRXYHOLSH-UHFFFAOYNA-N
Ontology: Flavonoid-7-O-glycosides
COLLISIONENERGY: 30
FORMULA: C21H22O11
RETENTIONTIME: 4.0848
IONMODE: Negative
Comment: registered in RIKEN PlaSMA
Num Peaks: 29
107.01216	35
109.02652	8
125.02428	32
135.04375	479
136.04875	44
151.00191	1000
152.0049	85
152.01259	21
153.00418	18
161.01985	5
161.03018	11
165.01732	9
175.00343	84
175.03682	6
176.00066	9
193.00935	21
205.00951	7
217.00989	6
219.06876	6
258.04099	6
269.03885	5
269.04974	10
284.02667	11
284.03815	8
285.0416	30
286.03461	8
286.04568	12
287.05594	92
288.07187	8

NAME: Kaempferol-7-O-rhamnoside
PRECURSORMZ: 431.09837034783
PRECURSORTYPE: [M-H]-
INSTRUMENTTYPE: LC-ESI-QTOF
SMILES: CC1OC(OC2=CC(O)=C3C(=O)C(O)=C(OC3=C2)C2=CC=C(O)C=C2)C(O)C(O)C1O
INCHIKEY: HQNOUCSPWAGQND-UHFFFAOYNA-N
Ontology: Flavonoid-7-O-glycosides
COLLISIONENERGY: 30
FORMULA: C21H20O10
RETENTIONTIME: 5.268567
IONMODE: Negative
Comment: registered in RIKEN PlaSMA
Num Peaks: 70
63.0204	8
83.01482	34
107.00826	37
107.01291	76
108.01434	9
121.9992	7
123.00365	13
127.21574	5
132.02042	13
136.0191	8
143.04897	8
147.04482	13
148.01003	13
149.99539	9
151.00165	1000
151.83554	5
152.00581	90
163.00697	18
164.00427	13
164.01283	50
165.00238	5
169.06401	17
176.18886	6
182.1752	6
183.04659	6
185.0612	47
186.06816	7
191.99623	8
192.00493	11
193.01682	6
197.41826	7
198.0397	5
205.0074	6
211.52411	6
213.05302	113
214.05539	12
227.03125	6
227.04057	10
228.0399	19
229.03644	10
229.05086	52
230.05048	7
237.26003	6
239.04007	7
240.03241	9
240.04463	8
241.03897	11
241.04805	31
243.03476	7
255.02751	33
256.03299	28
257.04352	511
258.04886	56
258.06876	6
259.0639	7
272.05215	5
283.02029	14
283.03961	6
284.03015	795
285.0379	718
285.06735	6
285.07684	5
286.04211	107
287.0437	31
290.77618	6
327.04861	6
333.845	7
338.06595	5
431.08658	7
431.10443	27

NAME: Eriodictyol
PRECURSORMZ: 287.05611164783
PRECURSORTYPE: [M-H]-
INSTRUMENTTYPE: LC-ESI-QTOF
SMILES: OC1=CC(O)=C2C(=O)CC(OC2=C1)C1=CC(O)=C(O)C=C1
INCHIKEY: SBHXYTNGIZCORC-UHFFFAOYNA-N
Ontology: Flavanones
COLLISIONENERGY: 30
FORMULA: C15H12O6
RETENTIONTIME: 5.340183
IONMODE: Negative
Comment: registered in RIKEN PlaSMA
Num Peaks: 16
65.0023	30
79.01764	5
79.05392	7
83.01107	36
83.01625	9
107.01091	139
107.04983	15
108.02294	5
125.02076	14
133.02654	8
134.03328	22
134.03966	20
135.04329	1000
136.04695	115
151.00214	81
173.05634	8

NAME: Apigenin-8-C-glucoside-2'-rhamnoside
PRECURSORMZ: 577.15627914783
PRECURSORTYPE: [M-H]-
INSTRUMENTTYPE: LC-ESI-QTOF
SMILES: CC1OC(OC2C(O)C(O)C(CO)OC2C2=C(O)C=C(O)C3=C2OC(=CC3=O)C2=CC=C(O)C=C2)C(O)C(O)C1O
INCHIKEY: LYGPBZVKGHHTIE-UHFFFAOYNA-N
Ontology: Flavonoid 8-C-glycosides
COLLISIONENERGY: 50
FORMULA: C27H30O14
RETENTIONTIME: 3.85705
IONMODE: Negative
Comment: registered in RIKEN PlaSMA
Num Peaks: 70
59.01432	14
71.01201	8
77.03617	5
85.02794	5
101.02328	5
117.03043	95
117.03553	107
118.03607	17
131.01122	64
135.04359	6
145.02162	6
145.03139	26
147.04663	9
159.04375	6
161.02032	19
161.0265	15
162.02402	5
162.99794	7
163.00815	5
163.03529	11
169.06375	7
172.04274	7
173.02185	150
174.0273	30
175.00217	229
175.04468	14
176.00591	23
183.04494	8
186.02362	5
187.02901	12
193.06488	14
194.06223	9
203.02715	7
204.9041	6
206.07202	6
209.53949	6
214.01653	6
220.04518	10
220.05524	7
221.05524	13
222.063	13
223.03386	6
237.05432	13
238.06058	10
249.05409	24
251.03433	10
252.04474	5
253.04437	10
253.05508	8
262.88739	5
263.03638	5
264.03595	7
264.04889	18
265.04529	28
265.05823	6
266.05362	6
268.03339	5
269.04324	54
278.00974	8
281.04868	40
282.05405	56
283.05655	152
284.06573	34
293.04404	1000
293.08102	8
294.04803	191
295.05313	34
296.06769	7
311.04504	18
366.23489	5

NAME: Eriodictyol-7-O-rutinoside
PRECURSORMZ: 595.16684384783
PRECURSORTYPE: [M-H]-
INSTRUMENTTYPE: LC-ESI-QTOF
SMILES: CC1OC(OCC2OC(OC3=CC(O)=C4C(=O)CC(OC4=C3)C3=CC(O)=C(O)C=C3)C(O)C(O)C2O)C(O)C(O)C1O
INCHIKEY: OMQADRGFMLGFJF-UHFFFAOYNA-N
Ontology: Flavonoid-7-O-glycosides
COLLISIONENERGY: 50
FORMULA: C27H32O15
RETENTIONTIME: 3.9209
IONMODE: Negative
Comment: registered in RIKEN PlaSMA
Num Peaks: 49
63.02216	9
65.00224	8
83.00871	14
83.014	7
97.03114	10
107.0123	167
108.01286	14
108.02614	10
108.99702	10
109.0248	17
119.04623	6
121.02473	10
121.03058	5
125.02192	31
126.02118	5
129.03485	5
131.01152	36
135.0067	6
135.01314	11
135.04378	709
136.04695	71
136.05203	25
137.02385	17
137.05272	7
145.06314	6
147.04283	7
149.02573	9
151.0018	1000
152.00412	62
153.00673	12
154.94878	5
161.01657	13
161.02278	13
164.01865	6
165.01585	11
172.0524	14
173.1273	6
174.02545	6
175.00203	33
175.01044	19
175.03758	13
177.01451	6
193.01295	7
225.05446	10
257.03809	6
284.02426	12
285.03812	39
286.03696	16
287.04062	7

NAME: Eriodictyol-7-O-glucoside
PRECURSORMZ: 449.10893504783
PRECURSORTYPE: [M-H]-
INSTRUMENTTYPE: LC-ESI-QTOF
SMILES: OCC1OC(OC2=CC(O)=C3C(=O)CC(OC3=C2)C2=CC(O)=C(O)C=C2)C(O)C(O)C1O
INCHIKEY: RAFHNDRXYHOLSH-UHFFFAOYNA-N
Ontology: Flavonoid-7-O-glycosides
COLLISIONENERGY: 50
FORMULA: C21H22O11
RETENTIONTIME: 4.0848
IONMODE: Negative
Comment: registered in RIKEN PlaSMA
Num Peaks: 44
65.00077	22
65.00508	11
77.0416	6
79.0526	9
81.03603	14
83.01321	84
84.0118	5
93.03605	16
103.01544	7
105.03299	6
107.01241	209
107.04894	11
108.01831	52
109.02638	13
119.00912	6
125.02028	19
131.01237	68
133.02003	8
133.02591	20
134.00305	5
134.0374	30
135.0442	1000
136.0047	5
136.01413	6
136.04729	129
137.01872	6
137.02499	7
137.04924	14
151.00063	245
152.00055	15
152.00966	38
153.0033	5
160.0106	5
165.0204	9
182.03619	9
182.04697	7
183.04251	6
187.12753	6
189.98578	6
198.03093	7
199.04292	11
201.05823	9
217.05093	7
284.03055	12

NAME: Kaempferol-7-O-rhamnoside
PRECURSORMZ: 431.09837034783
PRECURSORTYPE: [M-H]-
INSTRUMENTTYPE: LC-ESI-QTOF
SMILES: CC1OC(OC2=CC(O)=C3C(=O)C(O)=C(OC3=C2)C2=CC=C(O)C=C2)C(O)C(O)C1O
INCHIKEY: HQNOUCSPWAGQND-UHFFFAOYNA-N
Ontology: Flavonoid-7-O-glycosides
COLLISIONENERGY: 50
FORMULA: C21H20O10
RETENTIONTIME: 5.268567
IONMODE: Negative
Comment: registered in RIKEN PlaSMA
Num Peaks: 125
63.02176	181
63.03506	18
65.00022	79
65.00468	20
75.02512	29
77.03707	34
83.01377	234
91.05323	13
91.11716	15
91.98823	15
92.09796	20
93.03246	23
94.00199	53
94.00929	36
95.01261	116
96.01667	13
104.02267	32
105.03438	119
107.01119	614
107.01543	210
108.01574	112
108.02218	56
108.78328	14
108.98792	13
109.02216	13
109.13203	29
115.05377	14
115.05841	15
119.01199	13
119.04773	85
120.0147	15
120.02375	39
122.00052	29
123.00568	36
125.02225	36
126.02291	16
129.02927	14
129.0386	17
130.04021	18
132.01675	165
132.02757	42
133.02553	46
133.03258	32
133.67599	18
136.01747	22
136.02332	30
137.01395	23
137.01976	22
139.14964	16
142.04085	41
143.04803	294
144.04984	32
145.02948	130
145.0661	25
146.03232	46
146.07224	15
147.04015	32
147.04688	19
148.04144	17
151.00166	1000
152.00446	27
153.02124	38
156.05534	27
157.02417	13
157.06219	60
157.07585	18
159.04602	18
161.05556	48
161.06384	23
162.05754	15
163.0036	102
164.00902	217
164.01917	30
165.01941	17
167.04343	14
167.05435	49
168.0578	13
170.04146	16
171.04346	71
172.04437	47
173.0199	14
173.05736	18
182.03572	16
183.04784	17
184.05336	46
184.06458	18
185.05756	130
185.06392	54
186.06332	90
187.03845	15
190.99561	20
192.35576	15
195.04604	34
197.05019	15
198.02449	18
199.04015	18
200.04434	18
200.05339	29
201.05106	23
209.0329	13
211.03618	122
212.04507	29
213.05322	74
214.05972	34
215.03401	14
217.04132	16
227.03455	133
229.05501	143
230.04903	17
239.0388	36
240.04478	66
241.03825	30
241.04909	13
255.02295	104
255.03955	23
256.01895	13
257.04816	14
259.04431	14
259.73874	15
267.02451	18
282.01089	16
283.02957	21
284.03677	29
285.02844	44
285.04156	15

NAME: Eriodictyol
PRECURSORMZ: 287.05611164783
PRECURSORTYPE: [M-H]-
INSTRUMENTTYPE: LC-ESI-QTOF
SMILES: OC1=CC(O)=C2C(=O)CC(OC2=C1)C1=CC(O)=C(O)C=C1
INCHIKEY: SBHXYTNGIZCORC-UHFFFAOYNA-N
Ontology: Flavanones
COLLISIONENERGY: 50
FORMULA: C15H12O6
RETENTIONTIME: 5.340183
IONMODE: Negative
Comment: registered in RIKEN PlaSMA
Num Peaks: 22
63.02293	13
64.99929	21
65.00391	19
79.0534	12
83.01708	19
83.66668	24
89.03893	56
91.04533	12
93.04186	20
95.01221	12
106.04272	36
107.0146	17
107.04651	40
108.01501	32
109.05202	12
117.03391	49
130.04443	16
134.0336	282
134.04112	146
135.0435	1000
136.04318	19
136.04982	12

NAME: Apigenin-8-C-glucoside-2'-rhamnoside
PRECURSORMZ: 577.15627914783
PRECURSORTYPE: [M-H]-
INSTRUMENTTYPE: LC-ESI-QTOF
SMILES: CC1OC(OC2C(O)C(O)C(CO)OC2C2=C(O)C=C(O)C3=C2OC(=CC3=O)C2=CC=C(O)C=C2)C(O)C(O)C1O
INCHIKEY: LYGPBZVKGHHTIE-UHFFFAOYNA-N
Ontology: Flavonoid 8-C-glycosides
COLLISIONENERGY: 10
FORMULA: C27H30O14
RETENTIONTIME: 3.85705
IONMODE: Negative
Comment: registered in RIKEN PlaSMA
Num Peaks: 31
174.99203	6
175.00356	14
208.04225	5
269.03961	15
270.04568	6
281.0336	10
282.04932	11
282.06125	5
283.05768	31
293.04388	1000
294.04718	235
295.03732	14
295.05148	16
309.04846	5
310.05032	8
311.05338	113
311.07327	7
312.05627	18
313.06161	6
323.0607	14
335.04999	11
335.06113	7
341.0567	7
341.07443	22
413.08636	608
414.09152	171
415.09091	36
431.08429	7
457.10904	45
458.11069	10
577.1557	844

NAME: Eriodictyol-7-O-rutinoside
PRECURSORMZ: 595.16684384783
PRECURSORTYPE: [M-H]-
INSTRUMENTTYPE: LC-ESI-QTOF
SMILES: CC1OC(OCC2OC(OC3=CC(O)=C4C(=O)CC(OC4=C3)C3=CC(O)=C(O)C=C3)C(O)C(O)C2O)C(O)C(O)C1O
INCHIKEY: OMQADRGFMLGFJF-UHFFFAOYNA-N
Ontology: Flavonoid-7-O-glycosides
COLLISIONENERGY: 10
FORMULA: C27H32O15
RETENTIONTIME: 3.9209
IONMODE: Negative
Comment: registered in RIKEN PlaSMA
Num Peaks: 25
107.00952	10
125.02151	13
125.02927	6
135.04309	123
151.00165	561
152.00497	53
153.00185	10
161.02379	9
165.01671	15
175.00168	52
193.01535	7
270.05215	8
285.0307	6
285.04605	20
286.04431	14
287.05298	1000
288.05563	175
289.05664	33
311.0571	13
459.11029	20
460.11737	8
593.14941	14
594.14703	18
594.16895	7
595.16565	443

NAME: Eriodictyol-7-O-glucoside
PRECURSORMZ: 449.10893504783
PRECURSORTYPE: [M-H]-
INSTRUMENTTYPE: LC-ESI-QTOF
SMILES: OCC1OC(OC2=CC(O)=C3C(=O)CC(OC3=C2)C2=CC(O)=C(O)C=C2)C(O)C(O)C1O
INCHIKEY: RAFHNDRXYHOLSH-UHFFFAOYNA-N
Ontology: Flavonoid-7-O-glycosides
COLLISIONENERGY: 10
FORMULA: C21H22O11
RETENTIONTIME: 4.0848
IONMODE: Negative
Comment: registered in RIKEN PlaSMA
Num Peaks: 24
107.01361	9
135.04393	199
136.04709	6
136.0538	12
137.02295	8
151.00169	535
152.00603	52
153.00659	14
165.02058	6
175.00209	70
193.01451	6
269.04373	8
285.03217	21
286.04239	11
287.05408	1000
288.05847	183
289.05743	24
289.06854	9
311.06378	7
313.0466	7
447.09793	13
448.09558	11
449.10449	92
449.1174	25

NAME: Kaempferol-7-O-rhamnoside
PRECURSORMZ: 431.09837034783
PRECURSORTYPE: [M-H]-
INSTRUMENTTYPE: LC-ESI-QTOF
SMILES: CC1OC(OC2=CC(O)=C3C(=O)C(O)=C(OC3=C2)C2=CC=C(O)C=C2)C(O)C(O)C1O
INCHIKEY: HQNOUCSPWAGQND-UHFFFAOYNA-N
Ontology: Flavonoid-7-O-glycosides
COLLISIONENERGY: 10
FORMULA: C21H20O10
RETENTIONTIME: 5.268567
IONMODE: Negative
Comment: registered in RIKEN PlaSMA
Num Peaks: 32
83.01061	9
105.03069	6
107.01061	27
107.01831	8
121.99903	7
123.00503	6
124.00814	5
136.01129	5
151.00151	270
152.00206	8
163.00003	11
164.00603	19
185.05661	19
213.04514	7
213.05589	35
229.04305	19
229.05711	12
240.03967	7
241.04807	20
255.02654	8
257.04248	172
258.0314	8
258.0463	13
259.05432	5
283.02774	7
284.0318	318
285.03836	521
286.04156	108
287.04803	16
291.26764	5
424.04794	5
431.09668	1000

NAME: Eriodictyol
PRECURSORMZ: 287.05611164783
PRECURSORTYPE: [M-H]-
INSTRUMENTTYPE: LC-ESI-QTOF
SMILES: OC1=CC(O)=C2C(=O)CC(OC2=C1)C1=CC(O)=C(O)C=C1
INCHIKEY: SBHXYTNGIZCORC-UHFFFAOYNA-N
Ontology: Flavanones
COLLISIONENERGY: 10
FORMULA: C15H12O6
RETENTIONTIME: 5.340183
IONMODE: Negative
Comment: registered in RIKEN PlaSMA
Num Peaks: 15
64.99988	10
83.01369	8
107.01111	72
108.01854	12
109.02475	10
125.0225	50
134.03586	28
135.04333	770
136.0446	61
151.00218	1000
152.00552	87
153.00623	13
161.02296	8
165.02158	5
287.05447	195

NAME: Apigenin-8-C-glucoside-2'-rhamnoside
PRECURSORMZ: 577.15627914783
PRECURSORTYPE: [M-H]-
INSTRUMENTTYPE: LC-ESI-QTOF
SMILES: CC1OC(OC2C(O)C(O)C(CO)OC2C2=C(O)C=C(O)C3=C2OC(=CC3=O)C2=CC=C(O)C=C2)C(O)C(O)C1O
INCHIKEY: LYGPBZVKGHHTIE-UHFFFAOYNA-N
Ontology: Flavonoid 8-C-glycosides
COLLISIONENERGY: 10
FORMULA: C27H30O14
RETENTIONTIME: 3.85705
IONMODE: Negative
Comment: registered in RIKEN PlaSMA
Num Peaks: 7
293.05093	8
413.0867	162
414.07672	11
414.09341	22
415.09509	6
457.11853	6
577.15491	1000

NAME: Eriodictyol-7-O-rutinoside
PRECURSORMZ: 595.16684384783
PRECURSORTYPE: [M-H]-
INSTRUMENTTYPE: LC-ESI-QTOF
SMILES: CC1OC(OCC2OC(OC3=CC(O)=C4C(=O)CC(OC4=C3)C3=CC(O)=C(O)C=C3)C(O)C(O)C2O)C(O)C(O)C1O
INCHIKEY: OMQADRGFMLGFJF-UHFFFAOYNA-N
Ontology: Flavonoid-7-O-glycosides
COLLISIONENERGY: 10
FORMULA: C27H32O15
RETENTIONTIME: 3.9209
IONMODE: Negative
Comment: registered in RIKEN PlaSMA
Num Peaks: 9
151.00081	6
283.80222	6
287.05429	674
288.05841	114
289.06116	25
459.10785	15
593.14758	35
594.15552	35
595.16528	1000

NAME: Eriodictyol-7-O-glucoside
PRECURSORMZ: 449.10893504783
PRECURSORTYPE: [M-H]-
INSTRUMENTTYPE: LC-ESI-QTOF
SMILES: OCC1OC(OC2=CC(O)=C3C(=O)CC(OC3=C2)C2=CC(O)=C(O)C=C2)C(O)C(O)C1O
INCHIKEY: RAFHNDRXYHOLSH-UHFFFAOYNA-N
Ontology: Flavonoid-7-O-glycosides
COLLISIONENERGY: 10
FORMULA: C21H22O11
RETENTIONTIME: 4.0848
IONMODE: Negative
Comment: registered in RIKEN PlaSMA
Num Peaks: 7
151.00288	7
287.05447	1000
288.05814	182
289.05853	21
447.08414	5
448.10052	16
449.10828	225

NAME: Kaempferol-7-O-rhamnoside
PRECURSORMZ: 431.09837034783
PRECURSORTYPE: [M-H]-
INSTRUMENTTYPE: LC-ESI-QTOF
SMILES: CC1OC(OC2=CC(O)=C3C(=O)C(O)=C(OC3=C2)C2=CC=C(O)C=C2)C(O)C(O)C1O
INCHIKEY: HQNOUCSPWAGQND-UHFFFAOYNA-N
Ontology: Flavonoid-7-O-glycosides
COLLISIONENERGY: 10
FORMULA: C21H20O10
RETENTIONTIME: 5.268567
IONMODE: Negative
Comment: registered in RIKEN PlaSMA
Num Peaks: 4
284.03064	11
285.0408	55
430.09503	6
431.09839	1000

NAME: Eriodictyol
PRECURSORMZ: 287.05611164783
PRECURSORTYPE: [M-H]-
INSTRUMENTTYPE: LC-ESI-QTOF
SMILES: OC1=CC(O)=C2C(=O)CC(OC2=C1)C1=CC(O)=C(O)C=C1
INCHIKEY: SBHXYTNGIZCORC-UHFFFAOYNA-N
Ontology: Flavanones
COLLISIONENERGY: 10
FORMULA: C15H12O6
RETENTIONTIME: 5.340183
IONMODE: Negative
Comment: registered in RIKEN PlaSMA
Num Peaks: 10
107.01093	7
125.021	30
135.04297	170
136.04608	26
151.00168	1000
152.00444	88
153.00696	9
269.04242	6
286.04163	17
287.05353	533

NAME: Apigenin-8-C-glucoside-2'-rhamnoside
PRECURSORMZ: 577.15627914783
PRECURSORTYPE: [M-H]-
INSTRUMENTTYPE: LC-ESI-QTOF
SMILES: CC1OC(OC2C(O)C(O)C(CO)OC2C2=C(O)C=C(O)C3=C2OC(=CC3=O)C2=CC=C(O)C=C2)C(O)C(O)C1O
INCHIKEY: LYGPBZVKGHHTIE-UHFFFAOYNA-N
Ontology: Flavonoid 8-C-glycosides
COLLISIONENERGY: 30
FORMULA: C27H30O14
RETENTIONTIME: 3.85705
IONMODE: Negative
Comment: registered in RIKEN PlaSMA
Num Peaks: 18
89.01963	6
101.02329	10
269.04886	5
281.04016	8
283.056	10
293.04321	1000
294.04642	178
295.04813	29
296.0452	6
311.05258	110
312.05911	20
323.05179	7
323.06067	16
335.05399	7
341.06662	17
413.08536	107
413.10889	6
414.09143	22

NAME: Eriodictyol-7-O-rutinoside
PRECURSORMZ: 595.16684384783
PRECURSORTYPE: [M-H]-
INSTRUMENTTYPE: LC-ESI-QTOF
SMILES: CC1OC(OCC2OC(OC3=CC(O)=C4C(=O)CC(OC4=C3)C3=CC(O)=C(O)C=C3)C(O)C(O)C2O)C(O)C(O)C1O
INCHIKEY: OMQADRGFMLGFJF-UHFFFAOYNA-N
Ontology: Flavonoid-7-O-glycosides
COLLISIONENERGY: 30
FORMULA: C27H32O15
RETENTIONTIME: 3.9209
IONMODE: Negative
Comment: registered in RIKEN PlaSMA
Num Peaks: 20
125.02322	37
135.04349	170
136.04634	7
151.00188	1000
152.0062	73
165.01534	6
174.99242	9
175.00246	44
176.00664	7
193.00876	11
193.01833	6
217.01326	7
285.03717	33
286.04068	14
287.05426	455
288.05905	74
289.06476	8
311.05499	20
312.06149	6
459.11606	5

NAME: Eriodictyol-7-O-glucoside
PRECURSORMZ: 449.10893504783
PRECURSORTYPE: [M-H]-
INSTRUMENTTYPE: LC-ESI-QTOF
SMILES: OCC1OC(OC2=CC(O)=C3C(=O)CC(OC3=C2)C2=CC(O)=C(O)C=C2)C(O)C(O)C1O
INCHIKEY: RAFHNDRXYHOLSH-UHFFFAOYNA-N
Ontology: Flavonoid-7-O-glycosides
COLLISIONENERGY: 30
FORMULA: C21H22O11
RETENTIONTIME: 4.0848
IONMODE: Negative
Comment: registered in RIKEN PlaSMA
Num Peaks: 22
83.01373	13
107.01209	71
109.02516	9
125.01727	13
125.02465	30
135.04329	419
136.04291	14
136.05257	11
151.00162	1000
152.00574	74
161.02156	12
163.00401	5
164.0121	7
175.00365	54
193.00067	6
193.01265	25
205.00641	9
225.04744	8
269.04437	5
285.03848	29
287.05487	93
288.05737	9

NAME: Kaempferol-7-O-rhamnoside
PRECURSORMZ: 431.09837034783
PRECURSORTYPE: [M-H]-
INSTRUMENTTYPE: LC-ESI-QTOF
SMILES: CC1OC(OC2=CC(O)=C3C(=O)C(O)=C(OC3=C2)C2=CC=C(O)C=C2)C(O)C(O)C1O
INCHIKEY: HQNOUCSPWAGQND-UHFFFAOYNA-N
Ontology: Flavonoid-7-O-glycosides
COLLISIONENERGY: 30
FORMULA: C21H20O10
RETENTIONTIME: 5.268567
IONMODE: Negative
Comment: registered in RIKEN PlaSMA
Num Peaks: 54
60.71082	5
63.02385	21
83.01096	10
95.01578	7
106.03947	8
107.01366	121
132.01976	8
133.02835	8
136.16412	7
147.0453	6
149.99236	12
149.99849	6
151.00256	1000
152.00589	80
153.01144	8
157.0611	5
161.04985	6
163.00139	14
164.00903	61
165.00444	5
165.01961	9
171.04689	24
172.04944	5
185.06248	33
192.00174	5
192.01363	6
199.03987	18
200.04004	13
212.0506	11
213.05417	111
214.06165	10
227.03246	7
228.03909	18
229.02817	6
229.04814	76
239.03239	10
240.04065	20
240.06056	11
241.04674	49
241.05515	20
255.01886	11
256.03757	8
256.94641	6
257.04449	559
258.04889	84
259.04718	6
259.05606	12
283.02979	6
284.03214	759
285.03915	697
286.03311	25
286.04553	96
287.04099	8
431.09583	17

NAME: Eriodictyol
PRECURSORMZ: 287.05611164783
PRECURSORTYPE: [M-H]-
INSTRUMENTTYPE: LC-ESI-QTOF
SMILES: OC1=CC(O)=C2C(=O)CC(OC2=C1)C1=CC(O)=C(O)C=C1
INCHIKEY: SBHXYTNGIZCORC-UHFFFAOYNA-N
Ontology: Flavanones
COLLISIONENERGY: 30
FORMULA: C15H12O6
RETENTIONTIME: 5.340183
IONMODE: Negative
Comment: registered in RIKEN PlaSMA
Num Peaks: 19
63.02282	11
65.00233	42
79.05402	11
83.01306	45
107.01289	107
107.04663	12
108.01772	10
109.02853	8
121.02479	6
133.02469	9
134.03667	48
135.0441	1000
136.04619	81
137.0237	6
137.04892	10
151.00229	88
152.007	6
152.01286	9
157.06355	6

NAME: Apigenin-8-C-glucoside-2'-rhamnoside
PRECURSORMZ: 577.15627914783
PRECURSORTYPE: [M-H]-
INSTRUMENTTYPE: LC-ESI-QTOF
SMILES: CC1OC(OC2C(O)C(O)C(CO)OC2C2=C(O)C=C(O)C3=C2OC(=CC3=O)C2=CC=C(O)C=C2)C(O)C(O)C1O
INCHIKEY: LYGPBZVKGHHTIE-UHFFFAOYNA-N
Ontology: Flavonoid 8-C-glycosides
COLLISIONENERGY: 50
FORMULA: C27H30O14
RETENTIONTIME: 3.85705
IONMODE: Negative
Comment: registered in RIKEN PlaSMA
Num Peaks: 59
59.01305	10
85.02765	7
101.02413	5
117.03325	167
118.03543	18
118.04462	7
119.04858	6
131.01871	14
145.0284	12
149.02145	18
159.03963	9
161.02628	34
162.99899	17
165.01881	5
165.02547	5
173.01588	29
173.02353	128
174.02571	20
175.00281	310
176.00592	25
185.01909	7
193.06496	6
201.0578	6
203.0285	7
217.07059	7
220.04713	9
221.06413	7
225.04945	12
237.05095	5
237.0616	13
239.06659	6
249.05382	66
250.06058	9
251.02888	10
253.05405	10
265.04755	32
266.0838	5
269.04697	44
270.04599	11
275.03186	7
277.29031	5
281.04291	44
282.04858	22
283.05267	63
283.06256	102
284.0528	12
284.06268	19
285.05377	7
293.04437	1000
294.04797	131
295.05164	13
295.06265	37
305.72305	6
306.0462	6
307.05789	8
311.05228	24
311.06812	6
312.05652	5
323.05536	19

NAME: Eriodictyol-7-O-rutinoside
PRECURSORMZ: 595.16684384783
PRECURSORTYPE: [M-H]-
INSTRUMENTTYPE: LC-ESI-QTOF
SMILES: CC1OC(OCC2OC(OC3=CC(O)=C4C(=O)CC(OC4=C3)C3=CC(O)=C(O)C=C3)C(O)C(O)C2O)C(O)C(O)C1O
INCHIKEY: OMQADRGFMLGFJF-UHFFFAOYNA-N
Ontology: Flavonoid-7-O-glycosides
COLLISIONENERGY: 50
FORMULA: C27H32O15
RETENTIONTIME: 3.9209
IONMODE: Negative
Comment: registered in RIKEN PlaSMA
Num Peaks: 38
63.02032	10
65.00096	15
83.01067	25
107.01254	250
108.01167	5
108.01687	6
108.99234	5
109.02988	26
110.03417	6
124.94534	6
125.02219	41
132.00797	9
133.02452	9
134.03323	13
135.04332	942
136.04495	83
145.02879	9
149.02107	10
151.00203	1000
152.00516	85
152.02568	5
153.00885	11
155.05069	10
161.02338	19
164.00836	6
165.01778	30
167.03177	7
175.00063	41
189.01868	5
193.01196	11
201.0154	5
226.06529	6
242.05791	5
284.02679	12
285.04288	47
286.04321	26
287.04639	6
287.05923	8

NAME: Eriodictyol-7-O-glucoside
PRECURSORMZ: 449.10893504783
PRECURSORTYPE: [M-H]-
INSTRUMENTTYPE: LC-ESI-QTOF
SMILES: OCC1OC(OC2=CC(O)=C3C(=O)CC(OC3=C2)C2=CC(O)=C(O)C=C2)C(O)C(O)C1O
INCHIKEY: RAFHNDRXYHOLSH-UHFFFAOYNA-N
Ontology: Flavonoid-7-O-glycosides
COLLISIONENERGY: 50
FORMULA: C21H22O11
RETENTIONTIME: 4.0848
IONMODE: Negative
Comment: registered in RIKEN PlaSMA
Num Peaks: 62
63.02044	5
63.02533	11
65.00141	24
81.31344	5
83.01307	41
92.02682	6
93.03469	13
105.03495	9
107.01173	208
107.04913	6
108.01269	25
108.01818	32
108.99262	15
109.02517	22
117.03238	6
124.01247	6
125.02367	40
131.01001	15
131.02008	6
132.01447	5
133.02768	10
134.03375	27
134.04205	11
135.00299	7
135.04379	1000
135.09595	5
135.80493	6
136.04616	78
136.05396	31
137.03	16
137.04242	7
137.05313	20
151.00211	316
151.04417	5
152.00555	36
153.0274	5
158.03629	8
159.03165	5
161.01057	5
161.02423	8
161.03474	7
165.01888	26
174.06653	7
174.99904	6
176.04617	7
177.05319	7
178.02623	5
179.0428	6
179.24677	6
185.02814	11
187.03096	6
197.04688	8
199.02992	7
200.04192	5
210.03519	7
211.03944	5
212.05234	5
224.04088	6
225.04597	8
246.05217	5
270.05365	10
284.01892	6

NAME: Kaempferol-7-O-rhamnoside
PRECURSORMZ: 431.09837034783
PRECURSORTYPE: [M-H]-
INSTRUMENTTYPE: LC-ESI-QTOF
SMILES: CC1OC(OC2=CC(O)=C3C(=O)C(O)=C(OC3=C2)C2=CC=C(O)C=C2)C(O)C(O)C1O
INCHIKEY: HQNOUCSPWAGQND-UHFFFAOYNA-N
Ontology: Flavonoid-7-O-glycosides
COLLISIONENERGY: 50
FORMULA: C21H20O10
RETENTIONTIME: 5.268567
IONMODE: Negative
Comment: registered in RIKEN PlaSMA
Num Peaks: 122
54.87026	20
63.02262	217
63.82029	14
64.02613	20
64.99854	40
65.00455	137
66.00764	18
69.66521	15
83.01349	226
84.01382	20
84.9956	15
87.00823	20
93.02848	17
93.03945	22
94.00669	23
94.01029	65
95.01277	143
97.97076	17
105.0274	26
105.0335	87
106.00493	18
107.01269	1000
107.58605	16
108.01476	75
108.02059	202
109.01361	35
109.02979	16
117.28944	15
119.01717	31
119.05551	14
120.02126	176
122.00072	75
122.00661	17
123.00423	29
124.0137	21
125.14392	23
129.06535	17
130.03442	23
132.02277	109
133.02901	53
135.0062	14
136.01401	51
136.31847	14
137.02368	46
139.55348	15
142.03604	18
142.04262	17
143.0495	335
144.05466	15
145.02998	149
145.0648	23
146.03427	38
147.03627	37
147.0424	56
151.0018	817
152.00194	78
153.01395	16
154.03349	15
156.05466	50
157.02849	15
157.06116	38
157.07103	52
158.03177	20
158.06677	14
159.04282	39
161.05576	40
161.06567	38
162.99899	143
163.15581	14
164.01019	234
165.00757	17
167.04767	113
168.05132	26
169.02831	20
170.04483	21
171.04103	38
171.05072	65
172.04828	15
173.02922	21
174.03641	16
181.02888	29
182.03287	14
183.04488	110
184.04869	66
185.06056	457
185.07993	14
186.06297	83
187.03847	16
188.32477	18
195.04417	45
196.04568	14
199.03075	30
199.04018	58
200.04164	15
200.04884	14
210.02182	20
211.02579	38
211.04059	72
212.04752	59
213.04291	30
213.062	18
214.05695	19
215.02472	16
215.03725	36
218.79123	15
223.04152	48
224.49835	26
226.02466	15
227.0352	174
228.04756	23
229.04808	202
239.04103	34
255.02948	127
256.03452	15
257.04166	182
257.05197	64
258.05096	20
267.02548	17
283.02594	17
284.0256	32
284.04065	58
285.03906	22

NAME: Eriodictyol
PRECURSORMZ: 287.05611164783
PRECURSORTYPE: [M-H]-
INSTRUMENTTYPE: LC-ESI-QTOF
SMILES: OC1=CC(O)=C2C(=O)CC(OC2=C1)C1=CC(O)=C(O)C=C1
INCHIKEY: SBHXYTNGIZCORC-UHFFFAOYNA-N
Ontology: Flavanones
COLLISIONENERGY: 50
FORMULA: C15H12O6
RETENTIONTIME: 5.340183
IONMODE: Negative
Comment: registered in RIKEN PlaSMA
Num Peaks: 18
89.03883	70
95.01233	11
104.01703	10
106.04279	17
107.04868	48
108.04797	16
117.02886	14
131.01801	11
131.04686	9
133.03004	53
134.0343	342
134.04173	118
135.04417	1000
136.01729	14
136.04715	116
141.38499	13
154.03555	9
210.53412	27

NAME: Catechin
PRECURSORMZ: 289.07176174783
PRECURSORTYPE: [M-H]-
INSTRUMENTTYPE: LC-ESI-QTOF
SMILES: OC1CC2=C(O)C=C(O)C=C2OC1C1=CC(O)=C(O)C=C1
INCHIKEY: PFTAWBLQPZVEMU-UHFFFAOYNA-N
Ontology: Catechins
COLLISIONENERGY: 10
FORMULA: C15H14O6
RETENTIONTIME: 3.113367
IONMODE: Negative
Comment: registered in RIKEN PlaSMA
Num Peaks: 114
81.02776	9
81.03581	9
93.35982	10
95.04803	27
97.02564	46
97.03348	12
101.04004	12
105.03279	17
109.02644	244
110.02834	15
111.03281	11
111.04314	28
118.07271	24
121.01749	10
121.02705	23
121.03567	8
122.0361	19
123.03338	41
123.04231	244
124.01945	9
124.28222	9
125.02249	266
126.02054	9
131.04729	13
133.02789	10
133.06339	9
135.0388	38
136.04268	16
137.02148	177
138.02557	27
138.03537	11
139.0313	17
139.03821	53
145.0244	21
147.03947	22
149.02002	61
149.02997	12
150.02437	14
151.03679	216
151.04207	101
152.03621	11
157.06853	28
159.04263	34
159.08357	9
160.05388	8
161.00659	9
161.01825	22
161.04596	9
161.05913	63
161.06976	6
161.09993	10
162.02921	26
163.04109	65
164.00127	9
164.00908	8
164.03564	11
165.01904	50
166.0226	22
167.02991	44
168.40349	9
168.89261	13
173.0584	21
173.07635	8
175.04141	43
175.07231	53
175.08235	8
176.04068	20
177.04605	14
177.05388	32
179.03322	155
180.0307	18
180.04057	10
181.05313	9
185.0587	43
187.0372	170
188.04291	62
188.0517	26
189.04678	29
195.22984	10
199.0681	9
199.08279	13
201.04971	9
201.06013	26
201.09232	14
202.05327	10
202.06383	24
202.07347	12
203.02864	9
203.0692	200
204.06844	29
205.04747	213
207.05595	13
211.03674	19
217.05151	13
217.08562	11
218.08618	18
221.08012	61
225.05327	9
227.07417	66
229.05406	8
230.0647	19
231.03682	11
231.04848	9
245.07962	399
245.68614	11
246.07977	11
247.05453	25
247.06204	12
247.09178	8
260.06519	8
271.05597	32
271.06668	10
272.06067	10
289.06839	1000

NAME: Epigallocatechin-3-gallate
PRECURSORMZ: 457.07763494783
PRECURSORTYPE: [M-H]-
INSTRUMENTTYPE: LC-ESI-QTOF
SMILES: OC1=CC(O)=C2CC(OC(=O)C3=CC(O)=C(O)C(O)=C3)C(OC2=C1)C1=CC(O)=C(O)C(O)=C1
INCHIKEY: WMBWREPUVVBILR-UHFFFAOYNA-N
Ontology: Catechin gallates
COLLISIONENERGY: 10
FORMULA: C22H18O11
RETENTIONTIME: 3.467917
IONMODE: Negative
Comment: registered in RIKEN PlaSMA
Num Peaks: 48
79.02103	7
95.01726	7
123.04212	6
124.01689	7
125.0229	162
125.03862	6
126.02401	18
133.03131	6
136.01474	6
137.02498	9
139.03365	6
149.01711	7
149.05978	13
161.01967	27
161.02742	19
162.02147	6
165.01743	13
166.9967	24
167.03355	9
169.01358	1000
170.01175	60
170.03128	17
171.01649	20
175.03526	9
177.04408	6
178.01799	12
179.03342	6
185.03169	9
193.01128	19
201.04622	7
219.06567	17
230.0244	6
243.06583	6
245.03786	9
247.05988	7
269.04651	7
275.05371	5
287.05392	24
288.06232	6
305.06241	52
305.08722	5
306.06104	14
306.07538	6
318.04855	6
331.04224	21
456.07324	6
457.07437	63
457.09222	35

NAME: Apigenin-8-C-glucoside
PRECURSORMZ: 431.09837034783
PRECURSORTYPE: [M-H]-
INSTRUMENTTYPE: LC-ESI-QTOF
SMILES: OCC1OC(C(O)C(O)C1O)C1=C(O)C=C(O)C2=C1OC(=CC2=O)C1=CC=C(O)C=C1
INCHIKEY: SGEWCQFRYRRZDC-UHFFFAOYNA-N
Ontology: Flavonoid 8-C-glycosides
COLLISIONENERGY: 10
FORMULA: C21H20O10
RETENTIONTIME: 3.964417
IONMODE: Negative
Comment: registered in RIKEN PlaSMA
Num Peaks: 51
93.03186	8
105.03231	10
117.03698	7
121.02739	11
145.02321	7
149.02342	21
159.04245	20
161.02023	13
161.0284	14
163.00087	7
163.04025	26
169.06523	6
182.0726	7
191.03206	17
197.05707	5
199.06769	6
203.02631	9
224.03918	6
225.04897	8
227.02795	6
227.06967	5
237.05812	6
239.07506	6
239.08464	6
267.06723	6
268.03564	5
268.04929	8
269.03903	26
281.04401	15
282.05115	15
283.06033	451
284.05981	83
284.07724	22
285.05222	6
285.06451	15
293.04678	22
295.06705	10
309.04141	9
311.05505	1000
311.09512	6
312.05801	193
313.05518	8
313.06845	7
323.04053	6
323.05667	19
324.06311	5
341.06586	63
342.05795	9
342.07672	8
353.07486	5
431.0968	798

NAME: Naringenin-7-O-rutinoside
PRECURSORMZ: 579.17192924783
PRECURSORTYPE: [M-H]-
INSTRUMENTTYPE: LC-ESI-QTOF
SMILES: CC1OC(OCC2OC(OC3=CC(O)=C4C(=O)CC(OC4=C3)C3=CC=C(O)C=C3)C(O)C(O)C2O)C(O)C(O)C1O
INCHIKEY: HXTFHSYLYXVTHC-UHFFFAOYNA-N
Ontology: Flavonoid-7-O-glycosides
COLLISIONENERGY: 10
FORMULA: C27H32O14
RETENTIONTIME: 4.286783
IONMODE: Negative
Comment: registered in RIKEN PlaSMA
Num Peaks: 19
119.0484	23
145.03255	6
151.00262	157
152.00598	14
165.01569	11
175.00185	14
177.01649	19
193.01454	13
227.06726	7
269.03967	7
270.04459	5
271.05911	1000
272.06384	155
273.06772	27
295.05844	35
296.05835	7
313.07129	14
459.11026	5
579.16992	396

NAME: Diosmetin-7-O-rutinoside
PRECURSORMZ: 607.16684384783
PRECURSORTYPE: [M-H]-
INSTRUMENTTYPE: LC-ESI-QTOF
SMILES: COC1=C(O)C=C(C=C1)C1=CC(=O)C2=C(O)C=C(OC3OC(COC4OC(C)C(O)C(O)C4O)C(O)C(O)C3O)C=C2O1
INCHIKEY: GZSOSUNBTXMUFQ-UHFFFAOYNA-N
Ontology: Flavonoid-7-O-glycosides
COLLISIONENERGY: 10
FORMULA: C28H32O15
RETENTIONTIME: 4.4096
IONMODE: Negative
Comment: registered in RIKEN PlaSMA
Num Peaks: 9
284.03076	327
285.03262	40
287.60831	6
299.05582	1000
300.05746	159
301.05685	21
301.07089	13
323.61359	8
607.16833	439

NAME: 3,4,5-Trihydroxystilbene
PRECURSORMZ: 227.07136774783
PRECURSORTYPE: [M-H]-
INSTRUMENTTYPE: LC-ESI-QTOF
SMILES: OC1=CC=C(C=CC2=CC(O)=CC(O)=C2)C=C1
INCHIKEY: LUKBXSAWLPMMSZ-UHFFFAOYSA-N
Ontology: Stilbenes
COLLISIONENERGY: 10
FORMULA: C14H12O3
RETENTIONTIME: 5.00245
IONMODE: Negative
Comment: registered in RIKEN PlaSMA
Num Peaks: 22
115.05612	18
117.03979	9
118.03258	6
119.04897	6
131.05316	6
141.06679	23
143.04875	234
144.05476	40
145.02716	6
157.06512	34
159.07906	63
159.08714	19
181.05949	17
181.06876	11
182.07053	23
182.08446	6
183.0804	76
184.07825	12
185.06038	269
199.07265	9
225.06079	17
227.07031	1000

NAME: Catechin
PRECURSORMZ: 289.07176174783
PRECURSORTYPE: [M-H]-
INSTRUMENTTYPE: LC-ESI-QTOF
SMILES: OC1CC2=C(O)C=C(O)C=C2OC1C1=CC(O)=C(O)C=C1
INCHIKEY: PFTAWBLQPZVEMU-UHFFFAOYNA-N
Ontology: Catechins
COLLISIONENERGY: 10
FORMULA: C15H14O6
RETENTIONTIME: 3.113367
IONMODE: Negative
Comment: registered in RIKEN PlaSMA
Num Peaks: 33
109.0269	23
123.04214	16
125.02383	44
137.02342	52
149.02097	8
151.03781	26
159.04266	7
161.05739	23
162.03398	7
165.01459	16
165.02333	6
167.0293	7
175.0365	9
179.03355	77
187.03778	17
188.045	26
202.06224	13
203.06548	40
203.07378	49
204.06995	7
205.04915	113
205.06522	8
206.05057	13
221.07713	14
227.07292	24
228.06989	6
231.02563	5
245.08121	297
246.08504	68
247.05989	18
247.08386	7
271.05664	10
289.07001	1000

NAME: Epigallocatechin-3-gallate
PRECURSORMZ: 457.07763494783
PRECURSORTYPE: [M-H]-
INSTRUMENTTYPE: LC-ESI-QTOF
SMILES: OC1=CC(O)=C2CC(OC(=O)C3=CC(O)=C(O)C(O)=C3)C(OC2=C1)C1=CC(O)=C(O)C(O)=C1
INCHIKEY: WMBWREPUVVBILR-UHFFFAOYNA-N
Ontology: Catechin gallates
COLLISIONENERGY: 10
FORMULA: C22H18O11
RETENTIONTIME: 3.467917
IONMODE: Negative
Comment: registered in RIKEN PlaSMA
Num Peaks: 31
127.02277	9
137.02815	8
161.02705	15
166.99519	45
169.01297	1000
170.01659	71
172.01268	6
172.02361	6
178.02621	5
241.04865	13
269.04449	5
271.04471	5
285.02722	5
285.03705	6
287.05765	49
288.04639	6
288.06259	7
304.04312	7
305.04913	16
305.0672	144
306.06757	12
306.07773	7
317.03363	12
331.03906	34
331.05173	37
332.05649	12
369.05927	6
437.04837	7
439.08472	6
456.05066	9
457.07544	398

NAME: Apigenin-8-C-glucoside
PRECURSORMZ: 431.09837034783
PRECURSORTYPE: [M-H]-
INSTRUMENTTYPE: LC-ESI-QTOF
SMILES: OCC1OC(C(O)C(O)C1O)C1=C(O)C=C(O)C2=C1OC(=CC2=O)C1=CC=C(O)C=C1
INCHIKEY: SGEWCQFRYRRZDC-UHFFFAOYNA-N
Ontology: Flavonoid 8-C-glycosides
COLLISIONENERGY: 10
FORMULA: C21H20O10
RETENTIONTIME: 3.964417
IONMODE: Negative
Comment: registered in RIKEN PlaSMA
Num Peaks: 4
311.05542	276
312.05927	48
341.06549	20
431.09726	1000

NAME: Naringenin-7-O-rutinoside
PRECURSORMZ: 579.17192924783
PRECURSORTYPE: [M-H]-
INSTRUMENTTYPE: LC-ESI-QTOF
SMILES: CC1OC(OCC2OC(OC3=CC(O)=C4C(=O)CC(OC4=C3)C3=CC=C(O)C=C3)C(O)C(O)C2O)C(O)C(O)C1O
INCHIKEY: HXTFHSYLYXVTHC-UHFFFAOYNA-N
Ontology: Flavonoid-7-O-glycosides
COLLISIONENERGY: 10
FORMULA: C27H32O14
RETENTIONTIME: 4.286783
IONMODE: Negative
Comment: registered in RIKEN PlaSMA
Num Peaks: 4
271.05911	373
272.06509	68
273.06769	6
579.17206	1000

NAME: Diosmetin-7-O-rutinoside
PRECURSORMZ: 607.16684384783
PRECURSORTYPE: [M-H]-
INSTRUMENTTYPE: LC-ESI-QTOF
SMILES: COC1=C(O)C=C(C=C1)C1=CC(=O)C2=C(O)C=C(OC3OC(COC4OC(C)C(O)C(O)C4O)C(O)C(O)C3O)C=C2O1
INCHIKEY: GZSOSUNBTXMUFQ-UHFFFAOYNA-N
Ontology: Flavonoid-7-O-glycosides
COLLISIONENERGY: 10
FORMULA: C28H32O15
RETENTIONTIME: 4.4096
IONMODE: Negative
Comment: registered in RIKEN PlaSMA
Num Peaks: 3
299.05582	289
300.05713	46
607.16681	1000

NAME: 3,4,5-Trihydroxystilbene
PRECURSORMZ: 227.07136774783
PRECURSORTYPE: [M-H]-
INSTRUMENTTYPE: LC-ESI-QTOF
SMILES: OC1=CC=C(C=CC2=CC(O)=CC(O)=C2)C=C1
INCHIKEY: LUKBXSAWLPMMSZ-UHFFFAOYSA-N
Ontology: Stilbenes
COLLISIONENERGY: 10
FORMULA: C14H12O3
RETENTIONTIME: 5.00245
IONMODE: Negative
Comment: registered in RIKEN PlaSMA
Num Peaks: 8
143.04814	21
157.06633	15
159.07797	9
159.08435	12
183.07729	23
185.05949	80
186.06355	9
227.07007	1000

NAME: Catechin
PRECURSORMZ: 289.07176174783
PRECURSORTYPE: [M-H]-
INSTRUMENTTYPE: LC-ESI-QTOF
SMILES: OC1CC2=C(O)C=C(O)C=C2OC1C1=CC(O)=C(O)C=C1
INCHIKEY: PFTAWBLQPZVEMU-UHFFFAOYNA-N
Ontology: Catechins
COLLISIONENERGY: 30
FORMULA: C15H14O6
RETENTIONTIME: 3.113367
IONMODE: Negative
Comment: registered in RIKEN PlaSMA
Num Peaks: 102
67.05702	13
69.03326	35
81.02814	25
83.01244	58
84.02283	15
91.05621	17
93.03183	119
93.03773	27
95.01358	88
95.0472	94
97.02832	93
105.03447	15
105.06769	18
107.05258	14
109.02782	512
109.81149	11
110.02954	41
110.25291	11
112.04606	12
115.05833	16
117.03733	13
118.31702	21
120.0172	28
121.02783	196
122.02872	19
122.03381	70
122.37985	12
123.04319	1000
124.01241	15
124.04872	31
124.6878	14
125.02246	213
125.02826	61
125.043	13
131.04268	23
133.02042	28
133.02814	33
133.06256	50
134.036	13
135.04379	45
136.01357	26
137.0222	95
138.0253	40
138.03259	28
139.02834	13
143.04926	22
145.028	116
145.06267	13
146.03337	53
146.04132	31
147.0406	26
149.01917	64
149.02676	26
149.05981	14
150.02768	79
150.03522	25
151.03778	185
156.05511	11
159.04015	67
160.04584	29
161.02008	28
161.05515	136
161.06451	51
162.03156	24
162.06302	27
163.0271	17
163.03415	12
164.01025	92
165.01115	30
165.02069	61
171.56657	13
173.02739	25
173.05351	108
173.06667	18
174.01755	17
174.02982	37
175.03114	33
175.06102	15
175.0737	110
177.04884	35
178.01965	11
179.06999	12
181.06686	13
183.04323	15
186.05589	11
186.06633	20
187.02501	13
187.03758	105
188.04446	67
188.05704	15
190.01991	12
197.04826	20
201.04591	37
201.05478	13
202.05428	11
202.06676	15
203.05791	12
203.06929	48
211.03061	13
211.04042	15
212.03458	26
221.07552	11

NAME: Epigallocatechin-3-gallate
PRECURSORMZ: 457.07763494783
PRECURSORTYPE: [M-H]-
INSTRUMENTTYPE: LC-ESI-QTOF
SMILES: OC1=CC(O)=C2CC(OC(=O)C3=CC(O)=C(O)C(O)=C3)C(OC2=C1)C1=CC(O)=C(O)C(O)=C1
INCHIKEY: WMBWREPUVVBILR-UHFFFAOYNA-N
Ontology: Catechin gallates
COLLISIONENERGY: 30
FORMULA: C22H18O11
RETENTIONTIME: 3.467917
IONMODE: Negative
Comment: registered in RIKEN PlaSMA
Num Peaks: 58
69.03021	11
79.01719	12
81.03283	17
105.03619	20
107.00881	8
120.33335	19
123.00854	8
124.97427	10
125.02303	587
126.02489	63
127.02934	8
137.0238	45
138.02626	12
139.03378	8
149.02187	9
158.03862	8
161.02171	83
161.03722	8
161.05417	14
162.02641	9
163.03026	13
165.01665	23
166.01993	14
167.02736	59
167.03864	51
168.00162	8
169.01328	1000
170.01773	96
171.0183	10
172.024	8
177.02145	8
177.0463	8
177.05434	10
178.05319	9
179.0302	28
180.03702	9
181.01201	8
187.0414	8
188.0049	8
190.02295	9
191.06902	8
193.01125	39
194.02188	8
197.07237	8
201.08308	8
203.03293	11
205.01541	12
219.06532	14
221.04309	25
225.06161	13
227.03758	8
229.004	9
233.04491	9
243.0338	9
245.04236	13
257.04425	11
271.02371	8
305.06744	27

NAME: Apigenin-8-C-glucoside
PRECURSORMZ: 431.09837034783
PRECURSORTYPE: [M-H]-
INSTRUMENTTYPE: LC-ESI-QTOF
SMILES: OCC1OC(C(O)C(O)C1O)C1=C(O)C=C(O)C2=C1OC(=CC2=O)C1=CC=C(O)C=C1
INCHIKEY: SGEWCQFRYRRZDC-UHFFFAOYNA-N
Ontology: Flavonoid 8-C-glycosides
COLLISIONENERGY: 30
FORMULA: C21H20O10
RETENTIONTIME: 3.964417
IONMODE: Negative
Comment: registered in RIKEN PlaSMA
Num Peaks: 62
93.03145	7
105.03415	14
117.03294	50
118.03434	10
119.05139	10
121.02658	7
135.04742	20
149.02348	22
159.04503	32
161.02356	45
163.00354	8
163.0334	19
163.04236	22
173.02229	6
173.05611	8
179.02927	9
182.03972	6
185.02216	12
189.01955	6
191.03282	32
196.05312	7
197.05534	5
203.03098	21
204.03671	17
211.08179	6
213.05125	6
223.08182	7
224.04259	5
229.01813	6
237.05247	6
239.06638	15
243.06358	13
244.06467	8
253.04468	8
255.06783	6
265.04715	6
267.06781	12
268.02844	6
268.04248	47
268.05807	5
269.04385	35
270.04654	5
281.04514	48
282.05414	39
283.06015	1000
284.06271	189
285.05319	8
285.06683	15
285.08362	7
293.04837	31
294.05191	12
295.05801	29
309.04578	5
311.05469	526
312.05789	120
313.06308	24
323.04263	23
323.05969	47
323.07373	11
324.0444	7
324.06287	18
341.06711	24

NAME: Naringenin-7-O-rutinoside
PRECURSORMZ: 579.17192924783
PRECURSORTYPE: [M-H]-
INSTRUMENTTYPE: LC-ESI-QTOF
SMILES: CC1OC(OCC2OC(OC3=CC(O)=C4C(=O)CC(OC4=C3)C3=CC=C(O)C=C3)C(O)C(O)C2O)C(O)C(O)C1O
INCHIKEY: HXTFHSYLYXVTHC-UHFFFAOYNA-N
Ontology: Flavonoid-7-O-glycosides
COLLISIONENERGY: 30
FORMULA: C27H32O14
RETENTIONTIME: 4.286783
IONMODE: Negative
Comment: registered in RIKEN PlaSMA
Num Peaks: 18
93.03314	12
119.04957	31
125.02432	6
151.00259	281
152.00703	26
165.01959	11
174.99948	29
175.00681	27
177.01666	25
193.01297	17
271.05939	1000
272.0639	173
273.0647	20
285.07831	17
295.0589	24
296.07309	10
313.0658	20
313.08209	7

NAME: Diosmetin-7-O-rutinoside
PRECURSORMZ: 607.16684384783
PRECURSORTYPE: [M-H]-
INSTRUMENTTYPE: LC-ESI-QTOF
SMILES: COC1=C(O)C=C(C=C1)C1=CC(=O)C2=C(O)C=C(OC3OC(COC4OC(C)C(O)C(O)C4O)C(O)C(O)C3O)C=C2O1
INCHIKEY: GZSOSUNBTXMUFQ-UHFFFAOYNA-N
Ontology: Flavonoid-7-O-glycosides
COLLISIONENERGY: 30
FORMULA: C28H32O15
RETENTIONTIME: 4.4096
IONMODE: Negative
Comment: registered in RIKEN PlaSMA
Num Peaks: 8
284.03168	276
285.0304	26
285.04193	17
286.03058	5
299.05511	1000
300.05908	206
301.05579	14
302.0621	8

NAME: 3,4,5-Trihydroxystilbene
PRECURSORMZ: 227.07136774783
PRECURSORTYPE: [M-H]-
INSTRUMENTTYPE: LC-ESI-QTOF
SMILES: OC1=CC=C(C=CC2=CC(O)=CC(O)=C2)C=C1
INCHIKEY: LUKBXSAWLPMMSZ-UHFFFAOYSA-N
Ontology: Stilbenes
COLLISIONENERGY: 30
FORMULA: C14H12O3
RETENTIONTIME: 5.00245
IONMODE: Negative
Comment: registered in RIKEN PlaSMA
Num Peaks: 41
77.04154	10
91.60561	11
115.05296	176
116.05565	73
117.02766	37
117.03404	90
118.03638	15
119.04918	57
120.05241	22
128.06177	11
130.0396	10
131.04613	11
133.02995	17
141.07202	10
141.07715	21
142.04462	10
143.04929	1000
144.05289	122
144.05795	47
145.05566	11
154.06793	14
156.0582	89
157.06337	61
158.06726	13
159.07877	21
167.04831	36
168.05238	34
169.05515	10
180.05321	54
180.56126	9
181.06754	10
182.07259	145
183.04506	28
183.08549	36
184.05075	26
184.08189	16
185.05948	72
197.06133	11
199.08203	17
225.0562	12
226.06291	21

NAME: Catechin
PRECURSORMZ: 289.07176174783
PRECURSORTYPE: [M-H]-
INSTRUMENTTYPE: LC-ESI-QTOF
SMILES: OC1CC2=C(O)C=C(O)C=C2OC1C1=CC(O)=C(O)C=C1
INCHIKEY: PFTAWBLQPZVEMU-UHFFFAOYNA-N
Ontology: Catechins
COLLISIONENERGY: 50
FORMULA: C15H14O6
RETENTIONTIME: 3.113367
IONMODE: Negative
Comment: registered in RIKEN PlaSMA
Num Peaks: 31
77.03986	178
79.05769	105
81.0295	105
83.0105	131
93.03584	487
95.04826	120
95.12012	105
97.02538	262
103.01904	105
105.03072	251
108.01996	120
109.02757	1000
115.05622	105
118.03213	110
121.03352	115
123.04287	419
132.05659	110
134.03717	94
141.04034	120
142.98441	94
143.06526	110
145.02332	94
147.03577	120
158.03954	173
159.04462	267
164.00536	105
173.06577	115
174.02625	131
177.0497	126
187.0305	120
203.03168	173

NAME: Epigallocatechin-3-gallate
PRECURSORMZ: 457.07763494783
PRECURSORTYPE: [M-H]-
INSTRUMENTTYPE: LC-ESI-QTOF
SMILES: OC1=CC(O)=C2CC(OC(=O)C3=CC(O)=C(O)C(O)=C3)C(OC2=C1)C1=CC(O)=C(O)C(O)=C1
INCHIKEY: WMBWREPUVVBILR-UHFFFAOYNA-N
Ontology: Catechin gallates
COLLISIONENERGY: 50
FORMULA: C22H18O11
RETENTIONTIME: 3.467917
IONMODE: Negative
Comment: registered in RIKEN PlaSMA
Num Peaks: 32
77.03409	27
81.02986	44
81.03661	64
107.01099	36
108.01657	28
111.04404	27
120.01895	22
120.566	28
124.01239	52
124.0407	42
125.02279	1000
126.01871	33
126.02422	99
133.06079	29
137.02156	22
140.04251	36
146.03165	26
157.02841	27
158.0336	23
158.04277	42
161.0237	27
162.02827	23
163.06519	40
165.02315	34
169.00491	57
169.01128	172
169.02028	63
171.01479	27
175.02867	28
177.04909	26
183.04614	42
193.01772	23

NAME: Apigenin-8-C-glucoside
PRECURSORMZ: 431.09837034783
PRECURSORTYPE: [M-H]-
INSTRUMENTTYPE: LC-ESI-QTOF
SMILES: OCC1OC(C(O)C(O)C1O)C1=C(O)C=C(O)C2=C1OC(=CC2=O)C1=CC=C(O)C=C1
INCHIKEY: SGEWCQFRYRRZDC-UHFFFAOYNA-N
Ontology: Flavonoid 8-C-glycosides
COLLISIONENERGY: 50
FORMULA: C21H20O10
RETENTIONTIME: 3.964417
IONMODE: Negative
Comment: registered in RIKEN PlaSMA
Num Peaks: 191
67.01527	22
69.99895	15
77.03769	126
79.01788	78
79.05271	12
87.0151	16
87.02233	25
88.02577	10
89.04008	28
91.01503	12
91.01988	10
91.05307	12
91.05608	32
91.99026	9
92.01986	12
92.03184	14
93.03392	129
95.05136	23
98.02195	9
101.03851	12
103.01359	12
103.01848	16
105.03444	46
107.01098	36
107.69108	10
108.01756	12
109.0265	23
116.02739	14
117.03341	1000
117.76367	29
118.0334	64
119.0051	20
119.00894	10
119.04351	83
119.05102	106
120.01772	43
121.02795	257
123.00786	15
131.00963	21
131.04346	13
131.05032	11
133.0247	21
134.03261	21
135.00703	30
135.03543	56
135.04424	217
136.01698	9
136.04626	25
137.00902	11
137.02113	34
141.0321	15
142.40703	16
143.04549	17
144.05606	15
145.02727	33
146.03299	12
147.04088	28
148.01384	98
149.02501	76
150.99652	11
151.0482	16
155.05293	10
156.0502	11
156.05902	10
157.00542	10
158.04004	16
159.0426	79
159.05072	37
160.01357	12
160.04446	10
160.05342	22
161.02264	309
161.99464	9
162.02444	21
163.0041	27
163.03928	190
164.00294	13
164.01093	17
164.03535	11
164.04353	11
165.01556	15
166.02962	11
168.05255	29
168.06276	12
169.05222	11
169.06296	60
171.04675	35
171.07922	11
172.05429	9
173.01425	10
173.05505	26
173.06395	29
176.01601	12
177.01894	10
180.06105	15
182.03525	42
182.06627	19
183.03711	10
183.05435	14
183.07402	10
185.01335	11
185.02707	12
185.05611	12
185.06628	12
187.04294	15
187.06821	10
189.01831	9
192.06102	10
193.01558	9
193.06941	24
194.48254	12
195.041	60
195.05356	30
196.04964	54
196.07344	10
197.04395	13
197.05563	91
197.06819	13
199.03981	25
200.00932	16
200.04057	9
201.05421	9
202.02061	10
202.06129	13
203.03531	23
204.05328	12
205.94041	11
206.05202	10
207.03706	14
208.03853	11
208.05199	32
210.05756	13
210.0641	35
211.03316	10
211.07225	66
212.03667	11
212.04916	15
213.05473	9
215.05672	9
215.06529	24
216.33888	14
218.05949	10
219.04442	15
223.03548	10
223.89651	14
225.0524	50
227.04634	20
228.03165	10
229.04283	12
229.05069	12
237.02939	14
237.04897	21
237.06372	24
238.05603	11
239.02017	16
239.03275	29
239.05702	12
239.06892	17
239.0757	9
240.02611	11
240.88904	9
241.0403	19
241.04878	9
245.0636	11
247.04453	10
253.03908	33
254.05836	9
256.02905	10
263.02927	11
264.04355	9
265.05817	10
266.02133	12
268.03268	49
268.04276	12
269.03992	10
269.05716	15
270.03494	10
270.04507	9
279.02768	15
281.04532	52
282.05289	34
282.06476	17
283.06	228
283.07721	16
284.06357	66
285.06161	27
293.04404	33
294.04742	20
295.05304	12
312.05994	9
354.30853	13

NAME: Naringenin-7-O-rutinoside
PRECURSORMZ: 579.17192924783
PRECURSORTYPE: [M-H]-
INSTRUMENTTYPE: LC-ESI-QTOF
SMILES: CC1OC(OCC2OC(OC3=CC(O)=C4C(=O)CC(OC4=C3)C3=CC=C(O)C=C3)C(O)C(O)C2O)C(O)C(O)C1O
INCHIKEY: HXTFHSYLYXVTHC-UHFFFAOYNA-N
Ontology: Flavonoid-7-O-glycosides
COLLISIONENERGY: 50
FORMULA: C27H32O14
RETENTIONTIME: 4.286783
IONMODE: Negative
Comment: registered in RIKEN PlaSMA
Num Peaks: 67
58.91146	6
64.99937	7
65.00346	6
79.01566	8
83.01268	59
93.03252	36
93.03737	13
107.01183	240
108.01475	18
108.98928	6
119.04836	534
120.05325	58
121.02666	11
125.0239	18
131.01128	20
133.02577	7
136.01567	13
137.02344	22
138.02786	5
141.54326	5
143.04332	13
143.05161	8
145.02657	49
147.00739	7
148.01601	9
149.02237	20
151.00232	1000
152.00639	81
156.0563	8
160.00862	6
161.05486	16
161.06404	15
165.01755	68
175.00282	71
176.00459	7
177.01607	56
177.02217	19
178.01968	8
178.0291	6
184.05249	8
185.06235	88
186.06128	16
187.03851	81
188.04047	12
189.01762	36
193.01924	19
205.01053	11
210.06244	6
219.03133	5
226.05669	10
227.06683	69
227.07663	19
228.07497	9
228.08458	9
229.03557	6
229.04861	15
239.06711	7
253.05133	6
269.04391	30
269.05768	5
270.04834	8
271.06171	116
272.05441	9
272.06708	6
273.06143	7
579.1698	50
579.18811	12

NAME: Diosmetin-7-O-rutinoside
PRECURSORMZ: 607.16684384783
PRECURSORTYPE: [M-H]-
INSTRUMENTTYPE: LC-ESI-QTOF
SMILES: COC1=C(O)C=C(C=C1)C1=CC(=O)C2=C(O)C=C(OC3OC(COC4OC(C)C(O)C(O)C4O)C(O)C(O)C3O)C=C2O1
INCHIKEY: GZSOSUNBTXMUFQ-UHFFFAOYNA-N
Ontology: Flavonoid-7-O-glycosides
COLLISIONENERGY: 50
FORMULA: C28H32O15
RETENTIONTIME: 4.4096
IONMODE: Negative
Comment: registered in RIKEN PlaSMA
Num Peaks: 10
151.0029	5
152.00282	6
255.02733	13
256.03348	16
256.04581	9
284.03177	1000
285.03671	175
286.03708	31
299.05331	67
299.06845	11

NAME: 3,4,5-Trihydroxystilbene
PRECURSORMZ: 227.07136774783
PRECURSORTYPE: [M-H]-
INSTRUMENTTYPE: LC-ESI-QTOF
SMILES: OC1=CC=C(C=CC2=CC(O)=CC(O)=C2)C=C1
INCHIKEY: LUKBXSAWLPMMSZ-UHFFFAOYSA-N
Ontology: Stilbenes
COLLISIONENERGY: 50
FORMULA: C14H12O3
RETENTIONTIME: 5.00245
IONMODE: Negative
Comment: registered in RIKEN PlaSMA
Num Peaks: 4
93.04231	429
115.05286	1000
115.06246	317
118.03683	476

NAME: Catechin
PRECURSORMZ: 289.07176174783
PRECURSORTYPE: [M-H]-
INSTRUMENTTYPE: LC-ESI-QTOF
SMILES: OC1CC2=C(O)C=C(O)C=C2OC1C1=CC(O)=C(O)C=C1
INCHIKEY: PFTAWBLQPZVEMU-UHFFFAOYNA-N
Ontology: Catechins
COLLISIONENERGY: 10
FORMULA: C15H14O6
RETENTIONTIME: 3.113367
IONMODE: Negative
Comment: registered in RIKEN PlaSMA
Num Peaks: 125
81.03206	39
83.01086	7
83.01528	13
92.97072	9
93.03008	10
93.03513	22
93.41666	9
95.01115	14
95.05214	10
96.05006	24
97.02269	23
97.03255	47
97.58935	9
108.02404	9
109.02917	213
109.03397	78
110.02675	39
117.03314	19
117.06759	9
121.02891	12
122.03548	17
123.04256	269
123.13242	9
124.01599	9
124.04952	16
125.02255	273
126.02924	11
129.03485	11
135.04422	93
137.02376	143
138.026	55
139.03911	58
140.87927	8
145.03148	39
145.06598	10
146.03319	10
146.04173	8
147.04173	37
147.05113	28
149.01906	57
149.02774	35
150.02213	9
151.0341	67
151.04086	71
152.04179	11
152.28061	10
153.04486	9
157.0645	10
159.04372	62
160.05069	54
161.01738	8
161.06126	115
162.03279	24
162.0531	9
162.06783	12
163.03738	22
164.00452	21
165.01611	107
166.02231	18
166.03459	16
167.03113	45
173.05693	37
174.02747	11
174.06546	12
175.03163	21
175.04243	52
175.05228	12
175.08138	9
176.07492	9
177.05103	21
179.03348	286
180.03265	9
180.04593	13
181.05368	9
183.0455	8
184.04538	9
185.06299	19
186.06274	8
186.07771	13
187.03773	97
187.04408	57
188.04727	64
188.05684	27
189.04254	8
189.05237	8
189.0614	10
199.03909	9
201.05237	9
201.09523	25
202.05759	20
203.06818	184
203.07809	61
204.06874	12
205.04689	218
205.06207	15
206.05188	26
207.05251	24
207.05904	9
209.4847	10
212.04059	16
212.05121	34
217.04849	22
217.0602	10
217.08333	9
218.08252	11
221.07938	33
222.08807	11
227.06877	48
228.06155	9
230.05525	30
243.96202	12
245.07983	366
245.17093	12
246.07942	31
246.09219	31
247.07175	10
248.05527	9
259.06198	16
269.03253	8
269.43497	14
271.05594	17
272.07898	9
288.06189	9
289.06906	1000
289.1066	12

NAME: Epigallocatechin-3-gallate
PRECURSORMZ: 457.07763494783
PRECURSORTYPE: [M-H]-
INSTRUMENTTYPE: LC-ESI-QTOF
SMILES: OC1=CC(O)=C2CC(OC(=O)C3=CC(O)=C(O)C(O)=C3)C(OC2=C1)C1=CC(O)=C(O)C(O)=C1
INCHIKEY: WMBWREPUVVBILR-UHFFFAOYNA-N
Ontology: Catechin gallates
COLLISIONENERGY: 10
FORMULA: C22H18O11
RETENTIONTIME: 3.467917
IONMODE: Negative
Comment: registered in RIKEN PlaSMA
Num Peaks: 58
87.7373	5
105.02859	10
123.00927	5
124.01113	23
125.02383	194
126.02407	16
126.03088	6
137.02097	19
139.03687	7
149.02718	5
151.03943	7
154.992	8
161.01508	7
161.02574	30
163.07863	8
165.01692	22
166.99716	19
168.0092	5
169.01219	1000
170.01622	36
170.06184	7
171.02307	7
175.03865	13
179.02994	15
179.03708	13
192.99944	5
193.00946	11
201.04346	5
201.05603	5
217.05711	6
220.06511	6
221.04802	12
225.05566	8
226.06285	6
231.08899	8
233.08275	7
238.50217	5
241.03993	8
243.04495	5
246.00635	9
260.06537	8
261.07748	8
287.05585	17
288.29562	5
289.07101	10
299.01816	6
304.04962	5
305.065	95
305.08527	7
306.06821	7
313.04773	8
317.02756	7
319.0463	5
320.05551	8
331.04016	6
333.0499	7
457.06528	47
457.08463	29

NAME: Apigenin-8-C-glucoside
PRECURSORMZ: 431.09837034783
PRECURSORTYPE: [M-H]-
INSTRUMENTTYPE: LC-ESI-QTOF
SMILES: OCC1OC(C(O)C(O)C1O)C1=C(O)C=C(O)C2=C1OC(=CC2=O)C1=CC=C(O)C=C1
INCHIKEY: SGEWCQFRYRRZDC-UHFFFAOYNA-N
Ontology: Flavonoid 8-C-glycosides
COLLISIONENERGY: 10
FORMULA: C21H20O10
RETENTIONTIME: 3.964417
IONMODE: Negative
Comment: registered in RIKEN PlaSMA
Num Peaks: 56
93.03204	6
117.03324	31
135.04343	5
136.04808	8
145.0222	5
149.02299	11
159.04611	14
161.02383	36
163.03769	40
164.03923	10
179.03622	10
191.03375	6
192.03386	7
193.02074	7
197.05823	19
203.03552	8
211.07756	6
212.08188	6
213.0513	6
215.06453	7
224.03665	6
225.06013	7
239.06931	19
243.07985	11
244.06862	5
251.06818	7
268.03006	15
269.03436	8
269.0452	9
270.04312	5
277.14005	5
281.03168	5
281.04379	7
282.05081	23
283.05984	533
284.0658	82
285.06259	13
293.04346	22
293.0563	6
295.05911	7
295.06955	8
296.05997	10
298.04761	5
311.05447	1000
312.05923	174
313.05676	19
313.07135	9
314.06247	8
323.04791	17
323.06424	5
325.06583	5
341.06573	71
342.07272	21
353.06076	12
383.08356	7
431.09695	805

NAME: Naringenin-7-O-rutinoside
PRECURSORMZ: 579.17192924783
PRECURSORTYPE: [M-H]-
INSTRUMENTTYPE: LC-ESI-QTOF
SMILES: CC1OC(OCC2OC(OC3=CC(O)=C4C(=O)CC(OC4=C3)C3=CC=C(O)C=C3)C(O)C(O)C2O)C(O)C(O)C1O
INCHIKEY: HXTFHSYLYXVTHC-UHFFFAOYNA-N
Ontology: Flavonoid-7-O-glycosides
COLLISIONENERGY: 10
FORMULA: C27H32O14
RETENTIONTIME: 4.286783
IONMODE: Negative
Comment: registered in RIKEN PlaSMA
Num Peaks: 17
119.04585	23
151.00168	172
152.00247	13
153.01012	6
165.01958	11
175.00348	29
177.01906	14
193.01503	9
205.01222	5
269.04465	8
271.06052	1000
272.06314	201
273.06805	43
295.0621	25
313.07239	11
579.17157	398
579.22064	7

NAME: Diosmetin-7-O-rutinoside
PRECURSORMZ: 607.16684384783
PRECURSORTYPE: [M-H]-
INSTRUMENTTYPE: LC-ESI-QTOF
SMILES: COC1=C(O)C=C(C=C1)C1=CC(=O)C2=C(O)C=C(OC3OC(COC4OC(C)C(O)C(O)C4O)C(O)C(O)C3O)C=C2O1
INCHIKEY: GZSOSUNBTXMUFQ-UHFFFAOYNA-N
Ontology: Flavonoid-7-O-glycosides
COLLISIONENERGY: 10
FORMULA: C28H32O15
RETENTIONTIME: 4.4096
IONMODE: Negative
Comment: registered in RIKEN PlaSMA
Num Peaks: 7
284.03207	311
285.0354	61
299.05368	1000
300.05804	182
301.05344	15
301.0629	20
607.16663	460

NAME: 3,4,5-Trihydroxystilbene
PRECURSORMZ: 227.07136774783
PRECURSORTYPE: [M-H]-
INSTRUMENTTYPE: LC-ESI-QTOF
SMILES: OC1=CC=C(C=CC2=CC(O)=CC(O)=C2)C=C1
INCHIKEY: LUKBXSAWLPMMSZ-UHFFFAOYSA-N
Ontology: Stilbenes
COLLISIONENERGY: 10
FORMULA: C14H12O3
RETENTIONTIME: 5.00245
IONMODE: Negative
Comment: registered in RIKEN PlaSMA
Num Peaks: 29
51.09971	5
107.04944	6
108.02196	7
115.05606	7
117.03448	39
119.05031	9
123.19727	5
141.06947	12
142.07816	6
143.04869	212
144.05486	23
156.05638	9
157.06401	38
159.07503	37
167.05417	6
180.05611	13
181.06178	27
182.07065	19
182.07782	7
183.08078	66
184.04315	5
184.05536	11
184.08495	18
184.09163	5
185.05972	224
186.0638	36
199.08388	7
225.05148	5
227.0701	1000

NAME: Catechin
PRECURSORMZ: 289.07176174783
PRECURSORTYPE: [M-H]-
INSTRUMENTTYPE: LC-ESI-QTOF
SMILES: OC1CC2=C(O)C=C(O)C=C2OC1C1=CC(O)=C(O)C=C1
INCHIKEY: PFTAWBLQPZVEMU-UHFFFAOYNA-N
Ontology: Catechins
COLLISIONENERGY: 10
FORMULA: C15H14O6
RETENTIONTIME: 3.113367
IONMODE: Negative
Comment: registered in RIKEN PlaSMA
Num Peaks: 39
97.02502	6
109.02547	27
109.03179	10
121.0285	13
123.0427	12
125.02194	73
126.02814	6
135.04498	6
137.02153	23
137.02977	8
139.03595	6
139.0425	9
151.03911	46
159.04184	7
161.01846	8
161.0546	15
161.06158	19
162.06076	7
165.01852	41
167.03282	10
175.03221	6
179.03362	55
187.03961	26
188.0433	16
202.06438	12
203.0715	74
204.07625	14
205.04994	111
206.04881	19
217.0876	8
221.07877	6
227.07297	12
231.0274	8
245.08037	345
245.09958	8
246.08368	53
247.06549	7
271.05591	13
289.06998	1000

NAME: Epigallocatechin-3-gallate
PRECURSORMZ: 457.07763494783
PRECURSORTYPE: [M-H]-
INSTRUMENTTYPE: LC-ESI-QTOF
SMILES: OC1=CC(O)=C2CC(OC(=O)C3=CC(O)=C(O)C(O)=C3)C(OC2=C1)C1=CC(O)=C(O)C(O)=C1
INCHIKEY: WMBWREPUVVBILR-UHFFFAOYNA-N
Ontology: Catechin gallates
COLLISIONENERGY: 10
FORMULA: C22H18O11
RETENTIONTIME: 3.467917
IONMODE: Negative
Comment: registered in RIKEN PlaSMA
Num Peaks: 38
54.4143	6
58.31557	6
105.47803	9
125.01808	9
130.17239	9
161.01709	5
161.02676	13
166.99884	27
169.01266	1000
170.01534	102
171.0159	17
193.00798	25
219.06781	7
224.52516	6
225.01277	6
227.05392	7
228.29391	6
269.03632	7
275.0535	6
286.04678	6
287.04425	7
287.0582	22
287.06635	13
287.08206	5
288.06015	12
291.05206	5
299.01144	6
305.04929	10
305.06851	143
306.07477	6
319.03958	12
331.04572	97
332.0358	6
332.05606	6
456.05612	6
456.07117	5
457.07248	366
457.12329	6

NAME: Apigenin-8-C-glucoside
PRECURSORMZ: 431.09837034783
PRECURSORTYPE: [M-H]-
INSTRUMENTTYPE: LC-ESI-QTOF
SMILES: OCC1OC(C(O)C(O)C1O)C1=C(O)C=C(O)C2=C1OC(=CC2=O)C1=CC=C(O)C=C1
INCHIKEY: SGEWCQFRYRRZDC-UHFFFAOYNA-N
Ontology: Flavonoid 8-C-glycosides
COLLISIONENERGY: 10
FORMULA: C21H20O10
RETENTIONTIME: 3.964417
IONMODE: Negative
Comment: registered in RIKEN PlaSMA
Num Peaks: 6
311.05499	288
312.05963	54
313.06573	9
341.06143	18
342.06204	5
431.0983	1000

NAME: Naringenin-7-O-rutinoside
PRECURSORMZ: 579.17192924783
PRECURSORTYPE: [M-H]-
INSTRUMENTTYPE: LC-ESI-QTOF
SMILES: CC1OC(OCC2OC(OC3=CC(O)=C4C(=O)CC(OC4=C3)C3=CC=C(O)C=C3)C(O)C(O)C2O)C(O)C(O)C1O
INCHIKEY: HXTFHSYLYXVTHC-UHFFFAOYNA-N
Ontology: Flavonoid-7-O-glycosides
COLLISIONENERGY: 10
FORMULA: C27H32O14
RETENTIONTIME: 4.286783
IONMODE: Negative
Comment: registered in RIKEN PlaSMA
Num Peaks: 7
271.05972	384
272.06403	56
273.06268	6
295.06259	6
313.07095	8
578.16052	5
579.17047	1000

NAME: Diosmetin-7-O-rutinoside
PRECURSORMZ: 607.16684384783
PRECURSORTYPE: [M-H]-
INSTRUMENTTYPE: LC-ESI-QTOF
SMILES: COC1=C(O)C=C(C=C1)C1=CC(=O)C2=C(O)C=C(OC3OC(COC4OC(C)C(O)C(O)C4O)C(O)C(O)C3O)C=C2O1
INCHIKEY: GZSOSUNBTXMUFQ-UHFFFAOYNA-N
Ontology: Flavonoid-7-O-glycosides
COLLISIONENERGY: 10
FORMULA: C28H32O15
RETENTIONTIME: 4.4096
IONMODE: Negative
Comment: registered in RIKEN PlaSMA
Num Peaks: 4
299.05554	276
300.05829	45
301.06271	6
607.16852	1000

NAME: 3,4,5-Trihydroxystilbene
PRECURSORMZ: 227.07136774783
PRECURSORTYPE: [M-H]-
INSTRUMENTTYPE: LC-ESI-QTOF
SMILES: OC1=CC=C(C=CC2=CC(O)=CC(O)=C2)C=C1
INCHIKEY: LUKBXSAWLPMMSZ-UHFFFAOYSA-N
Ontology: Stilbenes
COLLISIONENERGY: 10
FORMULA: C14H12O3
RETENTIONTIME: 5.00245
IONMODE: Negative
Comment: registered in RIKEN PlaSMA
Num Peaks: 8
143.04797	12
157.06572	13
159.08	20
183.08037	22
185.0602	71
186.06041	10
225.05331	5
227.06956	1000

NAME: Catechin
PRECURSORMZ: 289.07176174783
PRECURSORTYPE: [M-H]-
INSTRUMENTTYPE: LC-ESI-QTOF
SMILES: OC1CC2=C(O)C=C(O)C=C2OC1C1=CC(O)=C(O)C=C1
INCHIKEY: PFTAWBLQPZVEMU-UHFFFAOYNA-N
Ontology: Catechins
COLLISIONENERGY: 30
FORMULA: C15H14O6
RETENTIONTIME: 3.113367
IONMODE: Negative
Comment: registered in RIKEN PlaSMA
Num Peaks: 132
57.03334	15
69.35152	12
79.05434	12
80.02765	17
81.03181	64
83.01063	36
83.01784	30
83.05078	19
85.02959	13
93.03352	36
94.03235	15
95.00414	13
95.01005	17
95.04792	60
95.0537	21
96.05303	13
97.02867	100
99.04326	13
99.04872	23
105.0294	13
108.0216	29
109.0279	404
109.03359	184
110.02746	19
110.04489	40
112.04813	17
117.03296	70
121.02805	267
122.03582	191
123.00386	18
123.04355	1000
124.04972	19
125.02216	291
125.30255	21
126.02496	12
127.05354	17
129.03255	15
130.04256	40
131.04665	14
132.0563	32
133.06271	15
134.06467	29
135.04109	16
136.01575	12
137.0262	161
138.02716	36
138.03384	17
139.0321	36
145.02808	138
145.07297	16
146.03665	32
146.50186	12
147.04207	69
148.04608	20
148.05756	17
149.02458	73
149.05725	30
150.02631	70
150.03659	48
151.03539	224
151.43491	12
152.04083	54
153.03516	28
157.06055	40
157.07039	52
158.03363	13
159.03549	55
159.04362	91
159.05022	47
159.07515	19
160.04321	28
160.05008	34
160.0589	13
160.08755	13
161.02693	20
161.05286	81
161.06305	85
162.02646	48
162.03973	36
163.03244	20
163.04027	21
164.00961	147
164.05104	30
165.00804	20
165.01787	23
167.02777	13
171.08427	22
172.049	12
173.0177	12
173.02914	16
173.06203	39
174.03018	28
175.03522	27
175.05089	22
175.07162	37
175.08047	34
176.03995	15
176.05382	12
176.08093	14
177.05435	54
178.05606	24
178.0891	16
183.0461	22
183.07936	13
184.04814	19
185.06105	17
186.02905	17
186.07167	18
187.03859	76
188.04755	33
188.06842	13
190.0287	17
191.02242	21
201.01398	15
201.0569	52
202.05128	29
202.07007	34
203.06427	56
203.07594	15
204.06644	23
204.07545	13
205.0464	18
205.05376	15
211.04166	19
212.04643	42
221.07385	19
222.08823	12
224.047	16
225.0507	12
227.06706	12
241.03966	16
254.0168	12

NAME: Epigallocatechin-3-gallate
PRECURSORMZ: 457.07763494783
PRECURSORTYPE: [M-H]-
INSTRUMENTTYPE: LC-ESI-QTOF
SMILES: OC1=CC(O)=C2CC(OC(=O)C3=CC(O)=C(O)C(O)=C3)C(OC2=C1)C1=CC(O)=C(O)C(O)=C1
INCHIKEY: WMBWREPUVVBILR-UHFFFAOYNA-N
Ontology: Catechin gallates
COLLISIONENERGY: 30
FORMULA: C22H18O11
RETENTIONTIME: 3.467917
IONMODE: Negative
Comment: registered in RIKEN PlaSMA
Num Peaks: 44
81.03293	8
83.00848	10
121.02192	8
123.00514	20
124.01392	32
124.02322	7
124.05037	10
125.00964	8
125.02284	516
126.02745	37
127.02362	13
133.06369	11
137.02307	29
149.02301	25
152.04549	13
161.02437	20
162.02837	10
165.0181	8
166.06425	10
167.03181	26
167.03967	27
169.01242	1000
169.04173	8
170.01579	64
171.02272	7
177.05339	15
181.05098	9
192.99979	6
193.01062	36
193.0271	7
194.01457	13
201.05527	10
205.00412	12
206.01695	9
219.06383	13
221.04933	14
225.05305	7
229.04327	12
237.0838	10
245.04082	9
245.07011	13
246.04253	8
269.04016	10
275.04657	8

NAME: Apigenin-8-C-glucoside
PRECURSORMZ: 431.09837034783
PRECURSORTYPE: [M-H]-
INSTRUMENTTYPE: LC-ESI-QTOF
SMILES: OCC1OC(C(O)C(O)C1O)C1=C(O)C=C(O)C2=C1OC(=CC2=O)C1=CC=C(O)C=C1
INCHIKEY: SGEWCQFRYRRZDC-UHFFFAOYNA-N
Ontology: Flavonoid 8-C-glycosides
COLLISIONENERGY: 30
FORMULA: C21H20O10
RETENTIONTIME: 3.964417
IONMODE: Negative
Comment: registered in RIKEN PlaSMA
Num Peaks: 59
93.03365	11
105.03233	6
117.03296	35
121.03045	15
135.04712	20
136.04552	6
137.01961	6
149.02675	33
150.02698	10
159.04424	22
161.02243	44
161.0298	13
162.03368	5
163.03403	19
163.04227	30
171.04848	6
173.02014	7
177.01367	6
179.04056	7
185.02258	8
189.01854	6
191.02394	8
191.03835	32
193.01399	10
203.02989	21
203.03801	7
215.06668	6
217.01242	10
223.07106	5
226.06163	7
237.05234	7
239.06087	7
240.07286	14
243.06816	8
255.06717	7
267.07425	9
268.03665	58
269.04221	51
270.05508	8
281.04355	38
281.05377	10
282.05771	27
283.05954	1000
284.06357	196
285.06354	16
293.03815	8
293.05576	14
294.04605	6
295.06152	24
309.04544	12
311.05472	516
312.05817	115
313.05835	7
323.04962	20
323.06134	10
324.05389	15
324.06418	7
341.06265	28
341.07266	10

NAME: Naringenin-7-O-rutinoside
PRECURSORMZ: 579.17192924783
PRECURSORTYPE: [M-H]-
INSTRUMENTTYPE: LC-ESI-QTOF
SMILES: CC1OC(OCC2OC(OC3=CC(O)=C4C(=O)CC(OC4=C3)C3=CC=C(O)C=C3)C(O)C(O)C2O)C(O)C(O)C1O
INCHIKEY: HXTFHSYLYXVTHC-UHFFFAOYNA-N
Ontology: Flavonoid-7-O-glycosides
COLLISIONENERGY: 30
FORMULA: C27H32O14
RETENTIONTIME: 4.286783
IONMODE: Negative
Comment: registered in RIKEN PlaSMA
Num Peaks: 25
93.03541	12
107.01171	11
119.04612	18
119.05228	14
125.02116	10
151.00261	319
152.00345	12
152.01349	6
165.01677	15
174.99916	16
175.0062	18
177.01729	34
193.01201	23
194.01707	5
219.02715	6
227.07317	6
271.05972	1000
272.06287	176
273.06689	24
285.07852	8
295.05844	26
295.06818	23
296.06464	10
313.07333	22
314.07181	8

NAME: Diosmetin-7-O-rutinoside
PRECURSORMZ: 607.16684384783
PRECURSORTYPE: [M-H]-
INSTRUMENTTYPE: LC-ESI-QTOF
SMILES: COC1=C(O)C=C(C=C1)C1=CC(=O)C2=C(O)C=C(OC3OC(COC4OC(C)C(O)C(O)C4O)C(O)C(O)C3O)C=C2O1
INCHIKEY: GZSOSUNBTXMUFQ-UHFFFAOYNA-N
Ontology: Flavonoid-7-O-glycosides
COLLISIONENERGY: 30
FORMULA: C28H32O15
RETENTIONTIME: 4.4096
IONMODE: Negative
Comment: registered in RIKEN PlaSMA
Num Peaks: 7
283.0607	5
284.03088	281
285.03622	47
299.05536	1000
300.05753	178
301.06546	30
313.07166	5

NAME: 3,4,5-Trihydroxystilbene
PRECURSORMZ: 227.07136774783
PRECURSORTYPE: [M-H]-
INSTRUMENTTYPE: LC-ESI-QTOF
SMILES: OC1=CC=C(C=CC2=CC(O)=CC(O)=C2)C=C1
INCHIKEY: LUKBXSAWLPMMSZ-UHFFFAOYSA-N
Ontology: Stilbenes
COLLISIONENERGY: 30
FORMULA: C14H12O3
RETENTIONTIME: 5.00245
IONMODE: Negative
Comment: registered in RIKEN PlaSMA
Num Peaks: 42
93.03043	12
93.45001	10
98.48972	11
114.04597	16
115.04327	12
115.05252	153
115.05791	44
116.05812	11
117.03408	110
119.04972	17
131.05318	15
132.01764	14
141.07129	33
142.04169	17
142.08351	15
143.0481	1000
143.0717	18
144.04819	116
144.05557	109
145.02481	18
145.03474	41
153.07288	13
155.08018	13
156.05933	129
157.05861	11
157.06447	12
158.03633	12
159.07881	37
160.07733	13
168.04341	13
168.05769	13
170.0726	11
180.05473	11
180.06271	11
181.06441	120
182.07697	72
183.04608	34
183.07956	28
184.04552	12
184.05357	32
185.06277	38
212.9404	11

NAME: Catechin
PRECURSORMZ: 289.07176174783
PRECURSORTYPE: [M-H]-
INSTRUMENTTYPE: LC-ESI-QTOF
SMILES: OC1CC2=C(O)C=C(O)C=C2OC1C1=CC(O)=C(O)C=C1
INCHIKEY: PFTAWBLQPZVEMU-UHFFFAOYNA-N
Ontology: Catechins
COLLISIONENERGY: 50
FORMULA: C15H14O6
RETENTIONTIME: 3.113367
IONMODE: Negative
Comment: registered in RIKEN PlaSMA
Num Peaks: 23
55.01508	250
93.03394	125
95.01277	112
97.02529	131
97.0557	119
105.0264	150
108.01693	206
108.02332	1000
109.02265	456
109.02682	238
110.03243	219
121.02219	125
122.03077	275
123.04372	725
132.01942	231
137.02107	112
145.02126	125
145.06802	138
150.02417	138
163.00601	206
165.01268	119
173.05319	156
179.05437	162

NAME: Epigallocatechin-3-gallate
PRECURSORMZ: 457.07763494783
PRECURSORTYPE: [M-H]-
INSTRUMENTTYPE: LC-ESI-QTOF
SMILES: OC1=CC(O)=C2CC(OC(=O)C3=CC(O)=C(O)C(O)=C3)C(OC2=C1)C1=CC(O)=C(O)C(O)=C1
INCHIKEY: WMBWREPUVVBILR-UHFFFAOYNA-N
Ontology: Catechin gallates
COLLISIONENERGY: 50
FORMULA: C22H18O11
RETENTIONTIME: 3.467917
IONMODE: Negative
Comment: registered in RIKEN PlaSMA
Num Peaks: 23
79.01628	42
107.01136	46
109.02923	27
121.02413	30
123.01311	37
124.01255	34
125.02254	1000
126.02703	33
131.01309	21
137.02164	23
147.04111	18
149.01707	21
162.028	20
165.01915	59
166.01921	21
166.02701	54
167.00243	25
167.02382	19
167.89763	18
169.01288	48
171.0448	20
172.03271	40
177.05138	45

NAME: Apigenin-8-C-glucoside
PRECURSORMZ: 431.09837034783
PRECURSORTYPE: [M-H]-
INSTRUMENTTYPE: LC-ESI-QTOF
SMILES: OCC1OC(C(O)C(O)C1O)C1=C(O)C=C(O)C2=C1OC(=CC2=O)C1=CC=C(O)C=C1
INCHIKEY: SGEWCQFRYRRZDC-UHFFFAOYNA-N
Ontology: Flavonoid 8-C-glycosides
COLLISIONENERGY: 50
FORMULA: C21H20O10
RETENTIONTIME: 3.964417
IONMODE: Negative
Comment: registered in RIKEN PlaSMA
Num Peaks: 180
65.00181	22
65.00482	9
65.03734	13
77.03719	45
77.98787	9
78.04619	9
79.01644	65
80.02116	35
81.03508	10
83.01409	9
87.02168	13
91.01978	11
91.05217	37
92.02608	33
92.99935	9
93.02972	27
93.03468	77
94.04036	16
95.01218	10
95.05154	17
98.02764	10
101.03442	9
103.021	9
105.03113	77
106.038	13
106.9532	8
107.01099	16
115.45618	14
117.03329	1000
117.24438	9
118.03828	130
119.01385	28
119.03822	8
119.05125	70
120.0175	11
120.0548	8
121.02605	178
121.03045	74
123.04343	20
125.0202	9
129.03165	21
131.01303	9
131.04968	55
132.42366	12
133.03357	14
135.01479	8
135.03743	60
135.0428	201
136.00908	11
136.04276	12
136.04842	30
136.16919	9
137.01202	9
137.02873	13
138.02316	10
145.02271	29
145.03363	14
145.06546	9
147.0392	8
147.47716	10
148.01407	46
148.02122	15
149.02046	40
149.99409	10
150.02916	16
151.00372	10
151.03134	10
155.04449	43
155.06317	9
156.05325	22
157.06804	11
158.03972	19
159.04103	140
159.05515	15
160.00668	10
160.0477	39
161.02412	247
161.94438	9
162.02921	57
162.99971	65
163.00999	10
163.03531	168
164.00096	26
164.04063	10
165.01247	30
165.0242	35
166.01926	10
166.0703	13
167.04761	17
167.08076	11
168.0583	24
169.02802	11
169.06267	29
170.07368	46
171.04541	21
171.07967	10
172.04503	9
172.05112	26
172.08575	10
173.01968	25
173.05463	11
173.06201	18
174.41243	9
174.99648	37
175.04121	10
176.0444	13
177.00938	11
180.0473	25
182.0313	9
182.04002	15
182.05415	10
182.06848	20
183.04359	19
183.08006	37
185.05913	65
187.03703	20
187.04463	14
189.01837	51
190.02477	33
190.99814	21
193.06458	35
195.04749	23
195.08009	16
196.00711	15
196.0472	15
196.05408	45
197.04765	11
197.05504	26
198.06569	11
198.38757	10
208.05066	8
209.05568	31
210.05836	9
211.03804	29
211.07637	55
212.07693	8
213.05432	58
214.06749	10
215.04787	19
215.06882	8
216.06886	8
221.06369	8
222.06384	8
223.03854	14
224.05144	46
225.05377	37
227.06721	26
228.06854	14
235.0359	9
237.04512	8
237.05635	14
238.04608	10
239.03859	24
239.05074	18
239.0771	22
240.04332	34
240.07347	11
242.05814	13
248.04698	10
251.02939	9
252.04813	16
253.04565	34
254.05554	13
255.05844	10
259.95593	10
264.05042	11
267.01712	21
267.4823	12
268.03091	28
268.04507	20
281.04089	74
281.05652	14
282.0426	9
282.05493	9
283.04846	61
283.06644	96
284.05334	25
293.03915	13
293.04892	19
303.02255	11

NAME: Naringenin-7-O-rutinoside
PRECURSORMZ: 579.17192924783
PRECURSORTYPE: [M-H]-
INSTRUMENTTYPE: LC-ESI-QTOF
SMILES: CC1OC(OCC2OC(OC3=CC(O)=C4C(=O)CC(OC4=C3)C3=CC=C(O)C=C3)C(O)C(O)C2O)C(O)C(O)C1O
INCHIKEY: HXTFHSYLYXVTHC-UHFFFAOYNA-N
Ontology: Flavonoid-7-O-glycosides
COLLISIONENERGY: 50
FORMULA: C27H32O14
RETENTIONTIME: 4.286783
IONMODE: Negative
Comment: registered in RIKEN PlaSMA
Num Peaks: 69
65.00166	27
83.01296	34
93.03359	38
107.01219	251
108.02001	23
108.99912	7
117.03671	8
119.04902	567
120.0477	33
120.0537	62
121.03175	10
121.05173	8
125.02288	23
131.01035	23
133.02585	9
136.01631	8
137.02277	14
143.0504	21
144.05138	10
145.02357	12
145.02997	20
149.02109	18
151.00177	1000
151.03891	16
152.00504	73
161.02417	7
161.05843	54
162.06316	7
164.00528	9
165.01736	64
166.02322	7
175.00092	73
176.0033	13
176.01143	8
177.01871	103
179.03706	8
183.0443	6
183.0876	9
184.06169	5
185.0498	13
185.06065	37
187.03951	64
187.05003	10
188.03906	9
189.01758	10
189.06107	6
193.01077	10
195.03931	6
197.06036	7
198.07004	6
199.07228	12
200.40651	6
203.05255	5
203.07072	11
206.0229	6
209.05891	10
219.03224	9
227.05913	12
227.07167	26
227.08336	14
229.04799	24
229.06241	10
229.07478	7
243.06331	7
269.04349	6
271.05807	125
271.07462	21
272.05533	16
272.06696	14

NAME: Diosmetin-7-O-rutinoside
PRECURSORMZ: 607.16684384783
PRECURSORTYPE: [M-H]-
INSTRUMENTTYPE: LC-ESI-QTOF
SMILES: COC1=C(O)C=C(C=C1)C1=CC(=O)C2=C(O)C=C(OC3OC(COC4OC(C)C(O)C(O)C4O)C(O)C(O)C3O)C=C2O1
INCHIKEY: GZSOSUNBTXMUFQ-UHFFFAOYNA-N
Ontology: Flavonoid-7-O-glycosides
COLLISIONENERGY: 50
FORMULA: C28H32O15
RETENTIONTIME: 4.4096
IONMODE: Negative
Comment: registered in RIKEN PlaSMA
Num Peaks: 11
134.03232	5
151.0023	11
227.02708	8
255.0349	6
256.03519	22
284.0314	1000
285.03415	182
286.0376	34
299.04568	20
299.05695	25
300.06122	13

NAME: 3,4,5-Trihydroxystilbene
PRECURSORMZ: 227.07136774783
PRECURSORTYPE: [M-H]-
INSTRUMENTTYPE: LC-ESI-QTOF
SMILES: OC1=CC=C(C=CC2=CC(O)=CC(O)=C2)C=C1
INCHIKEY: LUKBXSAWLPMMSZ-UHFFFAOYSA-N
Ontology: Stilbenes
COLLISIONENERGY: 50
FORMULA: C14H12O3
RETENTIONTIME: 5.00245
IONMODE: Negative
Comment: registered in RIKEN PlaSMA
Num Peaks: 8
73.45973	415
107.05055	170
115.05933	274
117.03291	255
143.04932	245
167.04736	264
227.06593	462
227.07344	1000

NAME: Catechin
PRECURSORMZ: 289.07176174783
PRECURSORTYPE: [M-H]-
INSTRUMENTTYPE: LC-ESI-QTOF
SMILES: OC1CC2=C(O)C=C(O)C=C2OC1C1=CC(O)=C(O)C=C1
INCHIKEY: PFTAWBLQPZVEMU-UHFFFAOYNA-N
Ontology: Catechins
COLLISIONENERGY: 10
FORMULA: C15H14O6
RETENTIONTIME: 3.113367
IONMODE: Negative
Comment: registered in RIKEN PlaSMA
Num Peaks: 131
70.00137	17
81.03328	7
82.04215	7
83.01389	8
85.01566	9
85.02666	10
95.01195	6
95.04343	9
96.20679	6
97.02932	57
98.02898	10
108.01799	7
108.02467	24
109.02817	277
110.02512	7
111.04279	8
113.06028	9
116.05646	10
117.03782	9
117.07127	9
121.03031	87
122.02615	6
122.03606	45
123.04329	193
124.04259	7
125.0225	234
126.02617	7
126.40441	7
133.06216	8
135.04333	39
137.02193	127
137.02669	60
138.02789	63
139.03314	14
139.0403	42
140.58202	8
145.02658	45
146.03218	8
147.04384	23
149.01283	7
149.02394	45
149.05508	9
150.02527	6
151.03757	156
152.04189	57
156.05881	10
156.47693	8
156.99292	7
157.05846	7
157.07184	17
158.03496	11
159.04262	47
159.0782	6
160.05214	43
161.02556	15
161.05795	117
162.0219	7
162.03438	18
162.05855	8
163.03792	45
164.00844	46
164.0186	13
164.06192	8
165.01302	24
165.02052	75
166.01857	9
166.02612	11
167.03522	94
170.76718	7
172.05145	7
173.01959	8
173.05444	8
174.06888	10
175.03537	34
175.06929	10
175.07806	34
176.07205	8
178.04854	13
179.03178	61
179.04514	14
179.07451	8
180.03203	19
183.06357	8
184.04747	13
185.06035	11
187.01929	6
187.03984	56
188.04536	72
188.05312	41
188.10916	6
189.05316	17
199.07056	8
201.04807	23
201.05823	8
202.05663	13
202.06383	14
202.07263	18
203.07106	256
204.07437	50
205.04836	228
206.04089	7
206.05733	22
212.04616	30
212.05289	13
216.04489	15
217.09357	8
218.0484	14
221.06563	12
221.08235	81
221.46448	8
222.07983	20
225.05301	7
226.05969	8
227.05821	11
227.06897	31
229.05159	13
230.05983	25
231.01817	8
244.06682	6
244.95183	7
245.08116	403
246.07823	27
246.08832	52
246.79984	9
247.063	31
248.0592	8
271.0546	6
277.4852	8
287.06601	7
288.05688	15
289.07245	1000

NAME: Epigallocatechin-3-gallate
PRECURSORMZ: 457.07763494783
PRECURSORTYPE: [M-H]-
INSTRUMENTTYPE: LC-ESI-QTOF
SMILES: OC1=CC(O)=C2CC(OC(=O)C3=CC(O)=C(O)C(O)=C3)C(OC2=C1)C1=CC(O)=C(O)C(O)=C1
INCHIKEY: WMBWREPUVVBILR-UHFFFAOYNA-N
Ontology: Catechin gallates
COLLISIONENERGY: 10
FORMULA: C22H18O11
RETENTIONTIME: 3.467917
IONMODE: Negative
Comment: registered in RIKEN PlaSMA
Num Peaks: 39
97.03332	10
123.00488	14
124.01285	10
125.02239	188
126.33183	9
129.1702	7
133.0598	6
137.02008	14
161.01949	10
161.02594	9
165.01038	10
166.9872	6
167.04016	5
167.99442	15
169.01265	1000
170.01588	69
171.01581	16
178.99707	6
179.03738	7
188.0493	7
193.00412	14
193.01382	30
219.07184	5
242.45108	5
243.05182	5
243.07828	6
261.07361	8
268.02957	6
269.04645	12
270.05832	9
275.0509	6
287.05106	11
305.03055	5
305.06656	38
306.06924	30
317.02335	5
330.04568	5
331.04092	32
457.08066	65

NAME: Apigenin-8-C-glucoside
PRECURSORMZ: 431.09837034783
PRECURSORTYPE: [M-H]-
INSTRUMENTTYPE: LC-ESI-QTOF
SMILES: OCC1OC(C(O)C(O)C1O)C1=C(O)C=C(O)C2=C1OC(=CC2=O)C1=CC=C(O)C=C1
INCHIKEY: SGEWCQFRYRRZDC-UHFFFAOYNA-N
Ontology: Flavonoid 8-C-glycosides
COLLISIONENERGY: 10
FORMULA: C21H20O10
RETENTIONTIME: 3.964417
IONMODE: Negative
Comment: registered in RIKEN PlaSMA
Num Peaks: 45
77.038	5
117.03697	14
119.04906	7
121.0256	9
121.03123	6
135.04668	9
149.02278	11
159.04929	8
161.01782	9
163.03932	27
164.04018	6
165.02072	8
173.05777	5
179.02794	9
179.03476	8
180.05411	5
183.04428	8
191.02313	10
203.03656	14
211.07202	9
213.0592	7
222.07314	5
239.07561	9
240.07632	8
243.06102	5
255.06396	7
268.03381	13
269.03891	16
269.04999	13
281.04779	22
283.06018	443
284.06506	82
285.06714	12
293.05154	5
309.04501	5
311.05435	1000
312.05853	179
313.05075	8
313.06451	18
323.05035	32
323.06711	15
341.06818	69
342.06708	17
353.06149	5
431.09726	728

NAME: Naringenin-7-O-rutinoside
PRECURSORMZ: 579.17192924783
PRECURSORTYPE: [M-H]-
INSTRUMENTTYPE: LC-ESI-QTOF
SMILES: CC1OC(OCC2OC(OC3=CC(O)=C4C(=O)CC(OC4=C3)C3=CC=C(O)C=C3)C(O)C(O)C2O)C(O)C(O)C1O
INCHIKEY: HXTFHSYLYXVTHC-UHFFFAOYNA-N
Ontology: Flavonoid-7-O-glycosides
COLLISIONENERGY: 10
FORMULA: C27H32O14
RETENTIONTIME: 4.286783
IONMODE: Negative
Comment: registered in RIKEN PlaSMA
Num Peaks: 17
119.04781	39
151.00143	173
152.00275	8
152.01294	5
165.01816	8
174.9986	12
175.00529	11
177.01614	18
193.0121	7
271.05981	1000
272.06296	151
273.06198	18
273.07047	6
295.05963	45
313.07074	12
459.11639	7
579.17072	378

NAME: Diosmetin-7-O-rutinoside
PRECURSORMZ: 607.16684384783
PRECURSORTYPE: [M-H]-
INSTRUMENTTYPE: LC-ESI-QTOF
SMILES: COC1=C(O)C=C(C=C1)C1=CC(=O)C2=C(O)C=C(OC3OC(COC4OC(C)C(O)C(O)C4O)C(O)C(O)C3O)C=C2O1
INCHIKEY: GZSOSUNBTXMUFQ-UHFFFAOYNA-N
Ontology: Flavonoid-7-O-glycosides
COLLISIONENERGY: 10
FORMULA: C28H32O15
RETENTIONTIME: 4.4096
IONMODE: Negative
Comment: registered in RIKEN PlaSMA
Num Peaks: 7
284.02982	327
285.03452	59
286.03665	10
299.05371	1000
300.05704	183
301.06015	29
607.16351	387

NAME: 3,4,5-Trihydroxystilbene
PRECURSORMZ: 227.07136774783
PRECURSORTYPE: [M-H]-
INSTRUMENTTYPE: LC-ESI-QTOF
SMILES: OC1=CC=C(C=CC2=CC(O)=CC(O)=C2)C=C1
INCHIKEY: LUKBXSAWLPMMSZ-UHFFFAOYSA-N
Ontology: Stilbenes
COLLISIONENERGY: 10
FORMULA: C14H12O3
RETENTIONTIME: 5.00245
IONMODE: Negative
Comment: registered in RIKEN PlaSMA
Num Peaks: 26
94.03848	5
115.05254	18
119.05047	7
120.05534	8
140.52542	7
141.06912	29
143.04892	208
144.0536	28
146.02921	8
156.0556	10
157.06468	33
158.06998	10
159.07857	41
159.08557	18
167.04897	8
181.05827	22
181.06628	22
182.07161	35
183.07452	17
183.08424	31
185.058	175
186.05534	13
186.06203	16
186.07085	8
225.05475	13
227.06883	1000

NAME: Catechin
PRECURSORMZ: 289.07176174783
PRECURSORTYPE: [M-H]-
INSTRUMENTTYPE: LC-ESI-QTOF
SMILES: OC1CC2=C(O)C=C(O)C=C2OC1C1=CC(O)=C(O)C=C1
INCHIKEY: PFTAWBLQPZVEMU-UHFFFAOYNA-N
Ontology: Catechins
COLLISIONENERGY: 10
FORMULA: C15H14O6
RETENTIONTIME: 3.113367
IONMODE: Negative
Comment: registered in RIKEN PlaSMA
Num Peaks: 41
109.02751	35
121.02523	7
123.04061	6
125.02046	24
125.02792	15
137.02255	30
139.03545	13
149.02057	9
151.03668	41
152.0424	9
161.06197	8
164.01155	7
165.01604	17
167.03484	16
168.03528	8
174.03818	6
175.03761	12
175.07455	7
179.03511	85
179.04352	15
180.04057	5
187.03563	21
187.04163	10
188.03766	6
188.04657	12
202.05241	5
202.06615	16
203.07144	76
205.04941	125
206.05878	5
217.05008	6
221.08244	14
227.07117	24
228.07387	5
230.05473	7
231.0289	11
245.07965	345
246.05847	6
246.0853	68
247.05949	7
289.07071	1000

NAME: Epigallocatechin-3-gallate
PRECURSORMZ: 457.07763494783
PRECURSORTYPE: [M-H]-
INSTRUMENTTYPE: LC-ESI-QTOF
SMILES: OC1=CC(O)=C2CC(OC(=O)C3=CC(O)=C(O)C(O)=C3)C(OC2=C1)C1=CC(O)=C(O)C(O)=C1
INCHIKEY: WMBWREPUVVBILR-UHFFFAOYNA-N
Ontology: Catechin gallates
COLLISIONENERGY: 10
FORMULA: C22H18O11
RETENTIONTIME: 3.467917
IONMODE: Negative
Comment: registered in RIKEN PlaSMA
Num Peaks: 23
125.02298	22
137.02457	6
161.02763	6
167.03667	6
169.0132	1000
170.01274	27
170.02086	24
171.01794	12
179.03084	12
193.01245	40
194.01633	7
269.04343	10
287.05429	18
288.06018	12
305.05267	16
305.06528	70
305.07965	26
306.0658	28
319.05112	20
329.03604	11
331.04269	63
456.06573	10
457.07941	378

NAME: Apigenin-8-C-glucoside
PRECURSORMZ: 431.09837034783
PRECURSORTYPE: [M-H]-
INSTRUMENTTYPE: LC-ESI-QTOF
SMILES: OCC1OC(C(O)C(O)C1O)C1=C(O)C=C(O)C2=C1OC(=CC2=O)C1=CC=C(O)C=C1
INCHIKEY: SGEWCQFRYRRZDC-UHFFFAOYNA-N
Ontology: Flavonoid 8-C-glycosides
COLLISIONENERGY: 10
FORMULA: C21H20O10
RETENTIONTIME: 3.964417
IONMODE: Negative
Comment: registered in RIKEN PlaSMA
Num Peaks: 6
283.05804	7
311.05411	279
312.05887	47
313.05759	6
341.06213	17
431.0954	1000

NAME: Naringenin-7-O-rutinoside
PRECURSORMZ: 579.17192924783
PRECURSORTYPE: [M-H]-
INSTRUMENTTYPE: LC-ESI-QTOF
SMILES: CC1OC(OCC2OC(OC3=CC(O)=C4C(=O)CC(OC4=C3)C3=CC=C(O)C=C3)C(O)C(O)C2O)C(O)C(O)C1O
INCHIKEY: HXTFHSYLYXVTHC-UHFFFAOYNA-N
Ontology: Flavonoid-7-O-glycosides
COLLISIONENERGY: 10
FORMULA: C27H32O14
RETENTIONTIME: 4.286783
IONMODE: Negative
Comment: registered in RIKEN PlaSMA
Num Peaks: 5
271.06003	396
272.06314	74
273.07062	7
579.17334	1000
579.2243	9

NAME: Diosmetin-7-O-rutinoside
PRECURSORMZ: 607.16684384783
PRECURSORTYPE: [M-H]-
INSTRUMENTTYPE: LC-ESI-QTOF
SMILES: COC1=C(O)C=C(C=C1)C1=CC(=O)C2=C(O)C=C(OC3OC(COC4OC(C)C(O)C(O)C4O)C(O)C(O)C3O)C=C2O1
INCHIKEY: GZSOSUNBTXMUFQ-UHFFFAOYNA-N
Ontology: Flavonoid-7-O-glycosides
COLLISIONENERGY: 10
FORMULA: C28H32O15
RETENTIONTIME: 4.4096
IONMODE: Negative
Comment: registered in RIKEN PlaSMA
Num Peaks: 5
299.0556	316
300.05627	40
380.54037	5
496.8132	6
607.16669	1000

NAME: 3,4,5-Trihydroxystilbene
PRECURSORMZ: 227.07136774783
PRECURSORTYPE: [M-H]-
INSTRUMENTTYPE: LC-ESI-QTOF
SMILES: OC1=CC=C(C=CC2=CC(O)=CC(O)=C2)C=C1
INCHIKEY: LUKBXSAWLPMMSZ-UHFFFAOYSA-N
Ontology: Stilbenes
COLLISIONENERGY: 10
FORMULA: C14H12O3
RETENTIONTIME: 5.00245
IONMODE: Negative
Comment: registered in RIKEN PlaSMA
Num Peaks: 8
143.04697	13
157.06224	9
159.08234	12
183.07721	13
183.08672	8
185.05933	83
186.06187	7
227.06966	1000

NAME: Catechin
PRECURSORMZ: 289.07176174783
PRECURSORTYPE: [M-H]-
INSTRUMENTTYPE: LC-ESI-QTOF
SMILES: OC1CC2=C(O)C=C(O)C=C2OC1C1=CC(O)=C(O)C=C1
INCHIKEY: PFTAWBLQPZVEMU-UHFFFAOYNA-N
Ontology: Catechins
COLLISIONENERGY: 30
FORMULA: C15H14O6
RETENTIONTIME: 3.113367
IONMODE: Negative
Comment: registered in RIKEN PlaSMA
Num Peaks: 109
57.03523	25
68.57836	16
68.99396	19
69.00263	21
69.03458	16
77.03973	18
80.0201	16
81.03185	22
82.03519	22
83.00906	40
83.01443	59
85.53156	20
93.03356	31
95.04829	26
97.03133	87
105.03071	17
106.03284	16
107.04502	23
107.05106	50
109.02696	534
109.06503	31
117.03437	17
117.04121	22
120.49413	38
121.02662	270
122.0338	287
123.04428	1000
123.0722	16
124.00697	21
124.0467	19
125.02224	251
126.02811	53
129.03094	34
130.06795	17
131.04814	77
132.05365	38
133.02834	40
133.06802	17
134.03354	28
134.06752	19
135.04256	74
136.01094	27
136.01854	46
137.02243	216
138.02502	16
139.03999	46
143.05147	43
145.02194	34
145.02676	77
146.02988	75
147.07837	22
147.08537	27
148.01538	30
149.01848	45
150.02321	53
150.03088	73
151.03679	147
156.04839	17
156.09048	18
157.0652	16
158.03111	16
158.03841	40
159.04271	232
160.04472	133
161.05664	79
161.0739	43
162.02414	39
163.03458	18
163.04477	20
164.00839	139
165.01418	25
167.04959	18
171.05086	34
173.06091	16
174.03654	65
174.05869	22
175.03586	27
175.04648	54
175.07376	104
175.08615	16
176.03914	28
176.09117	19
177.04742	30
177.05295	83
179.02786	22
181.06732	21
183.03662	17
183.047	16
184.05113	17
185.05495	26
186.06544	16
187.03893	84
188.03659	40
188.04701	40
189.04694	20
189.05853	47
190.02397	16
193.51627	21
201.0504	35
202.05858	24
203.02933	41
203.06287	41
203.07448	90
205.04828	16
225.05083	30
227.02641	17
227.06267	16
241.04906	16
289.06497	22

NAME: Epigallocatechin-3-gallate
PRECURSORMZ: 457.07763494783
PRECURSORTYPE: [M-H]-
INSTRUMENTTYPE: LC-ESI-QTOF
SMILES: OC1=CC(O)=C2CC(OC(=O)C3=CC(O)=C(O)C(O)=C3)C(OC2=C1)C1=CC(O)=C(O)C(O)=C1
INCHIKEY: WMBWREPUVVBILR-UHFFFAOYNA-N
Ontology: Catechin gallates
COLLISIONENERGY: 30
FORMULA: C22H18O11
RETENTIONTIME: 3.467917
IONMODE: Negative
Comment: registered in RIKEN PlaSMA
Num Peaks: 49
54.45483	10
95.00608	11
107.0154	23
111.59571	11
123.00209	36
123.04484	10
124.21024	13
125.0227	653
126.02575	33
137.02516	30
139.03783	25
149.02234	11
157.064	12
160.01497	13
161.02405	38
163.02895	12
164.01685	12
165.01767	87
167.0258	44
169.01149	1000
170.01308	35
171.01527	30
171.02293	9
173.0593	9
177.05974	23
179.00107	15
179.03203	11
179.03828	15
180.03706	15
186.01495	13
186.03276	11
193.01553	66
197.05843	26
201.06247	11
202.03531	10
203.03421	9
204.04196	22
205.01128	13
207.02298	9
219.06958	23
220.04208	15
250.03569	14
257.03995	17
258.05219	11
261.07086	9
271.01248	11
305.06097	11
312.04517	12
331.02954	16

NAME: Apigenin-8-C-glucoside
PRECURSORMZ: 431.09837034783
PRECURSORTYPE: [M-H]-
INSTRUMENTTYPE: LC-ESI-QTOF
SMILES: OCC1OC(C(O)C(O)C1O)C1=C(O)C=C(O)C2=C1OC(=CC2=O)C1=CC=C(O)C=C1
INCHIKEY: SGEWCQFRYRRZDC-UHFFFAOYNA-N
Ontology: Flavonoid 8-C-glycosides
COLLISIONENERGY: 30
FORMULA: C21H20O10
RETENTIONTIME: 3.964417
IONMODE: Negative
Comment: registered in RIKEN PlaSMA
Num Peaks: 65
93.0347	12
105.03057	6
117.0309	59
118.03912	9
119.04723	13
121.02889	6
133.02621	6
135.04636	13
149.0231	28
150.02138	6
151.03778	5
159.04083	16
161.02353	33
162.02875	6
163.04039	57
164.04472	6
173.02245	10
174.99632	6
179.03575	11
181.06476	8
183.04012	9
185.02324	13
191.03368	56
193.00726	9
195.08731	7
197.0554	8
203.0354	29
211.07515	19
213.05257	7
215.07001	12
217.00784	6
226.06134	6
237.05272	6
239.06717	17
243.06326	5
243.07315	7
265.05515	5
268.02771	22
268.04364	15
269.03195	13
269.04639	32
270.04279	13
280.05106	5
281.03366	12
281.04657	29
282.05127	57
283.05978	1000
284.0629	187
285.06604	19
293.03961	59
295.06345	30
296.07144	8
308.03546	5
309.03491	12
309.05051	6
310.69565	5
311.0538	505
312.05658	128
313.06549	20
313.08511	5
314.06396	7
323.04636	17
323.05664	53
324.06601	7
341.06543	27

NAME: Naringenin-7-O-rutinoside
PRECURSORMZ: 579.17192924783
PRECURSORTYPE: [M-H]-
INSTRUMENTTYPE: LC-ESI-QTOF
SMILES: CC1OC(OCC2OC(OC3=CC(O)=C4C(=O)CC(OC4=C3)C3=CC=C(O)C=C3)C(O)C(O)C2O)C(O)C(O)C1O
INCHIKEY: HXTFHSYLYXVTHC-UHFFFAOYNA-N
Ontology: Flavonoid-7-O-glycosides
COLLISIONENERGY: 30
FORMULA: C27H32O14
RETENTIONTIME: 4.286783
IONMODE: Negative
Comment: registered in RIKEN PlaSMA
Num Peaks: 20
93.03274	16
119.0471	45
125.0238	5
145.02852	5
151.00156	257
152.00529	31
165.01805	10
175.00154	46
177.01682	31
193.01483	28
205.01257	7
219.02242	8
271.05899	1000
272.0618	163
273.06195	31
295.05539	31
295.0647	13
296.06433	10
313.06329	19
313.07501	12

NAME: Diosmetin-7-O-rutinoside
PRECURSORMZ: 607.16684384783
PRECURSORTYPE: [M-H]-
INSTRUMENTTYPE: LC-ESI-QTOF
SMILES: COC1=C(O)C=C(C=C1)C1=CC(=O)C2=C(O)C=C(OC3OC(COC4OC(C)C(O)C(O)C4O)C(O)C(O)C3O)C=C2O1
INCHIKEY: GZSOSUNBTXMUFQ-UHFFFAOYNA-N
Ontology: Flavonoid-7-O-glycosides
COLLISIONENERGY: 30
FORMULA: C28H32O15
RETENTIONTIME: 4.4096
IONMODE: Negative
Comment: registered in RIKEN PlaSMA
Num Peaks: 6
284.03027	280
285.03384	36
299.05392	1000
300.05667	140
301.05713	16
301.07385	6

NAME: 3,4,5-Trihydroxystilbene
PRECURSORMZ: 227.07136774783
PRECURSORTYPE: [M-H]-
INSTRUMENTTYPE: LC-ESI-QTOF
SMILES: OC1=CC=C(C=CC2=CC(O)=CC(O)=C2)C=C1
INCHIKEY: LUKBXSAWLPMMSZ-UHFFFAOYSA-N
Ontology: Stilbenes
COLLISIONENERGY: 30
FORMULA: C14H12O3
RETENTIONTIME: 5.00245
IONMODE: Negative
Comment: registered in RIKEN PlaSMA
Num Peaks: 40
115.05412	219
116.02947	14
117.03355	61
118.03542	9
119.04905	52
120.05038	30
128.05951	10
129.06998	21
131.04803	12
141.03868	17
142.02988	11
142.04205	20
142.70351	14
143.04945	1000
144.05341	187
145.0278	14
145.03357	12
145.05151	23
154.03912	11
155.08737	15
156.06059	68
157.05537	15
157.06679	41
158.03912	13
159.08099	11
160.07736	10
167.04684	21
167.05626	9
169.0667	15
171.04788	14
180.05927	9
181.05106	12
181.06482	111
182.06572	57
182.07788	24
183.04341	26
183.08353	16
184.05646	12
185.05949	68
227.06189	16

NAME: Catechin
PRECURSORMZ: 289.07176174783
PRECURSORTYPE: [M-H]-
INSTRUMENTTYPE: LC-ESI-QTOF
SMILES: OC1CC2=C(O)C=C(O)C=C2OC1C1=CC(O)=C(O)C=C1
INCHIKEY: PFTAWBLQPZVEMU-UHFFFAOYNA-N
Ontology: Catechins
COLLISIONENERGY: 50
FORMULA: C15H14O6
RETENTIONTIME: 3.113367
IONMODE: Negative
Comment: registered in RIKEN PlaSMA
Num Peaks: 23
67.02079	271
69.03404	165
77.03529	241
80.0233	158
93.03428	331
97.02576	203
97.03144	256
104.06084	211
109.02663	1000
117.0362	338
118.03909	271
121.03184	323
122.0373	865
127.0553	278
135.03877	165
138.02565	165
145.02591	203
148.01625	218
155.05455	150
159.04802	759
175.04343	165
198.07475	226
199.03699	218

NAME: Epigallocatechin-3-gallate
PRECURSORMZ: 457.07763494783
PRECURSORTYPE: [M-H]-
INSTRUMENTTYPE: LC-ESI-QTOF
SMILES: OC1=CC(O)=C2CC(OC(=O)C3=CC(O)=C(O)C(O)=C3)C(OC2=C1)C1=CC(O)=C(O)C(O)=C1
INCHIKEY: WMBWREPUVVBILR-UHFFFAOYNA-N
Ontology: Catechin gallates
COLLISIONENERGY: 50
FORMULA: C22H18O11
RETENTIONTIME: 3.467917
IONMODE: Negative
Comment: registered in RIKEN PlaSMA
Num Peaks: 43
77.03731	32
79.01723	22
79.02301	35
81.03353	53
83.01207	44
89.03683	32
95.0126	21
95.04796	25
97.02995	24
98.08167	37
107.01208	103
109.02968	71
111.04086	35
121.0294	47
121.0418	27
123.0058	57
124.00301	41
124.01137	28
124.01749	59
125.02148	1000
126.02628	59
127.02199	38
133.02759	25
137.03038	21
138.02553	55
139.03404	52
143.05888	28
144.05489	25
147.08559	25
149.01993	27
151.00154	34
154.0143	24
155.04555	59
161.01852	58
161.05663	29
167.03429	22
169.01518	191
170.00883	25
174.02762	47
175.03287	67
198.05865	38
228.0416	26
244.03192	26

NAME: Apigenin-8-C-glucoside
PRECURSORMZ: 431.09837034783
PRECURSORTYPE: [M-H]-
INSTRUMENTTYPE: LC-ESI-QTOF
SMILES: OCC1OC(C(O)C(O)C1O)C1=C(O)C=C(O)C2=C1OC(=CC2=O)C1=CC=C(O)C=C1
INCHIKEY: SGEWCQFRYRRZDC-UHFFFAOYNA-N
Ontology: Flavonoid 8-C-glycosides
COLLISIONENERGY: 50
FORMULA: C21H20O10
RETENTIONTIME: 3.964417
IONMODE: Negative
Comment: registered in RIKEN PlaSMA
Num Peaks: 187
52.02482	13
77.03803	177
77.94724	10
78.04182	20
79.01879	66
80.02189	11
83.01135	23
84.01224	19
89.00264	17
91.02185	21
91.0536	12
92.02609	11
92.05474	14
93.03391	220
94.82864	11
95.01565	10
95.04018	11
95.04833	42
103.01542	14
105.03528	21
107.01221	58
107.03902	12
107.04678	26
108.02066	34
109.04519	20
113.02293	13
113.76534	11
116.02602	15
117.03344	1000
118.03678	83
119.01344	25
119.04777	86
120.02133	28
120.05865	10
121.02333	70
121.02958	148
121.04199	32
123.04256	21
129.03265	14
130.04042	31
131.00951	11
131.01945	15
131.04816	14
133.02771	30
135.00381	23
135.01186	20
135.04469	519
136.01309	23
136.04861	25
136.4442	10
137.0215	49
143.04887	16
145.0276	75
145.06302	22
146.03096	15
146.0354	38
148.01297	31
148.02097	64
148.04068	17
149.02402	79
150.99904	11
151.04408	11
155.05804	11
156.05914	18
157.06989	13
158.04135	12
158.0611	14
159.04231	154
159.40643	20
160.01981	14
160.04628	21
160.05344	18
161.02467	428
161.1732	10
162.03343	42
162.06711	15
162.99982	52
163.03586	124
163.04726	65
164.00951	44
164.04027	11
165.02077	26
165.05981	12
165.07028	12
167.04768	38
168.05751	25
169.05006	13
169.06456	102
169.07607	21
170.06444	15
171.04445	32
171.0721	16
171.0822	11
172.0161	14
172.05626	15
173.06004	61
175.0416	36
177.06815	11
179.03871	20
179.05141	25
180.04953	10
181.06242	47
182.03169	14
182.04152	27
182.07237	15
183.03889	25
183.06454	17
183.07562	25
185.05786	12
186.03308	11
186.06155	14
187.00238	11
187.04469	24
188.04008	13
189.02292	23
190.02478	11
191.02397	11
192.05243	27
193.00645	13
194.0722	38
194.67055	14
195.04372	103
196.04767	32
196.05495	45
197.06645	13
197.16197	18
199.0343	12
199.04419	11
199.08194	18
201.04935	11
205.01117	11
206.17529	13
207.04439	42
209.04823	18
209.05875	17
210.0407	11
211.03856	42
211.06865	23
213.0377	16
214.05862	13
215.06914	29
216.00586	50
220.05203	13
221.0629	11
222.06848	34
223.04233	21
224.04552	56
225.05389	14
226.06274	12
227.07397	11
233.05342	19
237.05772	51
238.05914	12
239.07275	51
240.02843	13
240.04364	95
250.02939	24
251.04045	21
251.07405	12
252.03365	14
253.05008	37
254.05673	13
255.05511	11
256.04385	13
262.05869	11
266.0578	12
267.02707	67
267.05194	12
268.02246	11
268.03757	60
269.04269	67
269.05234	25
270.04199	12
271.05292	12
277.03369	12
280.03717	40
281.0473	77
282.04144	29
282.05737	37
283.05298	61
283.06161	195
284.05908	38
284.07632	25
295.05188	10
296.06714	13
305.05087	12
335.9024	11

NAME: Naringenin-7-O-rutinoside
PRECURSORMZ: 579.17192924783
PRECURSORTYPE: [M-H]-
INSTRUMENTTYPE: LC-ESI-QTOF
SMILES: CC1OC(OCC2OC(OC3=CC(O)=C4C(=O)CC(OC4=C3)C3=CC=C(O)C=C3)C(O)C(O)C2O)C(O)C(O)C1O
INCHIKEY: HXTFHSYLYXVTHC-UHFFFAOYNA-N
Ontology: Flavonoid-7-O-glycosides
COLLISIONENERGY: 50
FORMULA: C27H32O14
RETENTIONTIME: 4.286783
IONMODE: Negative
Comment: registered in RIKEN PlaSMA
Num Peaks: 71
65.00134	22
69.03561	5
79.01749	5
81.03481	7
83.00977	24
93.03088	16
93.0368	14
107.01272	281
108.01769	43
109.02467	6
119.04839	626
119.16547	6
120.05131	55
121.02464	16
122.03394	7
125.01763	15
125.0237	25
126.03004	5
133.0278	7
135.01094	9
136.01788	16
137.02226	32
143.04074	8
143.04979	26
145.02753	23
146.03337	20
149.02162	18
151.00204	1000
151.03934	11
152.00569	64
157.06569	15
161.01694	8
161.05986	60
162.05908	6
163.00594	6
163.03683	7
165.01797	86
166.01678	8
167.03052	5
174.99603	25
175.00304	61
177.02005	120
178.02544	13
179.0307	15
180.04068	10
185.05869	42
187.03421	42
187.04079	88
188.04601	7
189.0168	8
192.08887	8
193.01617	6
198.07788	7
199.07393	10
207.03609	5
209.06186	5
217.68759	6
224.05067	5
227.06197	16
227.07092	59
228.06496	8
228.07454	5
229.05278	11
269.02908	8
269.04193	8
271.06097	105
272.06293	7
273.05621	5
285.07715	8
579.16449	52
579.19501	11

NAME: Diosmetin-7-O-rutinoside
PRECURSORMZ: 607.16684384783
PRECURSORTYPE: [M-H]-
INSTRUMENTTYPE: LC-ESI-QTOF
SMILES: COC1=C(O)C=C(C=C1)C1=CC(=O)C2=C(O)C=C(OC3OC(COC4OC(C)C(O)C(O)C4O)C(O)C(O)C3O)C=C2O1
INCHIKEY: GZSOSUNBTXMUFQ-UHFFFAOYNA-N
Ontology: Flavonoid-7-O-glycosides
COLLISIONENERGY: 50
FORMULA: C28H32O15
RETENTIONTIME: 4.4096
IONMODE: Negative
Comment: registered in RIKEN PlaSMA
Num Peaks: 13
151.00334	11
187.03674	5
211.04193	5
228.03737	8
255.03085	12
256.03452	15
257.0408	6
284.03082	1000
285.03461	169
286.03326	18
299.04596	13
299.05685	48
300.06049	12

NAME: 3,4,5-Trihydroxystilbene
PRECURSORMZ: 227.07136774783
PRECURSORTYPE: [M-H]-
INSTRUMENTTYPE: LC-ESI-QTOF
SMILES: OC1=CC=C(C=CC2=CC(O)=CC(O)=C2)C=C1
INCHIKEY: LUKBXSAWLPMMSZ-UHFFFAOYSA-N
Ontology: Stilbenes
COLLISIONENERGY: 50
FORMULA: C14H12O3
RETENTIONTIME: 5.00245
IONMODE: Negative
Comment: registered in RIKEN PlaSMA
Num Peaks: 5
115.05499	884
117.03313	698
119.05016	674
143.05208	1000
152.06247	628

NAME: Pelargonidin-3-O-glucoside
PRECURSORMZ: 431.09782181576
PRECURSORTYPE: [M-2H]-
INSTRUMENTTYPE: LC-ESI-QTOF
SMILES: OCC1OC(OC2=CC3=C(O)C=C(O)C=C3[O+]=C2C2=CC=C(O)C=C2)C(O)C(O)C1O
INCHIKEY: ABVCUBUIXWJYSE-UHFFFAOYNA-O
Ontology: Anthocyanidin-3-O-glycosides
COLLISIONENERGY: 10
FORMULA: C21H21O10
RETENTIONTIME: 3.114167
IONMODE: Negative
Comment: registered in RIKEN PlaSMA
Num Peaks: 50
147.00111	23
147.00888	69
148.00504	22
148.01173	17
148.02037	29
148.02901	12
149.02171	9
167.04007	11
173.06131	20
175.00124	10
180.05779	21
183.03949	10
183.04591	11
196.05072	17
197.0666	10
199.03633	10
200.04111	9
208.04826	12
211.04243	23
212.04092	9
223.03389	18
223.04355	18
224.04135	14
224.0536	19
225.0573	27
225.46259	14
226.02336	10
227.0334	13
239.03584	26
239.06091	21
240.03583	94
241.0265	11
241.04721	47
267.02185	9
267.06177	11
267.99899	10
268.03915	474
268.24765	10
269.04575	1000
269.06567	31
270.04358	110
271.04648	10
271.06848	12
272.25183	9
311.06158	18
312.06689	18
341.04276	11
431.05585	10
431.09531	207
431.1098	111

NAME: Peonidin-3-O-glucoside
PRECURSORMZ: 461.10838651576
PRECURSORTYPE: [M-2H]-
INSTRUMENTTYPE: LC-ESI-QTOF
SMILES: COC1=C(O)C=CC(=C1)C1=C(OC2OC(CO)C(O)C(O)C2O)C=C2C(O)=CC(O)=CC2=[O+]1
INCHIKEY: ZZWPMFROUHHAKY-UHFFFAOYNA-O
Ontology: Anthocyanidin-3-O-glycosides
COLLISIONENERGY: 10
FORMULA: C22H23O11
RETENTIONTIME: 3.20225
IONMODE: Negative
Comment: registered in RIKEN PlaSMA
Num Peaks: 37
162.33859	23
172.04755	14
183.04611	15
203.073	26
210.0321	23
210.23584	19
211.0396	37
212.00395	16
227.03708	53
239.03351	18
240.05067	14
244.07364	16
255.02206	103
255.03008	38
256.02386	39
256.03394	19
256.05377	21
272.06876	26
283.02637	361
283.05688	40
284.04733	23
284.05841	36
285.0285	42
286.03781	20
298.03156	94
298.04156	202
298.05212	93
299.05396	1000
299.08484	16
299.28241	28
300.0531	149
300.08047	18
311.0506	18
338.04596	23
460.96381	19
461.10089	142
461.11893	139

NAME: (+)-Epicatechin
PRECURSORMZ: 289.07176174783
PRECURSORTYPE: [M-H]-
INSTRUMENTTYPE: LC-ESI-QTOF
SMILES: OC1CC2=C(O)C=C(O)C=C2OC1C1=CC(O)=C(O)C=C1
INCHIKEY: PFTAWBLQPZVEMU-UHFFFAOYNA-N
Ontology: Catechins
COLLISIONENERGY: 10
FORMULA: C15H14O6
RETENTIONTIME: 3.43465
IONMODE: Negative
Comment: registered in RIKEN PlaSMA
Num Peaks: 114
55.17699	21
57.03319	10
60.16145	10
65.02852	11
81.03404	11
93.0322	11
95.05016	26
97.02808	63
98.03128	9
105.03225	19
108.01665	30
109.02794	248
110.03027	11
121.02775	52
122.02912	9
122.03667	36
123.0435	331
123.50662	13
124.0472	28
124.93793	10
125.02297	282
133.06514	9
135.04568	48
137.02484	139
138.03108	34
139.02737	13
139.04007	49
145.02043	12
146.02786	12
146.03703	10
147.03668	10
147.04384	10
149.01987	39
149.0246	95
150.02795	35
151.0369	117
152.03362	9
152.04495	11
152.05278	13
157.0583	22
158.03123	9
159.04077	91
159.0504	24
160.01515	10
160.04893	72
161.02177	10
161.06062	78
162.02908	76
162.04266	25
162.06505	10
163.03998	11
164.00917	22
165.01518	111
165.0314	11
167.02972	50
173.02724	9
173.05418	14
173.0607	17
174.06133	11
175.03629	43
175.04681	22
175.06952	33
175.08266	62
176.04076	32
177.04529	15
177.05414	9
179.03406	167
180.0356	10
185.05553	18
186.06046	11
187.0331	86
187.04202	68
188.04276	53
188.06108	10
190.05742	10
191.02957	18
199.07486	24
200.0432	13
201.05246	11
201.09032	22
202.05322	30
202.06348	68
203.06891	241
203.08199	22
204.08115	21
205.05075	183
206.04128	24
206.05676	46
212.03989	21
212.05266	11
213.05746	25
215.61096	13
217.08139	10
217.09082	23
219.05217	12
221.07063	23
221.08141	69
226.05051	10
227.07224	99
229.06496	13
229.07639	10
230.05882	13
231.01773	12
231.03008	10
245.08124	350
246.06718	10
246.07909	22
246.0891	20
247.05449	34
247.06593	36
258.06064	10
271.07294	10
289.06952	1000
289.10324	9

NAME: Diosmetin-7-O-neohesperidoside
PRECURSORMZ: 607.16684384783
PRECURSORTYPE: [M-H]-
INSTRUMENTTYPE: LC-ESI-QTOF
SMILES: COC1=C(O)C=C(C=C1)C1=CC(=O)C2=C(O)C=C(OC3OC(CO)C(O)C(O)C3OC3OC(C)C(O)C(O)C3O)C=C2O1
INCHIKEY: VCCNKWWXYVWTLT-UHFFFAOYNA-N
Ontology: Flavonoid-7-O-glycosides
COLLISIONENERGY: 10
FORMULA: C28H32O15
RETENTIONTIME: 4.48045
IONMODE: Negative
Comment: registered in RIKEN PlaSMA
Num Peaks: 13
122.00124	7
284.03299	218
285.03467	62
286.03046	7
299.05524	1000
300.05948	141
301.06543	21
306.05582	6
341.06644	13
443.09958	6
462.11255	5
487.11591	10
607.16827	862

NAME: Daidzein
PRECURSORMZ: 253.05063234783
PRECURSORTYPE: [M-H]-
INSTRUMENTTYPE: LC-ESI-QTOF
SMILES: OC1=CC=C(C=C1)C1=COC2=C(C=CC(O)=C2)C1=O
INCHIKEY: ZQSIJRDFPHDXIC-UHFFFAOYSA-N
Ontology: Isoflavones
COLLISIONENERGY: 10
FORMULA: C15H10O4
RETENTIONTIME: 5.161233
IONMODE: Negative
Comment: registered in RIKEN PlaSMA
Num Peaks: 22
91.01706	23
132.02151	23
133.02731	24
134.02933	5
135.00896	30
169.06306	6
180.0564	14
181.06345	6
195.03621	10
195.04337	29
196.05223	20
197.06287	11
208.04565	18
208.05309	32
209.05292	21
209.06215	18
210.06477	6
223.04045	31
224.04643	60
225.05473	24
252.04475	15
253.04959	1000

NAME: Acacetin-7-O-rutinoside
PRECURSORMZ: 591.17192924783
PRECURSORTYPE: [M-H]-
INSTRUMENTTYPE: LC-ESI-QTOF
SMILES: COC1=CC=C(C=C1)C1=CC(=O)C2=C(O)C=C(OC3OC(COC4OC(C)C(O)C(O)C4O)C(O)C(O)C3O)C=C2O1
INCHIKEY: YFVGIJBUXMQFOF-UHFFFAOYNA-N
Ontology: Flavonoid-7-O-glycosides
COLLISIONENERGY: 10
FORMULA: C28H32O14
RETENTIONTIME: 5.199317
IONMODE: Negative
Comment: registered in RIKEN PlaSMA
Num Peaks: 9
185.66359	6
268.03558	136
269.039	21
283.06082	1000
284.06476	162
285.05701	6
285.06741	16
591.15222	9
591.17462	29

NAME: Acacetin-7-O-rutinoside
PRECURSORMZ: 637.17740855183
PRECURSORTYPE: [M+FA-H]-
INSTRUMENTTYPE: LC-ESI-QTOF
SMILES: COC1=CC=C(C=C1)C1=CC(=O)C2=C(O)C=C(OC3OC(COC4OC(C)C(O)C(O)C4O)C(O)C(O)C3O)C=C2O1
INCHIKEY: YFVGIJBUXMQFOF-UHFFFAOYNA-N
Ontology: Flavonoid-7-O-glycosides
COLLISIONENERGY: 10
FORMULA: C28H32O14
RETENTIONTIME: 5.199317
IONMODE: Negative
Comment: registered in RIKEN PlaSMA
Num Peaks: 16
75.72588	5
268.04013	54
269.04312	6
269.80698	6
283.06091	1000
283.26782	6
283.46158	8
284.06372	268
285.05911	23
464.89157	9
591.15295	18
591.17865	79
592.14618	14
592.18579	31
637.159	16
637.18146	21

NAME: Pelargonidin-3-O-glucoside
PRECURSORMZ: 431.09782181576
PRECURSORTYPE: [M-2H]-
INSTRUMENTTYPE: LC-ESI-QTOF
SMILES: OCC1OC(OC2=CC3=C(O)C=C(O)C=C3[O+]=C2C2=CC=C(O)C=C2)C(O)C(O)C1O
INCHIKEY: ABVCUBUIXWJYSE-UHFFFAOYNA-O
Ontology: Anthocyanidin-3-O-glycosides
COLLISIONENERGY: 10
FORMULA: C21H21O10
RETENTIONTIME: 3.114167
IONMODE: Negative
Comment: registered in RIKEN PlaSMA
Num Peaks: 16
147.04292	9
171.93738	6
209.75578	6
268.03375	44
268.04669	29
269.04388	1000
270.048	177
271.05145	56
271.86484	6
272.04724	8
283.06033	19
297.06683	6
301.59564	6
311.04828	9
376.15335	7
431.09674	675

NAME: Peonidin-3-O-glucoside
PRECURSORMZ: 461.10838651576
PRECURSORTYPE: [M-2H]-
INSTRUMENTTYPE: LC-ESI-QTOF
SMILES: COC1=C(O)C=CC(=C1)C1=C(OC2OC(CO)C(O)C(O)C2O)C=C2C(O)=CC(O)=CC2=[O+]1
INCHIKEY: ZZWPMFROUHHAKY-UHFFFAOYNA-O
Ontology: Anthocyanidin-3-O-glycosides
COLLISIONENERGY: 10
FORMULA: C22H23O11
RETENTIONTIME: 3.20225
IONMODE: Negative
Comment: registered in RIKEN PlaSMA
Num Peaks: 16
153.72911	9
253.04765	11
262.3978	8
271.06406	8
283.0683	11
298.03128	32
298.0423	12
299.00644	8
299.0546	1000
300.0531	172
300.0697	13
301.07639	27
302.06635	11
311.72751	9
408.05884	14
461.10809	496

NAME: (+)-Epicatechin
PRECURSORMZ: 289.07176174783
PRECURSORTYPE: [M-H]-
INSTRUMENTTYPE: LC-ESI-QTOF
SMILES: OC1CC2=C(O)C=C(O)C=C2OC1C1=CC(O)=C(O)C=C1
INCHIKEY: PFTAWBLQPZVEMU-UHFFFAOYNA-N
Ontology: Catechins
COLLISIONENERGY: 10
FORMULA: C15H14O6
RETENTIONTIME: 3.43465
IONMODE: Negative
Comment: registered in RIKEN PlaSMA
Num Peaks: 38
109.02807	21
125.02133	56
126.02855	7
137.02087	41
149.02544	9
150.02852	5
151.03532	7
151.0428	8
159.0423	8
161.02637	5
161.05653	13
165.01411	17
165.02086	14
167.03377	22
175.03673	11
179.03238	57
179.03793	22
180.03671	8
187.03699	8
187.04379	9
188.04813	15
199.07208	5
201.08229	8
201.09229	5
202.05716	14
203.06778	95
204.03331	7
205.05028	113
206.04918	13
221.07845	12
227.06776	18
231.02364	8
245.08031	328
246.07346	16
246.08633	59
247.05658	14
271.05832	22
289.06982	1000

NAME: Diosmetin-7-O-neohesperidoside
PRECURSORMZ: 607.16684384783
PRECURSORTYPE: [M-H]-
INSTRUMENTTYPE: LC-ESI-QTOF
SMILES: COC1=C(O)C=C(C=C1)C1=CC(=O)C2=C(O)C=C(OC3OC(CO)C(O)C(O)C3OC3OC(C)C(O)C(O)C3O)C=C2O1
INCHIKEY: VCCNKWWXYVWTLT-UHFFFAOYNA-N
Ontology: Flavonoid-7-O-glycosides
COLLISIONENERGY: 10
FORMULA: C28H32O15
RETENTIONTIME: 4.48045
IONMODE: Negative
Comment: registered in RIKEN PlaSMA
Num Peaks: 3
299.05444	26
300.0542	7
607.16705	1000

NAME: Daidzein
PRECURSORMZ: 253.05063234783
PRECURSORTYPE: [M-H]-
INSTRUMENTTYPE: LC-ESI-QTOF
SMILES: OC1=CC=C(C=C1)C1=COC2=C(C=CC(O)=C2)C1=O
INCHIKEY: ZQSIJRDFPHDXIC-UHFFFAOYSA-N
Ontology: Isoflavones
COLLISIONENERGY: 10
FORMULA: C15H10O4
RETENTIONTIME: 5.161233
IONMODE: Negative
Comment: registered in RIKEN PlaSMA
Num Peaks: 2
253.04945	1000
253.09621	7

NAME: Acacetin-7-O-rutinoside
PRECURSORMZ: 591.17192924783
PRECURSORTYPE: [M-H]-
INSTRUMENTTYPE: LC-ESI-QTOF
SMILES: COC1=CC=C(C=C1)C1=CC(=O)C2=C(O)C=C(OC3OC(COC4OC(C)C(O)C(O)C4O)C(O)C(O)C3O)C=C2O1
INCHIKEY: YFVGIJBUXMQFOF-UHFFFAOYNA-N
Ontology: Flavonoid-7-O-glycosides
COLLISIONENERGY: 10
FORMULA: C28H32O14
RETENTIONTIME: 5.199317
IONMODE: Negative
Comment: registered in RIKEN PlaSMA
Num Peaks: 4
283.05981	1000
284.06342	187
285.06857	26
591.17004	127

NAME: Acacetin-7-O-rutinoside
PRECURSORMZ: 637.17740855183
PRECURSORTYPE: [M+FA-H]-
INSTRUMENTTYPE: LC-ESI-QTOF
SMILES: COC1=CC=C(C=C1)C1=CC(=O)C2=C(O)C=C(OC3OC(COC4OC(C)C(O)C(O)C4O)C(O)C(O)C3O)C=C2O1
INCHIKEY: YFVGIJBUXMQFOF-UHFFFAOYNA-N
Ontology: Flavonoid-7-O-glycosides
COLLISIONENERGY: 10
FORMULA: C28H32O14
RETENTIONTIME: 5.199317
IONMODE: Negative
Comment: registered in RIKEN PlaSMA
Num Peaks: 18
225.15712	23
283.05273	372
283.06177	874
283.08926	14
284.06226	237
285.07367	22
412.17807	11
590.64978	10
591.17371	1000
591.71436	14
592.17114	301
592.21045	17
593.16925	20
593.19208	74
594.17291	30
594.20374	16
637.17493	183
637.19592	49

NAME: Pelargonidin-3-O-glucoside
PRECURSORMZ: 431.09782181576
PRECURSORTYPE: [M-2H]-
INSTRUMENTTYPE: LC-ESI-QTOF
SMILES: OCC1OC(OC2=CC3=C(O)C=C(O)C=C3[O+]=C2C2=CC=C(O)C=C2)C(O)C(O)C1O
INCHIKEY: ABVCUBUIXWJYSE-UHFFFAOYNA-O
Ontology: Anthocyanidin-3-O-glycosides
COLLISIONENERGY: 30
FORMULA: C21H21O10
RETENTIONTIME: 3.114167
IONMODE: Negative
Comment: registered in RIKEN PlaSMA
Num Peaks: 44
56.23475	14
93.03618	18
111.0061	16
147.00877	231
148.01233	126
149.00769	16
155.04326	15
158.03625	14
159.08827	53
171.04622	16
172.05461	33
173.05682	37
173.06566	15
174.98949	19
180.05714	39
181.06671	46
183.04056	54
185.02464	14
196.04773	51
199.04015	55
201.05392	30
212.04977	19
213.05515	82
214.05582	31
223.03833	50
224.04715	287
225.05119	103
226.01353	16
226.02702	29
226.05927	26
227.03056	16
239.03679	81
240.03244	18
240.04306	15
241.04744	224
242.06186	14
261.92166	17
267.01834	73
267.043	14
268.03775	1000
269.03836	443
269.05374	213
270.04443	37
270.05899	24

NAME: Peonidin-3-O-glucoside
PRECURSORMZ: 461.10838651576
PRECURSORTYPE: [M-2H]-
INSTRUMENTTYPE: LC-ESI-QTOF
SMILES: COC1=C(O)C=CC(=C1)C1=C(OC2OC(CO)C(O)C(O)C2O)C=C2C(O)=CC(O)=CC2=[O+]1
INCHIKEY: ZZWPMFROUHHAKY-UHFFFAOYNA-O
Ontology: Anthocyanidin-3-O-glycosides
COLLISIONENERGY: 30
FORMULA: C22H23O11
RETENTIONTIME: 3.20225
IONMODE: Negative
Comment: registered in RIKEN PlaSMA
Num Peaks: 36
108.02494	33
109.02491	44
121.02522	25
146.5766	23
147.00137	21
147.00758	73
147.01381	22
148.01431	26
160.01756	30
167.04507	21
190.9968	33
214.02202	23
222.03122	25
227.03424	43
228.02895	28
228.04138	45
239.02623	80
240.04163	109
241.05203	31
255.02563	156
256.02448	25
256.03571	25
256.05334	54
271.04709	76
271.06235	66
283.02457	1000
284.02945	460
284.95212	21
285.04703	20
290.45523	22
298.05014	482
299.05368	390
300.06747	43
301.05444	32
301.0744	25
313.07544	18

NAME: (+)-Epicatechin
PRECURSORMZ: 289.07176174783
PRECURSORTYPE: [M-H]-
INSTRUMENTTYPE: LC-ESI-QTOF
SMILES: OC1CC2=C(O)C=C(O)C=C2OC1C1=CC(O)=C(O)C=C1
INCHIKEY: PFTAWBLQPZVEMU-UHFFFAOYNA-N
Ontology: Catechins
COLLISIONENERGY: 30
FORMULA: C15H14O6
RETENTIONTIME: 3.43465
IONMODE: Negative
Comment: registered in RIKEN PlaSMA
Num Peaks: 114
57.03623	18
61.56432	16
68.46697	16
77.03796	16
80.02647	16
81.03124	64
81.03862	15
83.0068	14
83.01255	36
93.03652	71
95.04855	154
97.02721	111
97.03363	26
100.04542	13
104.2764	14
105.03241	57
108.01363	17
108.02059	97
109.02856	571
110.0331	28
111.02744	21
111.03594	13
115.05774	16
117.03989	22
117.07327	25
120.01782	19
121.01976	20
121.02657	123
121.03216	113
122.02912	17
122.03815	144
123.04346	1000
124.01199	16
124.04958	16
125.02446	241
127.04219	16
129.02525	17
130.03351	31
131.0513	22
132.04926	28
133.02737	86
133.06543	17
134.03404	18
135.00082	16
135.04315	65
136.01062	15
136.04108	18
137.01656	61
137.02396	197
137.51248	18
138.02823	76
138.03532	30
139.04214	19
145.02887	45
145.06752	13
146.02991	27
146.03761	61
147.03749	24
147.04375	22
147.08037	17
149.02534	65
150.0247	41
150.03249	137
150.56223	13
151.03996	131
152.04036	19
155.04944	47
157.06082	32
157.06711	17
158.0381	45
158.06467	19
159.03453	15
159.04478	166
159.05269	34
160.04344	15
160.05428	51
161.02542	35
161.04706	21
161.05688	121
162.0242	19
162.0321	43
163.00369	39
164.00777	173
165.01532	33
173.02405	18
173.06325	45
174.06334	20
175.03525	39
175.0787	81
176.08249	17
177.04878	18
177.05632	18
179.03195	22
183.03273	22
185.05547	15
186.06668	68
187.02588	13
187.0415	58
188.03635	40
188.05295	29
189.0477	17
189.20955	18
198.07997	16
200.03725	22
203.06297	43
203.08765	19
205.04567	25
210.06708	21
211.04045	13
212.04077	14
215.03705	18
227.08681	14
229.04634	48
229.05481	21

NAME: Diosmetin-7-O-neohesperidoside
PRECURSORMZ: 607.16684384783
PRECURSORTYPE: [M-H]-
INSTRUMENTTYPE: LC-ESI-QTOF
SMILES: COC1=C(O)C=C(C=C1)C1=CC(=O)C2=C(O)C=C(OC3OC(CO)C(O)C(O)C3OC3OC(C)C(O)C(O)C3O)C=C2O1
INCHIKEY: VCCNKWWXYVWTLT-UHFFFAOYNA-N
Ontology: Flavonoid-7-O-glycosides
COLLISIONENERGY: 30
FORMULA: C28H32O15
RETENTIONTIME: 4.48045
IONMODE: Negative
Comment: registered in RIKEN PlaSMA
Num Peaks: 7
284.03104	242
285.03171	33
285.04584	6
299.05469	1000
300.0592	173
301.05869	20
341.07492	5

NAME: Daidzein
PRECURSORMZ: 253.05063234783
PRECURSORTYPE: [M-H]-
INSTRUMENTTYPE: LC-ESI-QTOF
SMILES: OC1=CC=C(C=C1)C1=COC2=C(C=CC(O)=C2)C1=O
INCHIKEY: ZQSIJRDFPHDXIC-UHFFFAOYSA-N
Ontology: Isoflavones
COLLISIONENERGY: 30
FORMULA: C15H10O4
RETENTIONTIME: 5.161233
IONMODE: Negative
Comment: registered in RIKEN PlaSMA
Num Peaks: 104
50.84668	12
65.00214	47
77.04057	43
78.04379	15
89.038	16
90.0415	12
91.01793	564
92.02441	25
93.03465	17
103.01436	25
104.02452	120
105.03356	27
106.03537	13
116.02539	20
116.03314	16
116.73405	12
117.03414	43
117.34568	10
127.05488	21
130.04289	10
132.0206	588
133.02834	620
134.0311	52
134.0383	16
135.0078	362
136.01382	28
137.01115	9
137.04597	9
139.0537	10
141.06233	23
143.04686	15
144.05481	27
151.06419	13
152.06522	22
153.07474	16
154.0396	10
154.0786	10
155.04613	42
155.05534	19
156.05402	41
157.06116	28
158.07022	14
159.03667	11
159.04706	11
160.01596	29
162.02315	12
167.04776	48
168.05794	67
169.06384	120
169.5983	12
170.06561	19
171.0461	12
177.73917	20
178.04068	18
179.04617	80
180.05612	280
181.06281	56
182.037	73
182.04846	25
182.07399	19
183.04454	62
183.05823	18
183.07361	11
184.0517	27
184.60396	14
185.05763	10
195.04471	391
196.05077	303
196.72505	20
197.02087	23
197.0549	30
197.06487	68
197.82091	11
198.0631	17
206.03406	13
207.04185	9
208.05074	1000
209.05713	346
209.08517	17
209.39085	11
210.02245	13
210.03371	9
210.05351	37
210.06767	32
211.0417	39
212.04349	17
222.87709	11
223.03853	886
224.0464	789
224.73398	11
225.05399	269
225.07442	16
225.27438	10
225.3969	9
226.05017	32
226.06213	39
227.02907	10
249.98021	16
251.03236	67
251.04771	11
252.03157	29
252.04489	153
253.05087	689
253.08235	10

NAME: Acacetin-7-O-rutinoside
PRECURSORMZ: 591.17192924783
PRECURSORTYPE: [M-H]-
INSTRUMENTTYPE: LC-ESI-QTOF
SMILES: COC1=CC=C(C=C1)C1=CC(=O)C2=C(O)C=C(OC3OC(COC4OC(C)C(O)C(O)C4O)C(O)C(O)C3O)C=C2O1
INCHIKEY: YFVGIJBUXMQFOF-UHFFFAOYNA-N
Ontology: Flavonoid-7-O-glycosides
COLLISIONENERGY: 30
FORMULA: C28H32O14
RETENTIONTIME: 5.199317
IONMODE: Negative
Comment: registered in RIKEN PlaSMA
Num Peaks: 8
268.03363	60
269.03299	10
269.04343	9
283.05997	1000
284.06454	155
285.05673	11
285.07434	11
286.07095	11

NAME: Acacetin-7-O-rutinoside
PRECURSORMZ: 637.17740855183
PRECURSORTYPE: [M+FA-H]-
INSTRUMENTTYPE: LC-ESI-QTOF
SMILES: COC1=CC=C(C=C1)C1=CC(=O)C2=C(O)C=C(OC3OC(COC4OC(C)C(O)C(O)C4O)C(O)C(O)C3O)C=C2O1
INCHIKEY: YFVGIJBUXMQFOF-UHFFFAOYNA-N
Ontology: Flavonoid-7-O-glycosides
COLLISIONENERGY: 30
FORMULA: C28H32O14
RETENTIONTIME: 5.199317
IONMODE: Negative
Comment: registered in RIKEN PlaSMA
Num Peaks: 11
166.32524	8
205.06668	7
268.03021	13
268.04938	8
270.03989	7
283.0596	1000
283.09061	14
283.61136	6
284.05078	43
284.06143	178
285.0639	49

NAME: Pelargonidin-3-O-glucoside
PRECURSORMZ: 431.09782181576
PRECURSORTYPE: [M-2H]-
INSTRUMENTTYPE: LC-ESI-QTOF
SMILES: OCC1OC(OC2=CC3=C(O)C=C(O)C=C3[O+]=C2C2=CC=C(O)C=C2)C(O)C(O)C1O
INCHIKEY: ABVCUBUIXWJYSE-UHFFFAOYNA-O
Ontology: Anthocyanidin-3-O-glycosides
COLLISIONENERGY: 50
FORMULA: C21H21O10
RETENTIONTIME: 3.114167
IONMODE: Negative
Comment: registered in RIKEN PlaSMA
Num Peaks: 50
64.56844	143
92.0228	244
93.02889	84
107.01185	134
119.01131	580
119.01767	252
120.01365	88
120.02029	147
130.04427	84
132.01604	181
141.0327	109
142.04155	105
143.04195	164
143.05095	181
144.05043	109
147.00804	223
148.00621	168
148.01637	861
149.01613	76
149.02682	80
154.0414	168
158.03252	235
167.03706	130
167.04883	664
171.04213	239
174.05803	80
180.05513	277
183.03822	181
183.0463	277
184.05341	113
185.05217	80
195.0442	1000
196.04555	130
196.05179	357
197.017	88
199.02963	130
199.03848	294
200.0387	88
200.04558	105
206.72954	76
211.03737	588
212.03726	126
212.0464	235
213.05014	113
223.16777	147
225.04408	151
238.02403	84
239.03534	492
240.04216	181
268.02737	84

NAME: Peonidin-3-O-glucoside
PRECURSORMZ: 461.10838651576
PRECURSORTYPE: [M-2H]-
INSTRUMENTTYPE: LC-ESI-QTOF
SMILES: COC1=C(O)C=CC(=C1)C1=C(OC2OC(CO)C(O)C(O)C2O)C=C2C(O)=CC(O)=CC2=[O+]1
INCHIKEY: ZZWPMFROUHHAKY-UHFFFAOYNA-O
Ontology: Anthocyanidin-3-O-glycosides
COLLISIONENERGY: 50
FORMULA: C22H23O11
RETENTIONTIME: 3.20225
IONMODE: Negative
Comment: registered in RIKEN PlaSMA
Num Peaks: 48
75.02168	40
109.03023	38
120.01554	49
127.04996	56
135.00536	40
137.02351	43
139.05328	94
143.04962	40
147.00999	38
148.0173	89
157.06445	41
160.04955	56
167.05066	56
167.0562	40
170.03468	34
171.04796	47
172.06989	45
183.04553	250
183.09547	100
184.00565	34
184.05066	38
185.02377	215
187.03831	40
195.04211	43
195.48233	34
196.04552	40
199.04271	273
200.03978	56
203.03511	41
210.02904	45
210.07164	47
211.0388	414
212.03754	55
212.04805	45
213.02298	62
227.03009	1000
228.03789	121
237.01477	53
238.02319	38
239.02896	77
240.03235	36
255.02751	377
256.03662	113
266.01529	53
267.03055	68
280.51581	41
283.0257	41
284.02591	36

NAME: (+)-Epicatechin
PRECURSORMZ: 289.07176174783
PRECURSORTYPE: [M-H]-
INSTRUMENTTYPE: LC-ESI-QTOF
SMILES: OC1CC2=C(O)C=C(O)C=C2OC1C1=CC(O)=C(O)C=C1
INCHIKEY: PFTAWBLQPZVEMU-UHFFFAOYNA-N
Ontology: Catechins
COLLISIONENERGY: 50
FORMULA: C15H14O6
RETENTIONTIME: 3.43465
IONMODE: Negative
Comment: registered in RIKEN PlaSMA
Num Peaks: 23
67.01865	157
83.04784	198
91.01804	182
94.03542	165
95.01418	231
96.01409	198
96.26268	149
96.52917	190
105.03417	174
105.07056	273
108.01917	149
109.03009	1000
110.02964	174
121.03054	405
122.03356	231
122.03853	264
123.0433	992
130.04729	273
132.01997	231
137.02321	256
159.04649	570
160.04205	198
162.0267	207

NAME: Diosmetin-7-O-neohesperidoside
PRECURSORMZ: 607.16684384783
PRECURSORTYPE: [M-H]-
INSTRUMENTTYPE: LC-ESI-QTOF
SMILES: COC1=C(O)C=C(C=C1)C1=CC(=O)C2=C(O)C=C(OC3OC(CO)C(O)C(O)C3OC3OC(C)C(O)C(O)C3O)C=C2O1
INCHIKEY: VCCNKWWXYVWTLT-UHFFFAOYNA-N
Ontology: Flavonoid-7-O-glycosides
COLLISIONENERGY: 50
FORMULA: C28H32O15
RETENTIONTIME: 4.48045
IONMODE: Negative
Comment: registered in RIKEN PlaSMA
Num Peaks: 11
134.04099	10
227.03159	22
255.03035	7
256.03754	33
256.0477	6
284.03027	1000
285.03442	230
286.03018	30
299.05353	76
300.05078	11
300.06497	7

NAME: Daidzein
PRECURSORMZ: 253.05063234783
PRECURSORTYPE: [M-H]-
INSTRUMENTTYPE: LC-ESI-QTOF
SMILES: OC1=CC=C(C=C1)C1=COC2=C(C=CC(O)=C2)C1=O
INCHIKEY: ZQSIJRDFPHDXIC-UHFFFAOYSA-N
Ontology: Isoflavones
COLLISIONENERGY: 50
FORMULA: C15H10O4
RETENTIONTIME: 5.161233
IONMODE: Negative
Comment: registered in RIKEN PlaSMA
Num Peaks: 22
76.03456	50
79.02094	69
91.01579	328
92.02567	45
104.02572	261
105.03088	72
116.02493	127
117.02879	50
132.01941	1000
133.02556	109
135.00294	52
152.06311	65
167.03972	47
167.04782	196
168.05238	57
180.05801	233
195.04626	330
196.05331	79
204.41325	62
208.04062	74
223.03894	159
224.05002	77

NAME: Acacetin-7-O-rutinoside
PRECURSORMZ: 591.17192924783
PRECURSORTYPE: [M-H]-
INSTRUMENTTYPE: LC-ESI-QTOF
SMILES: COC1=CC=C(C=C1)C1=CC(=O)C2=C(O)C=C(OC3OC(COC4OC(C)C(O)C(O)C4O)C(O)C(O)C3O)C=C2O1
INCHIKEY: YFVGIJBUXMQFOF-UHFFFAOYNA-N
Ontology: Flavonoid-7-O-glycosides
COLLISIONENERGY: 50
FORMULA: C28H32O14
RETENTIONTIME: 5.199317
IONMODE: Negative
Comment: registered in RIKEN PlaSMA
Num Peaks: 22
83.00793	6
107.01088	8
123.00391	10
152.00928	6
196.05525	8
225.0536	6
239.03764	15
240.03123	6
240.0434	13
240.36891	6
252.0343	7
255.03117	6
267.03024	12
268.03635	1000
269.0361	143
270.0423	36
270.05603	7
283.0322	10
283.05966	177
284.05963	28
285.06525	10
296.86917	6

NAME: Pelargonidin-3-O-glucoside
PRECURSORMZ: 431.09782181576
PRECURSORTYPE: [M-2H]-
INSTRUMENTTYPE: LC-ESI-QTOF
SMILES: OCC1OC(OC2=CC3=C(O)C=C(O)C=C3[O+]=C2C2=CC=C(O)C=C2)C(O)C(O)C1O
INCHIKEY: ABVCUBUIXWJYSE-UHFFFAOYNA-O
Ontology: Anthocyanidin-3-O-glycosides
COLLISIONENERGY: 10
FORMULA: C21H21O10
RETENTIONTIME: 3.114167
IONMODE: Negative
Comment: registered in RIKEN PlaSMA
Num Peaks: 40
93.02853	13
117.03811	10
147.0085	72
148.01376	39
149.02814	28
155.0488	10
161.0206	18
171.04047	10
173.05544	11
184.05092	9
196.04927	43
197.06186	9
198.02925	9
198.04414	19
198.0547	16
198.06834	11
199.03683	11
202.05562	10
211.04131	14
212.03793	14
213.04564	9
217.01868	9
223.04539	26
224.036	9
224.04948	33
225.04851	18
225.06078	20
239.03941	43
240.0365	30
240.04637	12
241.04382	26
241.0603	10
242.06261	18
268.0369	659
269.04407	1000
270.03989	67
270.05072	218
271.0481	9
311.04919	22
431.09903	193

NAME: Peonidin-3-O-glucoside
PRECURSORMZ: 461.10838651576
PRECURSORTYPE: [M-2H]-
INSTRUMENTTYPE: LC-ESI-QTOF
SMILES: COC1=C(O)C=CC(=C1)C1=C(OC2OC(CO)C(O)C(O)C2O)C=C2C(O)=CC(O)=CC2=[O+]1
INCHIKEY: ZZWPMFROUHHAKY-UHFFFAOYNA-O
Ontology: Anthocyanidin-3-O-glycosides
COLLISIONENERGY: 10
FORMULA: C22H23O11
RETENTIONTIME: 3.20225
IONMODE: Negative
Comment: registered in RIKEN PlaSMA
Num Peaks: 44
147.00868	51
148.01709	21
182.03358	12
184.04811	32
196.05054	15
199.03477	15
213.05679	11
216.0415	21
227.02975	42
228.03703	29
229.03839	20
232.33319	13
239.04028	16
240.03294	12
242.02893	13
252.04251	11
255.02719	79
255.06183	14
256.02283	28
257.04163	14
265.01364	12
269.04037	14
271.06665	18
281.01364	12
282.05151	15
283.01929	281
284.0123	14
284.03058	73
284.03976	39
298.04526	269
298.06467	31
299.05197	1000
299.93411	12
300.05627	153
300.07101	29
301.05988	28
301.07016	27
302.06445	12
302.64865	17
313.05789	25
313.07159	24
429.08545	11
461.10391	192
461.11966	79

NAME: (+)-Epicatechin
PRECURSORMZ: 289.07176174783
PRECURSORTYPE: [M-H]-
INSTRUMENTTYPE: LC-ESI-QTOF
SMILES: OC1CC2=C(O)C=C(O)C=C2OC1C1=CC(O)=C(O)C=C1
INCHIKEY: PFTAWBLQPZVEMU-UHFFFAOYNA-N
Ontology: Catechins
COLLISIONENERGY: 10
FORMULA: C15H14O6
RETENTIONTIME: 3.43465
IONMODE: Negative
Comment: registered in RIKEN PlaSMA
Num Peaks: 126
58.73882	10
81.03802	8
88.56299	8
90.62775	9
93.03345	18
93.03804	10
95.04985	31
96.01802	10
96.04781	12
96.05453	18
97.02631	18
98.0293	11
98.03983	13
99.04341	10
99.04871	12
105.03269	17
108.02195	11
109.02692	292
111.02795	12
111.04399	30
121.02187	16
121.03045	72
122.03738	22
122.0447	18
123.04292	291
124.01728	14
124.04654	41
125.02189	239
126.02509	54
127.02355	8
127.03271	12
128.05568	9
129.02936	8
131.04626	17
133.0611	8
134.02937	8
135.04132	14
135.05069	44
136.58589	12
137.02515	155
138.02287	12
139.03426	12
139.04231	27
143.04674	8
144.05104	8
145.02878	41
146.01462	10
146.03532	20
147.04137	9
149.02046	63
149.05844	10
150.02647	25
150.03374	22
151.03365	72
151.04222	142
152.0392	21
153.04803	12
154.47493	15
159.04767	45
160.05141	98
161.0153	16
161.02341	22
161.06094	128
162.021	7
162.03456	25
162.07158	17
163.03804	28
164.01064	55
165.01613	27
166.02084	10
167.03357	45
172.84044	9
173.06047	21
174.03932	15
175.03784	20
175.04538	18
175.07703	8
176.03673	17
176.08063	9
177.01913	22
177.02533	10
177.08875	10
179.03317	178
180.03548	16
180.04301	23
180.07393	11
180.14351	8
181.04095	15
183.03816	12
185.05849	18
187.03751	116
188.04286	77
189.05066	14
199.07393	20
201.04242	15
202.05807	48
202.06436	30
203.06915	296
204.05742	12
204.07199	56
204.08183	14
205.04887	237
205.07935	15
206.05301	8
206.60074	8
211.03639	10
212.05568	15
219.06859	17
221.07053	28
221.08961	12
222.0836	9
227.06592	72
227.07756	20
230.04863	19
231.03766	13
242.05319	11
244.07384	9
245.08023	512
246.08102	51
246.0921	55
247.0813	11
271.06009	29
279.11993	10
285.03506	10
289.06808	1000
289.099	11

NAME: Diosmetin-7-O-neohesperidoside
PRECURSORMZ: 607.16684384783
PRECURSORTYPE: [M-H]-
INSTRUMENTTYPE: LC-ESI-QTOF
SMILES: COC1=C(O)C=C(C=C1)C1=CC(=O)C2=C(O)C=C(OC3OC(CO)C(O)C(O)C3OC3OC(C)C(O)C(O)C3O)C=C2O1
INCHIKEY: VCCNKWWXYVWTLT-UHFFFAOYNA-N
Ontology: Flavonoid-7-O-glycosides
COLLISIONENERGY: 10
FORMULA: C28H32O15
RETENTIONTIME: 4.48045
IONMODE: Negative
Comment: registered in RIKEN PlaSMA
Num Peaks: 13
284.03329	311
285.03574	63
286.03851	6
297.04599	8
299.05374	1000
300.05927	144
301.05762	41
341.05618	7
341.07629	5
487.12869	11
607.16565	797
607.22229	6
607.25562	6

NAME: Daidzein
PRECURSORMZ: 253.05063234783
PRECURSORTYPE: [M-H]-
INSTRUMENTTYPE: LC-ESI-QTOF
SMILES: OC1=CC=C(C=C1)C1=COC2=C(C=CC(O)=C2)C1=O
INCHIKEY: ZQSIJRDFPHDXIC-UHFFFAOYSA-N
Ontology: Isoflavones
COLLISIONENERGY: 10
FORMULA: C15H10O4
RETENTIONTIME: 5.161233
IONMODE: Negative
Comment: registered in RIKEN PlaSMA
Num Peaks: 23
91.0172	18
132.02051	24
133.02715	39
134.0278	8
135.00348	8
135.00871	22
167.04916	5
169.06503	9
179.05061	6
180.05544	11
181.06723	7
182.03133	6
195.04414	16
196.05136	13
197.05771	15
208.05132	33
209.05707	33
223.04144	25
224.04596	49
225.05174	33
252.04228	7
253.04878	1000
253.09273	8

NAME: Acacetin-7-O-rutinoside
PRECURSORMZ: 591.17192924783
PRECURSORTYPE: [M-H]-
INSTRUMENTTYPE: LC-ESI-QTOF
SMILES: COC1=CC=C(C=C1)C1=CC(=O)C2=C(O)C=C(OC3OC(COC4OC(C)C(O)C(O)C4O)C(O)C(O)C3O)C=C2O1
INCHIKEY: YFVGIJBUXMQFOF-UHFFFAOYNA-N
Ontology: Flavonoid-7-O-glycosides
COLLISIONENERGY: 10
FORMULA: C28H32O14
RETENTIONTIME: 5.199317
IONMODE: Negative
Comment: registered in RIKEN PlaSMA
Num Peaks: 10
268.02753	28
268.03629	96
269.04037	29
283.00171	6
283.06122	1000
284.04492	7
284.06396	179
285.06302	40
290.06076	6
591.17242	34

NAME: Acacetin-7-O-rutinoside
PRECURSORMZ: 637.17740855183
PRECURSORTYPE: [M+FA-H]-
INSTRUMENTTYPE: LC-ESI-QTOF
SMILES: COC1=CC=C(C=C1)C1=CC(=O)C2=C(O)C=C(OC3OC(COC4OC(C)C(O)C(O)C4O)C(O)C(O)C3O)C=C2O1
INCHIKEY: YFVGIJBUXMQFOF-UHFFFAOYNA-N
Ontology: Flavonoid-7-O-glycosides
COLLISIONENERGY: 10
FORMULA: C28H32O14
RETENTIONTIME: 5.199317
IONMODE: Negative
Comment: registered in RIKEN PlaSMA
Num Peaks: 19
85.72795	5
101.01861	7
268.03592	51
269.0307	7
269.0412	7
269.0546	7
270.04327	6
282.03528	6
283.05988	1000
283.08905	6
284.06503	148
285.05838	6
285.07877	9
591.14008	10
591.17273	176
591.22839	6
592.17535	61
637.17078	34
637.19202	24

NAME: Pelargonidin-3-O-glucoside
PRECURSORMZ: 431.09782181576
PRECURSORTYPE: [M-2H]-
INSTRUMENTTYPE: LC-ESI-QTOF
SMILES: OCC1OC(OC2=CC3=C(O)C=C(O)C=C3[O+]=C2C2=CC=C(O)C=C2)C(O)C(O)C1O
INCHIKEY: ABVCUBUIXWJYSE-UHFFFAOYNA-O
Ontology: Anthocyanidin-3-O-glycosides
COLLISIONENERGY: 10
FORMULA: C21H21O10
RETENTIONTIME: 3.114167
IONMODE: Negative
Comment: registered in RIKEN PlaSMA
Num Peaks: 17
50.871	8
202.78595	7
243.06079	6
265.26334	10
268.02615	18
268.04053	78
269.04449	850
270.04855	204
272.13715	6
273.03748	7
283.06961	7
285.05203	7
311.04218	9
336.0679	8
348.46799	8
358.64328	7
431.09708	1000

NAME: Peonidin-3-O-glucoside
PRECURSORMZ: 461.10838651576
PRECURSORTYPE: [M-2H]-
INSTRUMENTTYPE: LC-ESI-QTOF
SMILES: COC1=C(O)C=CC(=C1)C1=C(OC2OC(CO)C(O)C(O)C2O)C=C2C(O)=CC(O)=CC2=[O+]1
INCHIKEY: ZZWPMFROUHHAKY-UHFFFAOYNA-O
Ontology: Anthocyanidin-3-O-glycosides
COLLISIONENERGY: 10
FORMULA: C22H23O11
RETENTIONTIME: 3.20225
IONMODE: Negative
Comment: registered in RIKEN PlaSMA
Num Peaks: 23
117.47831	8
136.14488	8
165.02203	9
220.01747	13
229.0513	8
229.84882	11
271.05804	8
282.26288	15
285.04703	8
286.05722	15
293.93048	8
298.03976	33
298.0527	40
299.05463	1000
299.08344	8
300.01025	10
300.05759	146
300.07269	39
301.06277	35
301.07751	8
315.07666	14
427.56122	17
461.10834	600

NAME: (+)-Epicatechin
PRECURSORMZ: 289.07176174783
PRECURSORTYPE: [M-H]-
INSTRUMENTTYPE: LC-ESI-QTOF
SMILES: OC1CC2=C(O)C=C(O)C=C2OC1C1=CC(O)=C(O)C=C1
INCHIKEY: PFTAWBLQPZVEMU-UHFFFAOYNA-N
Ontology: Catechins
COLLISIONENERGY: 10
FORMULA: C15H14O6
RETENTIONTIME: 3.43465
IONMODE: Negative
Comment: registered in RIKEN PlaSMA
Num Peaks: 31
109.02798	46
123.04337	9
125.02196	32
137.02261	23
138.02901	7
139.04391	8
149.02515	11
151.03662	25
161.05562	13
161.06371	6
164.00685	7
165.0183	27
175.04045	6
179.03297	82
180.04024	11
187.03876	12
188.03802	9
202.0679	6
203.07086	74
204.07176	13
205.05013	88
206.0545	18
217.04883	13
227.06905	20
231.03349	8
245.07983	295
246.08269	29
247.06097	12
259.05875	6
271.06509	9
289.0701	1000

NAME: Diosmetin-7-O-neohesperidoside
PRECURSORMZ: 607.16684384783
PRECURSORTYPE: [M-H]-
INSTRUMENTTYPE: LC-ESI-QTOF
SMILES: COC1=C(O)C=C(C=C1)C1=CC(=O)C2=C(O)C=C(OC3OC(CO)C(O)C(O)C3OC3OC(C)C(O)C(O)C3O)C=C2O1
INCHIKEY: VCCNKWWXYVWTLT-UHFFFAOYNA-N
Ontology: Flavonoid-7-O-glycosides
COLLISIONENERGY: 10
FORMULA: C28H32O15
RETENTIONTIME: 4.48045
IONMODE: Negative
Comment: registered in RIKEN PlaSMA
Num Peaks: 3
299.05612	65
607.16492	1000
607.20764	9

NAME: Daidzein
PRECURSORMZ: 253.05063234783
PRECURSORTYPE: [M-H]-
INSTRUMENTTYPE: LC-ESI-QTOF
SMILES: OC1=CC=C(C=C1)C1=COC2=C(C=CC(O)=C2)C1=O
INCHIKEY: ZQSIJRDFPHDXIC-UHFFFAOYSA-N
Ontology: Isoflavones
COLLISIONENERGY: 10
FORMULA: C15H10O4
RETENTIONTIME: 5.161233
IONMODE: Negative
Comment: registered in RIKEN PlaSMA
Num Peaks: 2
253.04912	1000
253.09412	17

NAME: Acacetin-7-O-rutinoside
PRECURSORMZ: 591.17192924783
PRECURSORTYPE: [M-H]-
INSTRUMENTTYPE: LC-ESI-QTOF
SMILES: COC1=CC=C(C=C1)C1=CC(=O)C2=C(O)C=C(OC3OC(COC4OC(C)C(O)C(O)C4O)C(O)C(O)C3O)C=C2O1
INCHIKEY: YFVGIJBUXMQFOF-UHFFFAOYNA-N
Ontology: Flavonoid-7-O-glycosides
COLLISIONENERGY: 10
FORMULA: C28H32O14
RETENTIONTIME: 5.199317
IONMODE: Negative
Comment: registered in RIKEN PlaSMA
Num Peaks: 11
137.56087	5
219.62985	5
249.82704	5
283.05893	1000
283.1033	6
284.05438	76
284.0643	181
285.05722	17
285.07474	30
360.78531	5
591.17078	93

NAME: Pelargonidin-3-O-glucoside
PRECURSORMZ: 431.09782181576
PRECURSORTYPE: [M-2H]-
INSTRUMENTTYPE: LC-ESI-QTOF
SMILES: OCC1OC(OC2=CC3=C(O)C=C(O)C=C3[O+]=C2C2=CC=C(O)C=C2)C(O)C(O)C1O
INCHIKEY: ABVCUBUIXWJYSE-UHFFFAOYNA-O
Ontology: Anthocyanidin-3-O-glycosides
COLLISIONENERGY: 30
FORMULA: C21H21O10
RETENTIONTIME: 3.114167
IONMODE: Negative
Comment: registered in RIKEN PlaSMA
Num Peaks: 57
83.01308	13
91.00031	18
105.02634	19
121.02172	22
137.65166	13
147.00742	373
148.00464	25
148.01447	126
149.02252	48
158.03346	13
164.00868	12
169.06053	19
171.04018	13
173.05769	18
177.00859	14
179.04567	15
180.05679	19
182.03638	18
183.0486	13
188.03754	23
195.04755	84
196.04295	15
196.05531	30
197.01216	13
197.05389	18
197.05989	51
199.03317	34
200.04407	34
201.05276	21
207.04453	21
212.04372	34
213.05359	53
214.53485	14
223.03976	14
224.04585	326
225.05443	135
226.01962	32
226.05321	13
226.06583	17
227.02715	67
229.04584	18
239.01778	15
239.04044	15
240.04178	65
240.05133	46
241.04556	104
241.05396	190
242.05789	19
251.06892	18
267.0303	50
267.04422	18
268.03558	1000
269.04324	380
269.05145	160
270.04291	103
272.76794	13
278.0144	19

NAME: Peonidin-3-O-glucoside
PRECURSORMZ: 461.10838651576
PRECURSORTYPE: [M-2H]-
INSTRUMENTTYPE: LC-ESI-QTOF
SMILES: COC1=C(O)C=CC(=C1)C1=C(OC2OC(CO)C(O)C(O)C2O)C=C2C(O)=CC(O)=CC2=[O+]1
INCHIKEY: ZZWPMFROUHHAKY-UHFFFAOYNA-O
Ontology: Anthocyanidin-3-O-glycosides
COLLISIONENERGY: 30
FORMULA: C22H23O11
RETENTIONTIME: 3.20225
IONMODE: Negative
Comment: registered in RIKEN PlaSMA
Num Peaks: 45
119.01118	19
119.01597	19
147.00523	65
165.05679	34
166.37425	28
176.0089	17
177.01468	24
184.05154	26
187.03142	46
211.03209	19
211.04538	49
212.04216	40
222.02478	28
223.04562	38
227.05481	17
228.03824	23
239.02522	16
239.03702	80
240.03809	98
240.04901	27
241.04118	19
251.28055	27
254.06453	24
255.01582	24
255.03554	129
255.07159	19
256.02972	84
257.04321	23
270.04865	20
271.05396	27
282.04694	17
282.94977	21
283.02219	1000
284.0303	439
285.03656	88
286.71686	17
294.35583	20
297.04892	20
298.03217	89
298.04492	289
298.05563	116
299.04767	328
299.06348	113
300.06726	56
301.05319	65

NAME: (+)-Epicatechin
PRECURSORMZ: 289.07176174783
PRECURSORTYPE: [M-H]-
INSTRUMENTTYPE: LC-ESI-QTOF
SMILES: OC1CC2=C(O)C=C(O)C=C2OC1C1=CC(O)=C(O)C=C1
INCHIKEY: PFTAWBLQPZVEMU-UHFFFAOYNA-N
Ontology: Catechins
COLLISIONENERGY: 30
FORMULA: C15H14O6
RETENTIONTIME: 3.43465
IONMODE: Negative
Comment: registered in RIKEN PlaSMA
Num Peaks: 123
50.12445	18
57.03563	25
79.05438	24
81.0311	107
83.01291	91
89.25744	21
91.05516	32
93.0339	68
95.00671	27
95.05131	99
97.02549	121
97.03268	40
98.03249	32
99.04337	61
105.03206	21
108.02413	22
108.05019	18
109.02798	1000
110.0302	22
110.03675	26
117.02969	48
117.03656	52
117.07013	25
120.54029	22
121.02801	388
122.0347	156
122.04263	48
123.00607	120
123.04009	579
123.04633	540
124.04695	117
124.06033	22
125.02274	381
126.02638	37
127.02554	40
129.02611	52
129.03262	33
129.06284	20
131.0526	21
132.04694	24
133.02838	83
133.06534	23
134.03152	32
135.00537	19
135.04379	66
136.01279	26
136.04744	28
137.02315	283
139.03476	46
139.04156	20
139.95033	30
140.02841	23
144.05252	65
145.02368	25
145.03075	40
145.06064	21
146.03345	161
147.04048	98
147.08206	24
148.0136	53
148.09918	18
149.02037	212
149.05714	20
150.03142	167
151.03563	231
151.04684	46
152.04727	39
157.03664	39
157.06726	38
157.28607	18
158.03635	42
158.04832	20
159.04192	261
159.08578	32
160.04851	105
161.02205	30
161.06148	197
162.03366	82
163.03751	25
164.00356	72
164.0128	138
165.00813	18
165.01755	77
166.02411	26
166.02991	22
172.05035	40
173.06073	103
174.02483	20
174.0383	32
174.0612	27
174.07117	47
175.02733	21
175.03764	38
175.04903	27
175.07133	17
175.0787	22
177.04463	18
179.03346	19
181.06732	24
184.05019	18
185.05763	67
185.06482	73
186.05951	24
186.06813	44
187.03841	147
188.04636	76
188.05397	66
191.03323	21
199.06497	25
199.08427	18
201.05777	109
202.05559	21
203.03217	29
203.06599	116
203.0777	60
205.04898	18
221.07164	18
221.08299	23
225.05797	32
227.06238	34
227.06969	19
230.04512	20
241.06052	26

NAME: Diosmetin-7-O-neohesperidoside
PRECURSORMZ: 607.16684384783
PRECURSORTYPE: [M-H]-
INSTRUMENTTYPE: LC-ESI-QTOF
SMILES: COC1=C(O)C=C(C=C1)C1=CC(=O)C2=C(O)C=C(OC3OC(CO)C(O)C(O)C3OC3OC(C)C(O)C(O)C3O)C=C2O1
INCHIKEY: VCCNKWWXYVWTLT-UHFFFAOYNA-N
Ontology: Flavonoid-7-O-glycosides
COLLISIONENERGY: 30
FORMULA: C28H32O15
RETENTIONTIME: 4.48045
IONMODE: Negative
Comment: registered in RIKEN PlaSMA
Num Peaks: 9
284.03226	256
285.02698	17
285.03882	18
299.05438	1000
300.0582	180
301.05811	30
313.07333	11
341.06207	10
607.16479	16

NAME: Daidzein
PRECURSORMZ: 253.05063234783
PRECURSORTYPE: [M-H]-
INSTRUMENTTYPE: LC-ESI-QTOF
SMILES: OC1=CC=C(C=C1)C1=COC2=C(C=CC(O)=C2)C1=O
INCHIKEY: ZQSIJRDFPHDXIC-UHFFFAOYSA-N
Ontology: Isoflavones
COLLISIONENERGY: 30
FORMULA: C15H10O4
RETENTIONTIME: 5.161233
IONMODE: Negative
Comment: registered in RIKEN PlaSMA
Num Peaks: 123
63.02072	7
65.00047	8
77.04465	10
89.03674	60
90.0398	7
91.01765	473
92.02033	42
93.0337	16
101.03782	7
103.01632	29
104.02439	65
104.05893	9
105.03059	17
115.06284	8
116.02496	29
116.99997	12
117.03278	100
119.00999	11
120.05499	8
121.02694	10
127.04809	11
127.05555	7
128.05379	7
129.0345	8
131.05545	7
132.02017	572
132.05649	8
133.02829	554
134.03212	57
135.00778	336
136.00342	16
136.01111	77
139.43208	8
141.02806	18
141.03722	12
141.06976	14
142.06772	18
143.04131	10
144.0215	13
144.0473	7
151.05081	19
151.05797	18
152.06299	41
153.07201	17
154.03969	48
154.05139	9
155.04605	47
155.05435	25
156.06303	8
158.02605	10
158.03386	7
159.03897	29
160.00992	8
161.01729	29
166.05173	8
167.05113	113
167.06203	18
168.05692	79
168.16924	7
169.06625	139
170.03484	10
170.06476	10
170.58665	8
171.04358	36
179.04277	16
179.05197	17
180.0562	441
181.05577	35
181.06252	91
181.07324	7
182.03395	53
182.06482	25
182.94743	8
183.03267	24
183.03925	38
183.04785	48
183.20865	7
184.03429	8
184.04068	7
184.05939	12
185.05632	15
186.05832	11
194.04178	9
195.0423	356
195.05011	144
196.04987	390
197.05939	200
197.16234	10
198.02881	9
198.0565	35
198.0721	7
204.88481	7
207.05304	21
208.05145	1000
208.1218	9
209.05751	378
210.02516	17
210.03497	56
210.05951	23
211.02794	7
211.03883	25
213.37747	9
217.5132	10
221.59843	16
223.03883	830
223.68724	7
224.04506	697
224.06558	8
225.02087	8
225.05057	301
225.06531	15
225.35812	9
226.01683	9
226.02756	21
226.05273	48
226.06319	9
227.03406	24
251.01857	13
251.0323	88
252.02211	8
252.04027	120
253.04002	139
253.04964	494

NAME: Acacetin-7-O-rutinoside
PRECURSORMZ: 591.17192924783
PRECURSORTYPE: [M-H]-
INSTRUMENTTYPE: LC-ESI-QTOF
SMILES: COC1=CC=C(C=C1)C1=CC(=O)C2=C(O)C=C(OC3OC(COC4OC(C)C(O)C(O)C4O)C(O)C(O)C3O)C=C2O1
INCHIKEY: YFVGIJBUXMQFOF-UHFFFAOYNA-N
Ontology: Flavonoid-7-O-glycosides
COLLISIONENERGY: 30
FORMULA: C28H32O14
RETENTIONTIME: 5.199317
IONMODE: Negative
Comment: registered in RIKEN PlaSMA
Num Peaks: 12
87.04527	10
268.03647	174
269.03796	15
269.05524	7
283.02597	6
283.06033	1000
284.06445	204
285.05988	12
285.07175	7
286.07169	8
461.99405	8
582.56567	6

NAME: Acacetin-7-O-rutinoside
PRECURSORMZ: 637.17740855183
PRECURSORTYPE: [M+FA-H]-
INSTRUMENTTYPE: LC-ESI-QTOF
SMILES: COC1=CC=C(C=C1)C1=CC(=O)C2=C(O)C=C(OC3OC(COC4OC(C)C(O)C(O)C4O)C(O)C(O)C3O)C=C2O1
INCHIKEY: YFVGIJBUXMQFOF-UHFFFAOYNA-N
Ontology: Flavonoid-7-O-glycosides
COLLISIONENERGY: 30
FORMULA: C28H32O14
RETENTIONTIME: 5.199317
IONMODE: Negative
Comment: registered in RIKEN PlaSMA
Num Peaks: 11
119.02874	12
267.06183	6
268.03033	7
271.01968	6
280.11234	6
283.05957	1000
284.0462	6
284.06689	146
285.06302	32
286.07715	8
287.01636	6

NAME: Pelargonidin-3-O-glucoside
PRECURSORMZ: 431.09782181576
PRECURSORTYPE: [M-2H]-
INSTRUMENTTYPE: LC-ESI-QTOF
SMILES: OCC1OC(OC2=CC3=C(O)C=C(O)C=C3[O+]=C2C2=CC=C(O)C=C2)C(O)C(O)C1O
INCHIKEY: ABVCUBUIXWJYSE-UHFFFAOYNA-O
Ontology: Anthocyanidin-3-O-glycosides
COLLISIONENERGY: 50
FORMULA: C21H21O10
RETENTIONTIME: 3.114167
IONMODE: Negative
Comment: registered in RIKEN PlaSMA
Num Peaks: 50
93.03184	108
116.02232	103
119.01359	119
119.04674	276
120.01595	389
120.024	135
121.0239	151
121.03577	97
143.03937	97
147.00758	114
148.01196	178
148.01823	124
155.04013	108
157.06674	286
158.03841	151
167.04694	686
168.0519	114
169.06145	416
171.03745	189
172.04468	173
172.05316	114
179.04346	141
180.05598	124
181.03578	178
182.04372	195
183.04227	314
184.05058	151
187.07501	108
195.04297	1000
196.0499	730
197.06226	157
198.06252	103
199.03781	541
200.0451	189
208.7597	103
210.03151	146
211.03333	389
211.03973	962
212.04027	238
212.05202	108
213.05518	119
223.03755	232
224.03745	114
224.04562	86
239.02176	92
239.03394	541
239.04877	114
240.03481	151
240.04346	454
252.04521	157

NAME: Peonidin-3-O-glucoside
PRECURSORMZ: 461.10838651576
PRECURSORTYPE: [M-2H]-
INSTRUMENTTYPE: LC-ESI-QTOF
SMILES: COC1=C(O)C=CC(=C1)C1=C(OC2OC(CO)C(O)C(O)C2O)C=C2C(O)=CC(O)=CC2=[O+]1
INCHIKEY: ZZWPMFROUHHAKY-UHFFFAOYNA-O
Ontology: Anthocyanidin-3-O-glycosides
COLLISIONENERGY: 50
FORMULA: C22H23O11
RETENTIONTIME: 3.20225
IONMODE: Negative
Comment: registered in RIKEN PlaSMA
Num Peaks: 45
108.47986	54
127.04981	54
155.04732	194
155.05612	84
157.02672	92
159.04294	77
160.04625	46
167.04057	51
167.05237	164
167.05806	95
168.05577	72
171.04329	51
182.03294	49
183.0415	384
184.04308	128
185.01723	51
187.0314	51
197.02086	51
198.0269	66
199.03075	159
201.01248	82
201.01965	49
210.02771	130
211.03944	652
212.01457	72
213.02002	133
214.02184	51
214.03114	61
226.02237	128
227.03607	1000
227.8598	51
228.02495	51
228.79309	51
229.02863	59
239.02391	49
240.02466	46
255.02846	967
256.03723	169
264.02414	46
265.02066	64
266.03058	54
267.03391	56
283.02444	215
284.0387	130
286.48911	46

NAME: (+)-Epicatechin
PRECURSORMZ: 289.07176174783
PRECURSORTYPE: [M-H]-
INSTRUMENTTYPE: LC-ESI-QTOF
SMILES: OC1CC2=C(O)C=C(O)C=C2OC1C1=CC(O)=C(O)C=C1
INCHIKEY: PFTAWBLQPZVEMU-UHFFFAOYNA-N
Ontology: Catechins
COLLISIONENERGY: 50
FORMULA: C15H14O6
RETENTIONTIME: 3.43465
IONMODE: Negative
Comment: registered in RIKEN PlaSMA
Num Peaks: 25
96.027	324
101.03378	265
103.05247	284
105.03141	529
109.02564	1000
117.0289	216
121.0285	735
122.03214	196
122.03982	412
123.03353	225
123.04431	794
125.02019	275
129.02652	196
133.03395	353
145.02452	196
146.02853	225
147.0359	333
158.02943	196
158.04015	343
159.04053	441
160.05098	196
163.0076	343
172.05453	294
175.03752	225
186.04582	304

NAME: Diosmetin-7-O-neohesperidoside
PRECURSORMZ: 607.16684384783
PRECURSORTYPE: [M-H]-
INSTRUMENTTYPE: LC-ESI-QTOF
SMILES: COC1=C(O)C=C(C=C1)C1=CC(=O)C2=C(O)C=C(OC3OC(CO)C(O)C(O)C3OC3OC(C)C(O)C(O)C3O)C=C2O1
INCHIKEY: VCCNKWWXYVWTLT-UHFFFAOYNA-N
Ontology: Flavonoid-7-O-glycosides
COLLISIONENERGY: 50
FORMULA: C28H32O15
RETENTIONTIME: 4.48045
IONMODE: Negative
Comment: registered in RIKEN PlaSMA
Num Peaks: 12
151.00121	6
255.02556	11
256.04126	17
283.02716	7
284.03152	1000
285.03296	144
286.02591	8
286.04153	22
299.04727	47
299.05795	55
300.0571	6
301.05594	6

NAME: Daidzein
PRECURSORMZ: 253.05063234783
PRECURSORTYPE: [M-H]-
INSTRUMENTTYPE: LC-ESI-QTOF
SMILES: OC1=CC=C(C=C1)C1=COC2=C(C=CC(O)=C2)C1=O
INCHIKEY: ZQSIJRDFPHDXIC-UHFFFAOYSA-N
Ontology: Isoflavones
COLLISIONENERGY: 50
FORMULA: C15H10O4
RETENTIONTIME: 5.161233
IONMODE: Negative
Comment: registered in RIKEN PlaSMA
Num Peaks: 26
91.01712	245
104.02691	229
104.17718	55
107.01928	71
117.0366	50
130.03983	42
132.01907	1000
133.02347	55
135.01051	107
141.06894	44
145.02885	65
167.05037	159
168.0563	42
169.05904	92
170.0498	55
178.04291	42
179.04921	38
183.05388	48
195.04839	413
196.04448	46
196.05621	46
208.05176	153
223.02809	92
223.03749	115
224.05333	157
253.05505	90

NAME: Acacetin-7-O-rutinoside
PRECURSORMZ: 591.17192924783
PRECURSORTYPE: [M-H]-
INSTRUMENTTYPE: LC-ESI-QTOF
SMILES: COC1=CC=C(C=C1)C1=CC(=O)C2=C(O)C=C(OC3OC(COC4OC(C)C(O)C(O)C4O)C(O)C(O)C3O)C=C2O1
INCHIKEY: YFVGIJBUXMQFOF-UHFFFAOYNA-N
Ontology: Flavonoid-7-O-glycosides
COLLISIONENERGY: 50
FORMULA: C28H32O14
RETENTIONTIME: 5.199317
IONMODE: Negative
Comment: registered in RIKEN PlaSMA
Num Peaks: 26
150.99911	6
171.04773	7
183.0531	7
195.0403	9
198.02689	13
211.04018	6
213.04974	8
238.06921	6
239.03027	6
240.02924	10
240.04213	23
241.04182	6
241.05588	12
253.03419	9
267.02686	6
268.03729	1000
269.03143	88
269.0441	92
270.04105	5
281.04501	5
283.04944	50
283.0625	111
284.05252	8
284.06696	7
285.06	16
542.71533	5

NAME: Acacetin-7-O-rutinoside
PRECURSORMZ: 637.17740855183
PRECURSORTYPE: [M+FA-H]-
INSTRUMENTTYPE: LC-ESI-QTOF
SMILES: COC1=CC=C(C=C1)C1=CC(=O)C2=C(O)C=C(OC3OC(COC4OC(C)C(O)C(O)C4O)C(O)C(O)C3O)C=C2O1
INCHIKEY: YFVGIJBUXMQFOF-UHFFFAOYNA-N
Ontology: Flavonoid-7-O-glycosides
COLLISIONENERGY: 50
FORMULA: C28H32O14
RETENTIONTIME: 5.199317
IONMODE: Negative
Comment: registered in RIKEN PlaSMA
Num Peaks: 16
115.2411	12
120.75166	12
168.06731	14
197.05621	10
268.03528	1000
269.03195	48
269.0433	58
269.0603	11
270.04376	50
279.05524	13
283.05981	588
284.05908	44
284.07233	21
291.90353	14
318.7533	11
433.06158	15

NAME: Pelargonidin-3-O-glucoside
PRECURSORMZ: 431.09782181576
PRECURSORTYPE: [M-2H]-
INSTRUMENTTYPE: LC-ESI-QTOF
SMILES: OCC1OC(OC2=CC3=C(O)C=C(O)C=C3[O+]=C2C2=CC=C(O)C=C2)C(O)C(O)C1O
INCHIKEY: ABVCUBUIXWJYSE-UHFFFAOYNA-O
Ontology: Anthocyanidin-3-O-glycosides
COLLISIONENERGY: 10
FORMULA: C21H21O10
RETENTIONTIME: 3.114167
IONMODE: Negative
Comment: registered in RIKEN PlaSMA
Num Peaks: 53
93.03807	12
101.02512	15
111.00806	9
119.0138	11
121.0267	11
147.00798	70
148.0137	22
149.01642	22
161.02458	12
169.0649	14
172.04306	16
180.05138	10
180.06584	10
181.07281	12
182.03369	10
195.04179	8
196.04533	14
197.05397	48
197.06905	13
198.02629	12
198.03468	10
199.03677	30
209.07175	9
211.03261	38
213.04137	9
213.05031	21
213.05913	8
217.01704	16
223.03439	11
224.04634	71
225.05452	25
239.0327	52
240.04181	42
240.58366	12
241.0381	16
241.05176	72
242.0547	8
251.03505	12
267.0184	11
267.05539	9
268.03656	530
268.06201	9
269.04221	1000
270.04611	182
271.04642	24
271.05688	24
271.06735	12
278.81897	11
284.06119	10
341.06769	22
360.50186	13
431.08884	117
431.10269	190

NAME: Peonidin-3-O-glucoside
PRECURSORMZ: 461.10838651576
PRECURSORTYPE: [M-2H]-
INSTRUMENTTYPE: LC-ESI-QTOF
SMILES: COC1=C(O)C=CC(=C1)C1=C(OC2OC(CO)C(O)C(O)C2O)C=C2C(O)=CC(O)=CC2=[O+]1
INCHIKEY: ZZWPMFROUHHAKY-UHFFFAOYNA-O
Ontology: Anthocyanidin-3-O-glycosides
COLLISIONENERGY: 10
FORMULA: C22H23O11
RETENTIONTIME: 3.20225
IONMODE: Negative
Comment: registered in RIKEN PlaSMA
Num Peaks: 39
155.03882	16
175.00987	14
178.02094	11
182.02254	11
183.04112	34
183.04839	16
186.0321	18
187.04375	12
191.00159	12
200.03439	12
211.03369	21
216.03278	14
227.02965	40
228.03798	35
242.02361	12
248.89418	11
255.01558	28
255.03421	81
255.06102	16
256.0387	27
271.06253	30
282.79764	11
283.02386	193
283.05695	14
284.02731	112
284.03912	41
285.02689	33
285.04095	11
286.0369	36
298.0452	326
299.05579	1000
300.04977	43
300.06329	70
313.06506	44
341.05154	11
400.40073	20
460.90677	14
461.10446	292
461.13956	15

NAME: (+)-Epicatechin
PRECURSORMZ: 289.07176174783
PRECURSORTYPE: [M-H]-
INSTRUMENTTYPE: LC-ESI-QTOF
SMILES: OC1CC2=C(O)C=C(O)C=C2OC1C1=CC(O)=C(O)C=C1
INCHIKEY: PFTAWBLQPZVEMU-UHFFFAOYNA-N
Ontology: Catechins
COLLISIONENERGY: 10
FORMULA: C15H14O6
RETENTIONTIME: 3.43465
IONMODE: Negative
Comment: registered in RIKEN PlaSMA
Num Peaks: 118
68.09118	11
69.0342	16
81.03045	15
81.03629	18
83.01133	19
95.04803	31
96.02171	18
97.02769	62
97.03769	9
98.03179	21
105.02579	18
105.03341	17
107.04573	9
109.02741	237
113.06303	12
119.14948	8
121.02666	81
122.03688	53
123.0406	150
123.04688	100
124.04909	9
125.02152	231
125.34844	9
126.02691	46
129.02948	11
129.0672	10
131.06311	10
133.03267	9
133.06342	13
135.04453	92
137.01631	35
137.02408	180
138.02106	10
138.03436	17
139.03059	12
139.03856	21
143.04248	11
145.0237	26
146.03271	52
147.03729	43
148.01277	11
148.05217	12
149.02176	74
150.02817	18
150.03407	12
151.033	110
151.03891	211
152.04234	35
158.03586	12
159.041	41
159.04874	24
160.05067	11
161.01662	26
161.05762	149
162.02812	23
162.05676	13
162.06325	15
163.03751	50
164.00851	99
164.49304	8
165.017	87
166.01511	25
167.02943	12
168.03891	16
173.05771	19
174.03587	9
175.03835	42
175.07008	50
176.0417	8
176.07379	11
177.01669	15
177.05772	34
179.0323	87
179.04204	17
181.06133	8
183.07999	21
184.04007	11
185.0574	66
186.07117	12
187.03474	103
187.04503	45
188.04265	55
189.02786	10
189.04935	59
190.0518	9
199.07103	10
199.08228	13
200.04634	9
200.0807	11
201.04904	30
201.08551	21
202.06479	14
203.067	374
204.07932	30
205.0479	266
206.05353	41
207.16484	8
211.04008	9
212.17888	9
217.08865	18
221.08	66
222.07651	12
224.05029	16
224.71011	10
226.07542	9
227.06863	50
228.06354	12
230.049	9
231.02138	33
245.07968	557
246.04875	11
246.07965	114
246.09515	30
247.05508	55
271.05508	18
287.04782	12
289.06757	1000
289.09518	9

NAME: Diosmetin-7-O-neohesperidoside
PRECURSORMZ: 607.16684384783
PRECURSORTYPE: [M-H]-
INSTRUMENTTYPE: LC-ESI-QTOF
SMILES: COC1=C(O)C=C(C=C1)C1=CC(=O)C2=C(O)C=C(OC3OC(CO)C(O)C(O)C3OC3OC(C)C(O)C(O)C3O)C=C2O1
INCHIKEY: VCCNKWWXYVWTLT-UHFFFAOYNA-N
Ontology: Flavonoid-7-O-glycosides
COLLISIONENERGY: 10
FORMULA: C28H32O15
RETENTIONTIME: 4.48045
IONMODE: Negative
Comment: registered in RIKEN PlaSMA
Num Peaks: 13
161.05115	6
283.99927	6
284.03421	373
285.03729	51
286.04132	17
296.04712	5
299.05515	1000
300.05911	178
301.05716	11
301.06796	18
341.06241	12
392.05753	6
607.16846	750

NAME: Daidzein
PRECURSORMZ: 253.05063234783
PRECURSORTYPE: [M-H]-
INSTRUMENTTYPE: LC-ESI-QTOF
SMILES: OC1=CC=C(C=C1)C1=COC2=C(C=CC(O)=C2)C1=O
INCHIKEY: ZQSIJRDFPHDXIC-UHFFFAOYSA-N
Ontology: Isoflavones
COLLISIONENERGY: 10
FORMULA: C15H10O4
RETENTIONTIME: 5.161233
IONMODE: Negative
Comment: registered in RIKEN PlaSMA
Num Peaks: 19
91.01656	7
132.02055	22
133.02776	40
135.00705	19
180.05614	21
181.06201	9
182.03481	6
195.04439	17
196.04944	15
197.0542	10
208.05237	38
209.05511	18
209.06363	16
223.03783	41
224.04681	54
225.05313	24
252.0415	12
253.04919	1000
253.09554	12

NAME: Acacetin-7-O-rutinoside
PRECURSORMZ: 591.17192924783
PRECURSORTYPE: [M-H]-
INSTRUMENTTYPE: LC-ESI-QTOF
SMILES: COC1=CC=C(C=C1)C1=CC(=O)C2=C(O)C=C(OC3OC(COC4OC(C)C(O)C(O)C4O)C(O)C(O)C3O)C=C2O1
INCHIKEY: YFVGIJBUXMQFOF-UHFFFAOYNA-N
Ontology: Flavonoid-7-O-glycosides
COLLISIONENERGY: 10
FORMULA: C28H32O14
RETENTIONTIME: 5.199317
IONMODE: Negative
Comment: registered in RIKEN PlaSMA
Num Peaks: 11
149.02277	7
151.03743	13
175.07941	7
268.03842	123
269.04648	22
283.06049	1000
284.0658	214
285.0697	50
405.28156	7
591.16565	15
591.18488	15

NAME: Acacetin-7-O-rutinoside
PRECURSORMZ: 637.17740855183
PRECURSORTYPE: [M+FA-H]-
INSTRUMENTTYPE: LC-ESI-QTOF
SMILES: COC1=CC=C(C=C1)C1=CC(=O)C2=C(O)C=C(OC3OC(COC4OC(C)C(O)C(O)C4O)C(O)C(O)C3O)C=C2O1
INCHIKEY: YFVGIJBUXMQFOF-UHFFFAOYNA-N
Ontology: Flavonoid-7-O-glycosides
COLLISIONENERGY: 10
FORMULA: C28H32O14
RETENTIONTIME: 5.199317
IONMODE: Negative
Comment: registered in RIKEN PlaSMA
Num Peaks: 20
113.25224	8
125.29121	6
205.06799	6
268.03513	55
268.04852	20
269.03583	16
269.05127	8
270.04205	13
279.07809	5
283.06058	1000
284.06445	112
284.07739	39
285.06238	24
367.07913	7
591.16986	145
592.16187	12
592.18658	18
593.17731	5
593.20874	7
637.19196	40

NAME: Pelargonidin-3-O-glucoside
PRECURSORMZ: 431.09782181576
PRECURSORTYPE: [M-2H]-
INSTRUMENTTYPE: LC-ESI-QTOF
SMILES: OCC1OC(OC2=CC3=C(O)C=C(O)C=C3[O+]=C2C2=CC=C(O)C=C2)C(O)C(O)C1O
INCHIKEY: ABVCUBUIXWJYSE-UHFFFAOYNA-O
Ontology: Anthocyanidin-3-O-glycosides
COLLISIONENERGY: 10
FORMULA: C21H21O10
RETENTIONTIME: 3.114167
IONMODE: Negative
Comment: registered in RIKEN PlaSMA
Num Peaks: 21
149.0275	7
183.01698	7
189.02313	7
210.34193	6
218.00378	7
228.04388	12
268.03662	168
269.04327	1000
269.43924	8
270.04001	32
270.04834	84
270.06503	14
271.04608	27
271.05978	12
272.06293	7
273.08011	7
283.05432	8
297.07346	7
311.05374	16
342.07535	8
431.09827	887

NAME: Peonidin-3-O-glucoside
PRECURSORMZ: 461.10838651576
PRECURSORTYPE: [M-2H]-
INSTRUMENTTYPE: LC-ESI-QTOF
SMILES: COC1=C(O)C=CC(=C1)C1=C(OC2OC(CO)C(O)C(O)C2O)C=C2C(O)=CC(O)=CC2=[O+]1
INCHIKEY: ZZWPMFROUHHAKY-UHFFFAOYNA-O
Ontology: Anthocyanidin-3-O-glycosides
COLLISIONENERGY: 10
FORMULA: C22H23O11
RETENTIONTIME: 3.20225
IONMODE: Negative
Comment: registered in RIKEN PlaSMA
Num Peaks: 17
112.01038	10
153.02054	13
168.03941	12
193.00905	8
285.03082	16
295.8042	9
298.04382	36
299.05527	1000
300.03931	23
300.0618	189
301.07257	8
302.07935	10
311.06763	8
313.07538	10
339.25739	9
371.0676	23
461.10577	802

NAME: (+)-Epicatechin
PRECURSORMZ: 289.07176174783
PRECURSORTYPE: [M-H]-
INSTRUMENTTYPE: LC-ESI-QTOF
SMILES: OC1CC2=C(O)C=C(O)C=C2OC1C1=CC(O)=C(O)C=C1
INCHIKEY: PFTAWBLQPZVEMU-UHFFFAOYNA-N
Ontology: Catechins
COLLISIONENERGY: 10
FORMULA: C15H14O6
RETENTIONTIME: 3.43465
IONMODE: Negative
Comment: registered in RIKEN PlaSMA
Num Peaks: 36
83.01346	6
97.02942	12
109.02431	19
109.02884	41
121.0282	11
123.04375	12
125.02412	43
137.02245	24
149.02441	11
150.03479	7
151.03835	34
161.06183	30
162.07097	5
165.01714	10
166.02158	8
167.03589	11
175.03386	8
179.03127	58
179.03947	27
180.03709	5
187.03746	24
188.04375	19
202.06151	5
203.07132	66
204.06963	22
205.05103	98
206.05081	6
221.08144	7
227.06757	10
227.08002	6
228.07031	6
245.08051	307
246.08423	64
247.06136	8
271.05652	17
289.07104	1000

NAME: Diosmetin-7-O-neohesperidoside
PRECURSORMZ: 607.16684384783
PRECURSORTYPE: [M-H]-
INSTRUMENTTYPE: LC-ESI-QTOF
SMILES: COC1=C(O)C=C(C=C1)C1=CC(=O)C2=C(O)C=C(OC3OC(CO)C(O)C(O)C3OC3OC(C)C(O)C(O)C3O)C=C2O1
INCHIKEY: VCCNKWWXYVWTLT-UHFFFAOYNA-N
Ontology: Flavonoid-7-O-glycosides
COLLISIONENERGY: 10
FORMULA: C28H32O15
RETENTIONTIME: 4.48045
IONMODE: Negative
Comment: registered in RIKEN PlaSMA
Num Peaks: 3
299.04523	13
299.06012	35
607.16504	1000

NAME: Daidzein
PRECURSORMZ: 253.05063234783
PRECURSORTYPE: [M-H]-
INSTRUMENTTYPE: LC-ESI-QTOF
SMILES: OC1=CC=C(C=C1)C1=COC2=C(C=CC(O)=C2)C1=O
INCHIKEY: ZQSIJRDFPHDXIC-UHFFFAOYSA-N
Ontology: Isoflavones
COLLISIONENERGY: 10
FORMULA: C15H10O4
RETENTIONTIME: 5.161233
IONMODE: Negative
Comment: registered in RIKEN PlaSMA
Num Peaks: 2
253.0488	1000
253.09351	11

NAME: Acacetin-7-O-rutinoside
PRECURSORMZ: 591.17192924783
PRECURSORTYPE: [M-H]-
INSTRUMENTTYPE: LC-ESI-QTOF
SMILES: COC1=CC=C(C=C1)C1=CC(=O)C2=C(O)C=C(OC3OC(COC4OC(C)C(O)C(O)C4O)C(O)C(O)C3O)C=C2O1
INCHIKEY: YFVGIJBUXMQFOF-UHFFFAOYNA-N
Ontology: Flavonoid-7-O-glycosides
COLLISIONENERGY: 10
FORMULA: C28H32O14
RETENTIONTIME: 5.199317
IONMODE: Negative
Comment: registered in RIKEN PlaSMA
Num Peaks: 9
212.62321	6
283.06003	1000
284.06339	162
285.04327	5
285.06396	27
290.08426	7
346.34122	9
591.1731	89
591.20312	15

NAME: Acacetin-7-O-rutinoside
PRECURSORMZ: 637.17740855183
PRECURSORTYPE: [M+FA-H]-
INSTRUMENTTYPE: LC-ESI-QTOF
SMILES: COC1=CC=C(C=C1)C1=CC(=O)C2=C(O)C=C(OC3OC(COC4OC(C)C(O)C(O)C4O)C(O)C(O)C3O)C=C2O1
INCHIKEY: YFVGIJBUXMQFOF-UHFFFAOYNA-N
Ontology: Flavonoid-7-O-glycosides
COLLISIONENERGY: 10
FORMULA: C28H32O14
RETENTIONTIME: 5.199317
IONMODE: Negative
Comment: registered in RIKEN PlaSMA
Num Peaks: 15
283.05875	910
283.0817	19
284.06345	199
285.06055	12
285.07727	15
286.07184	11
451.72101	12
591.17456	1000
592.17267	299
592.1969	61
593.17889	71
593.19427	24
594.17126	11
637.16589	172
637.19177	122

NAME: Pelargonidin-3-O-glucoside
PRECURSORMZ: 431.09782181576
PRECURSORTYPE: [M-2H]-
INSTRUMENTTYPE: LC-ESI-QTOF
SMILES: OCC1OC(OC2=CC3=C(O)C=C(O)C=C3[O+]=C2C2=CC=C(O)C=C2)C(O)C(O)C1O
INCHIKEY: ABVCUBUIXWJYSE-UHFFFAOYNA-O
Ontology: Anthocyanidin-3-O-glycosides
COLLISIONENERGY: 30
FORMULA: C21H21O10
RETENTIONTIME: 3.114167
IONMODE: Negative
Comment: registered in RIKEN PlaSMA
Num Peaks: 65
93.0319	54
98.79424	32
108.0145	18
119.01	22
137.02231	17
147.00409	170
147.0117	153
148.00369	14
148.01628	75
149.02214	14
155.05057	19
162.03036	14
164.00661	21
168.05978	37
171.03954	14
173.06033	11
173.06781	26
174.37686	19
177.01613	16
180.04347	14
180.05933	26
181.06784	21
189.01886	28
190.05406	19
195.04761	27
196.0488	48
197.05365	58
199.03387	68
199.04456	42
200.04465	12
201.04768	73
202.04384	23
203.05731	12
211.02869	28
212.05055	52
213.04526	17
213.05833	45
214.06351	23
223.03629	34
223.04601	35
224.04195	82
224.05151	104
225.05083	68
225.0601	21
226.05472	14
228.03409	16
239.0321	106
240.03922	109
240.05118	19
240.07388	15
241.03972	57
241.0519	26
242.05176	17
251.02063	14
251.03091	16
267.01492	12
267.03073	12
267.04547	41
268.03564	1000
269.02795	63
269.04358	429
269.97443	21
270.05081	117
271.04797	34
336.46152	15

NAME: Peonidin-3-O-glucoside
PRECURSORMZ: 461.10838651576
PRECURSORTYPE: [M-2H]-
INSTRUMENTTYPE: LC-ESI-QTOF
SMILES: COC1=C(O)C=CC(=C1)C1=C(OC2OC(CO)C(O)C(O)C2O)C=C2C(O)=CC(O)=CC2=[O+]1
INCHIKEY: ZZWPMFROUHHAKY-UHFFFAOYNA-O
Ontology: Anthocyanidin-3-O-glycosides
COLLISIONENERGY: 30
FORMULA: C22H23O11
RETENTIONTIME: 3.20225
IONMODE: Negative
Comment: registered in RIKEN PlaSMA
Num Peaks: 46
108.02105	21
147.00555	83
147.01228	26
153.04147	23
164.00941	18
165.01965	23
182.03412	33
187.04271	26
198.07147	21
210.03745	32
211.03291	30
214.03287	24
227.03081	20
230.69357	20
239.02975	79
239.04008	47
240.04274	42
240.05417	20
241.03603	29
241.04677	25
242.02583	61
243.03059	22
244.03908	25
254.01828	23
255.0238	118
255.03378	56
255.04451	38
256.03976	231
256.99829	44
257.03998	18
266.0224	32
267.922	46
271.05698	44
272.03149	35
283.02429	1000
283.06299	18
283.08539	24
284.02533	651
284.0383	221
285.03165	131
285.05508	28
298.04504	533
299.05347	429
300.0441	69
300.06067	80
301.06604	28

NAME: (+)-Epicatechin
PRECURSORMZ: 289.07176174783
PRECURSORTYPE: [M-H]-
INSTRUMENTTYPE: LC-ESI-QTOF
SMILES: OC1CC2=C(O)C=C(O)C=C2OC1C1=CC(O)=C(O)C=C1
INCHIKEY: PFTAWBLQPZVEMU-UHFFFAOYNA-N
Ontology: Catechins
COLLISIONENERGY: 30
FORMULA: C15H14O6
RETENTIONTIME: 3.43465
IONMODE: Negative
Comment: registered in RIKEN PlaSMA
Num Peaks: 110
57.02999	16
65.03288	20
69.0318	19
81.02905	17
81.03403	23
83.00651	16
83.01105	30
83.01582	16
93.03407	84
95.01488	30
95.04905	46
97.02612	85
97.03111	48
105.03156	29
109.02765	600
110.03134	63
111.03449	16
115.05079	29
115.06902	16
117.03785	46
119.05628	15
120.01814	17
120.02377	26
121.02776	200
121.06458	22
122.03243	148
123.04252	1000
124.03191	17
124.04763	82
125.0231	166
126.03053	29
127.02761	23
130.03995	15
131.04909	30
131.05713	44
133.0274	56
135.0407	172
137.02113	187
138.02505	100
138.03485	69
139.03911	16
143.04924	17
145.02634	60
145.06148	16
146.02655	27
146.03226	42
146.04091	19
147.03749	15
148.04433	20
149.0228	101
149.03145	12
149.0592	31
150.02065	17
150.03252	96
151.03464	92
151.04053	209
157.02563	24
157.06181	65
158.0378	22
159.04491	196
159.0558	22
160.0498	112
161.01929	18
161.03435	21
161.0585	146
161.48988	16
162.01051	19
162.02881	55
162.06084	55
163.03148	23
163.04213	55
164.00558	29
164.01419	106
164.03896	16
165.02016	23
169.06145	21
173.02409	40
173.0598	125
175.03772	48
175.06952	104
175.08452	21
176.04439	47
176.07765	45
177.05714	43
178.05875	36
179.06863	27
183.04045	16
184.05453	16
185.06155	92
186.06285	15
187.03561	55
187.04425	20
188.04329	82
188.05252	94
197.01982	15
199.07845	16
201.05872	50
202.04903	16
203.0607	25
203.06938	15
205.04774	32
210.06332	15
211.03894	16
213.0578	19
221.07582	19
222.08914	21
225.05623	22
228.04071	25
229.0141	25
230.05119	21

NAME: Diosmetin-7-O-neohesperidoside
PRECURSORMZ: 607.16684384783
PRECURSORTYPE: [M-H]-
INSTRUMENTTYPE: LC-ESI-QTOF
SMILES: COC1=C(O)C=C(C=C1)C1=CC(=O)C2=C(O)C=C(OC3OC(CO)C(O)C(O)C3OC3OC(C)C(O)C(O)C3O)C=C2O1
INCHIKEY: VCCNKWWXYVWTLT-UHFFFAOYNA-N
Ontology: Flavonoid-7-O-glycosides
COLLISIONENERGY: 30
FORMULA: C28H32O15
RETENTIONTIME: 4.48045
IONMODE: Negative
Comment: registered in RIKEN PlaSMA
Num Peaks: 9
284.03113	176
285.03568	33
285.0498	8
299.05545	1000
300.05991	177
301.06015	30
302.05783	7
341.06183	11
607.15045	10

NAME: Daidzein
PRECURSORMZ: 253.05063234783
PRECURSORTYPE: [M-H]-
INSTRUMENTTYPE: LC-ESI-QTOF
SMILES: OC1=CC=C(C=C1)C1=COC2=C(C=CC(O)=C2)C1=O
INCHIKEY: ZQSIJRDFPHDXIC-UHFFFAOYSA-N
Ontology: Isoflavones
COLLISIONENERGY: 30
FORMULA: C15H10O4
RETENTIONTIME: 5.161233
IONMODE: Negative
Comment: registered in RIKEN PlaSMA
Num Peaks: 134
50.98143	7
64.02611	8
75.02152	11
78.04064	21
89.03784	20
90.04082	20
91.01644	407
91.02753	17
92.02129	34
92.02655	16
92.18524	11
93.03355	13
104.02723	68
105.02887	43
105.03899	27
107.01109	13
109.02252	9
109.03094	10
113.03324	9
116.02679	12
117.03361	29
117.04453	7
118.03671	10
119.00905	10
126.16656	12
127.05177	19
128.05939	11
130.0408	18
131.04051	7
131.04733	10
131.05525	8
132.01968	520
132.52252	9
133.02686	889
133.04401	12
134.02019	7
134.02895	36
134.60574	14
134.90089	12
135.00734	459
135.04321	10
135.09641	7
136.00974	34
139.86635	12
141.03735	10
141.06964	44
144.05544	25
145.02846	8
145.0558	9
151.05026	32
151.06673	12
152.0553	21
153.07047	11
154.04393	31
154.07013	13
155.04842	51
155.06461	10
156.05037	29
157.03407	24
157.05893	9
158.02823	14
158.03598	12
160.01151	10
167.04187	55
167.04984	16
168.05347	85
169.05826	91
169.06606	92
171.01178	9
171.04181	10
178.04761	8
179.04132	24
179.04823	35
180.05745	424
180.19722	9
180.2603	21
180.84108	9
181.0242	8
181.05626	44
181.06653	7
182.02765	28
182.03703	91
182.04306	34
182.06636	10
183.03944	71
183.04848	22
184.04204	25
185.04291	10
185.0522	11
194.00537	12
194.03638	8
195.04247	389
195.0592	9
196.05093	311
196.06448	26
196.21083	8
197.05583	249
198.02231	8
198.0627	67
199.06712	8
206.02869	10
207.03465	19
207.04916	9
207.05446	17
208.05058	865
209.05573	331
209.06946	37
209.95654	7
210.02658	28
210.05908	43
210.06984	17
211.02414	8
211.03337	10
211.04817	17
223.03806	1000
223.37878	8
223.98521	10
224.04529	821
224.06511	9
224.08955	16
224.20732	13
224.27002	10
225.0405	41
225.04906	138
225.05745	56
226.06236	33
226.43385	10
227.0667	7
227.26491	8
250.0291	9
251.03381	76
252.04201	147
253.04918	776
253.07309	8

NAME: Acacetin-7-O-rutinoside
PRECURSORMZ: 591.17192924783
PRECURSORTYPE: [M-H]-
INSTRUMENTTYPE: LC-ESI-QTOF
SMILES: COC1=CC=C(C=C1)C1=CC(=O)C2=C(O)C=C(OC3OC(COC4OC(C)C(O)C(O)C4O)C(O)C(O)C3O)C=C2O1
INCHIKEY: YFVGIJBUXMQFOF-UHFFFAOYNA-N
Ontology: Flavonoid-7-O-glycosides
COLLISIONENERGY: 30
FORMULA: C28H32O14
RETENTIONTIME: 5.199317
IONMODE: Negative
Comment: registered in RIKEN PlaSMA
Num Peaks: 13
147.04514	6
208.36464	7
268.02707	32
268.03751	52
269.04291	17
270.25217	5
283.05927	1000
284.04187	11
284.06357	179
285.05664	11
285.06836	20
287.06079	7
321.08807	5

NAME: Acacetin-7-O-rutinoside
PRECURSORMZ: 637.17740855183
PRECURSORTYPE: [M+FA-H]-
INSTRUMENTTYPE: LC-ESI-QTOF
SMILES: COC1=CC=C(C=C1)C1=CC(=O)C2=C(O)C=C(OC3OC(COC4OC(C)C(O)C(O)C4O)C(O)C(O)C3O)C=C2O1
INCHIKEY: YFVGIJBUXMQFOF-UHFFFAOYNA-N
Ontology: Flavonoid-7-O-glycosides
COLLISIONENERGY: 30
FORMULA: C28H32O14
RETENTIONTIME: 5.199317
IONMODE: Negative
Comment: registered in RIKEN PlaSMA
Num Peaks: 12
120.62984	6
224.82903	9
253.0509	11
268.03339	5
268.04465	11
283.05933	1000
284.06061	165
285.05414	18
285.06842	39
288.59943	5
336.79239	9
367.08444	7

NAME: Pelargonidin-3-O-glucoside
PRECURSORMZ: 431.09782181576
PRECURSORTYPE: [M-2H]-
INSTRUMENTTYPE: LC-ESI-QTOF
SMILES: OCC1OC(OC2=CC3=C(O)C=C(O)C=C3[O+]=C2C2=CC=C(O)C=C2)C(O)C(O)C1O
INCHIKEY: ABVCUBUIXWJYSE-UHFFFAOYNA-O
Ontology: Anthocyanidin-3-O-glycosides
COLLISIONENERGY: 50
FORMULA: C21H21O10
RETENTIONTIME: 3.114167
IONMODE: Negative
Comment: registered in RIKEN PlaSMA
Num Peaks: 56
68.99804	117
69.00418	122
93.03472	87
107.01646	78
117.03061	109
119.01072	335
120.02166	152
121.02145	104
121.02831	239
130.03766	87
131.05267	104
143.04459	178
147.00519	1000
148.01404	448
153.03163	117
154.04292	187
155.04269	109
157.03297	96
157.06384	91
159.04265	183
167.03928	87
168.06137	109
169.0636	113
171.04436	96
171.05074	109
173.0479	78
173.06024	274
181.03163	143
182.03267	104
182.04204	109
183.03816	165
183.05101	113
186.05824	87
194.03378	117
195.04041	630
195.05534	139
196.05515	278
197.04776	87
199.01474	87
199.04312	91
209.05568	83
211.0392	674
212.0443	87
213.04982	78
215.07484	100
223.02008	109
223.03561	174
224.03729	91
224.04678	100
239.03621	717
240.04256	109
240.05751	196
241.04216	87
267.0296	348
268.02521	83
279.03452	91

NAME: Peonidin-3-O-glucoside
PRECURSORMZ: 461.10838651576
PRECURSORTYPE: [M-2H]-
INSTRUMENTTYPE: LC-ESI-QTOF
SMILES: COC1=C(O)C=CC(=C1)C1=C(OC2OC(CO)C(O)C(O)C2O)C=C2C(O)=CC(O)=CC2=[O+]1
INCHIKEY: ZZWPMFROUHHAKY-UHFFFAOYNA-O
Ontology: Anthocyanidin-3-O-glycosides
COLLISIONENERGY: 50
FORMULA: C22H23O11
RETENTIONTIME: 3.20225
IONMODE: Negative
Comment: registered in RIKEN PlaSMA
Num Peaks: 57
107.01247	80
111.0335	106
119.01045	167
127.05495	64
139.05426	88
141.03604	90
142.04073	64
143.04752	225
147.01013	109
148.00768	93
153.032	72
155.05302	58
159.04343	268
167.04736	66
167.17487	82
168.06006	56
169.06284	56
170.0359	61
171.04388	130
182.03943	313
183.04628	223
183.05467	85
184.04372	53
184.05884	56
185.02522	196
197.02658	61
198.03812	77
199.03096	172
199.04083	294
200.04192	61
210.03639	74
211.03067	318
212.04944	178
213.01367	64
213.52673	69
214.02835	61
223.04143	48
225.01749	48
227.0336	1000
228.03154	159
228.04224	93
229.03191	48
238.02458	53
239.02533	58
239.04332	64
240.032	50
254.03172	61
255.0123	77
255.02975	308
255.04173	210
256.43802	48
270.07251	66
282.01996	58
283.02036	239
283.03204	252
284.01468	106
284.02771	93

NAME: (+)-Epicatechin
PRECURSORMZ: 289.07176174783
PRECURSORTYPE: [M-H]-
INSTRUMENTTYPE: LC-ESI-QTOF
SMILES: OC1CC2=C(O)C=C(O)C=C2OC1C1=CC(O)=C(O)C=C1
INCHIKEY: PFTAWBLQPZVEMU-UHFFFAOYNA-N
Ontology: Catechins
COLLISIONENERGY: 50
FORMULA: C15H14O6
RETENTIONTIME: 3.43465
IONMODE: Negative
Comment: registered in RIKEN PlaSMA
Num Peaks: 30
79.05056	184
81.03611	694
83.01073	184
93.03767	204
97.02636	704
98.03053	245
101.04153	296
108.01764	469
108.02538	469
109.0275	378
109.03327	276
117.02868	286
122.03572	1000
123.04012	224
123.04817	204
124.03717	204
124.04416	214
130.76247	214
133.02057	255
135.03918	306
137.02628	194
145.06291	398
146.03587	184
149.06213	214
150.03276	204
157.06166	306
159.04202	194
162.0265	224
175.03508	214
203.03163	255

NAME: Diosmetin-7-O-neohesperidoside
PRECURSORMZ: 607.16684384783
PRECURSORTYPE: [M-H]-
INSTRUMENTTYPE: LC-ESI-QTOF
SMILES: COC1=C(O)C=C(C=C1)C1=CC(=O)C2=C(O)C=C(OC3OC(CO)C(O)C(O)C3OC3OC(C)C(O)C(O)C3O)C=C2O1
INCHIKEY: VCCNKWWXYVWTLT-UHFFFAOYNA-N
Ontology: Flavonoid-7-O-glycosides
COLLISIONENERGY: 50
FORMULA: C28H32O15
RETENTIONTIME: 4.48045
IONMODE: Negative
Comment: registered in RIKEN PlaSMA
Num Peaks: 11
134.03314	5
151.00127	8
200.04874	5
255.03139	10
284.03107	1000
285.03574	158
286.03772	16
287.03262	5
297.03531	5
299.05545	53
300.06256	14

NAME: Daidzein
PRECURSORMZ: 253.05063234783
PRECURSORTYPE: [M-H]-
INSTRUMENTTYPE: LC-ESI-QTOF
SMILES: OC1=CC=C(C=C1)C1=COC2=C(C=CC(O)=C2)C1=O
INCHIKEY: ZQSIJRDFPHDXIC-UHFFFAOYSA-N
Ontology: Isoflavones
COLLISIONENERGY: 50
FORMULA: C15H10O4
RETENTIONTIME: 5.161233
IONMODE: Negative
Comment: registered in RIKEN PlaSMA
Num Peaks: 30
64.99826	52
88.02718	72
89.04363	32
91.01889	523
93.03384	38
104.0237	182
106.09933	34
117.03072	41
117.03893	121
131.04454	36
132.01985	1000
133.03008	466
135.00313	52
135.02325	61
141.03513	47
156.0183	41
167.04813	94
180.06778	54
181.05798	41
183.03949	32
195.04178	371
195.05812	54
196.03871	36
196.05217	65
197.05594	52
208.05879	47
223.03581	34
223.04698	45
224.03409	36
253.04752	49

NAME: Acacetin-7-O-rutinoside
PRECURSORMZ: 591.17192924783
PRECURSORTYPE: [M-H]-
INSTRUMENTTYPE: LC-ESI-QTOF
SMILES: COC1=CC=C(C=C1)C1=CC(=O)C2=C(O)C=C(OC3OC(COC4OC(C)C(O)C(O)C4O)C(O)C(O)C3O)C=C2O1
INCHIKEY: YFVGIJBUXMQFOF-UHFFFAOYNA-N
Ontology: Flavonoid-7-O-glycosides
COLLISIONENERGY: 50
FORMULA: C28H32O14
RETENTIONTIME: 5.199317
IONMODE: Negative
Comment: registered in RIKEN PlaSMA
Num Peaks: 25
87.01253	13
121.06276	6
151.00188	9
151.03822	6
195.03598	7
196.05286	9
197.94878	16
200.05116	16
201.04733	7
212.03691	12
227.03349	14
237.05188	9
239.0239	8
239.11578	7
240.03903	10
267.02222	37
268.03568	1000
268.06757	13
269.03104	95
269.04135	162
269.92352	7
271.04703	7
283.05972	180
284.06253	10
284.07251	7

NAME: Acacetin-7-O-rutinoside
PRECURSORMZ: 637.17740855183
PRECURSORTYPE: [M+FA-H]-
INSTRUMENTTYPE: LC-ESI-QTOF
SMILES: COC1=CC=C(C=C1)C1=CC(=O)C2=C(O)C=C(OC3OC(COC4OC(C)C(O)C(O)C4O)C(O)C(O)C3O)C=C2O1
INCHIKEY: YFVGIJBUXMQFOF-UHFFFAOYNA-N
Ontology: Flavonoid-7-O-glycosides
COLLISIONENERGY: 50
FORMULA: C28H32O14
RETENTIONTIME: 5.199317
IONMODE: Negative
Comment: registered in RIKEN PlaSMA
Num Peaks: 15
60.17187	11
135.43198	13
174.16628	11
204.40343	10
251.02806	15
268.03497	1000
268.06091	14
269.03369	121
269.05057	118
270.03586	13
282.08151	13
283.06012	620
284.05826	26
284.07028	55
285.06601	21

NAME: (-)-Epicatechin
PRECURSORMZ: 289.07176174783
PRECURSORTYPE: [M-H]-
INSTRUMENTTYPE: LC-ESI-QTOF
SMILES: OC1CC2=C(O)C=C(O)C=C2OC1C1=CC(O)=C(O)C=C1
INCHIKEY: PFTAWBLQPZVEMU-UHFFFAOYNA-N
Ontology: Catechins
COLLISIONENERGY: 10
FORMULA: C15H14O6
RETENTIONTIME: 3.429833
IONMODE: Negative
Comment: registered in RIKEN PlaSMA
Num Peaks: 108
68.9973	17
79.05421	21
81.03392	12
95.04539	35
95.05045	50
95.53963	11
97.02787	57
97.03555	17
99.04462	39
109.02525	204
110.03231	26
111.03753	11
121.02732	33
121.03197	14
121.12965	11
122.03822	11
123.04283	230
124.04383	17
124.05114	12
125.02021	192
125.02789	89
125.04353	12
126.02766	61
127.02886	12
137.02029	78
138.01617	13
138.02957	31
139.03412	16
145.02602	24
145.03204	33
146.0276	11
149.02165	116
149.05505	26
150.03423	24
151.03209	51
151.04213	128
157.02353	27
157.06348	25
158.039	22
158.06718	12
159.04483	99
160.04181	14
160.05779	61
161.02448	11
161.05074	14
161.06094	28
162.03732	14
162.0661	28
164.01089	132
165.0201	29
165.02832	9
166.02425	55
167.02554	33
167.03937	20
167.0715	13
170.73521	11
173.06415	33
174.01556	12
174.02521	29
175.03436	92
175.07346	14
176.03683	34
176.04584	13
176.07341	15
177.98828	11
179.03059	48
179.03828	66
180.04298	18
181.03728	15
181.04562	22
183.04453	18
185.06088	13
186.04741	12
186.06433	14
187.03836	124
187.77496	15
188.03485	13
188.04321	54
188.05669	46
190.02356	20
200.04385	16
200.07819	19
201.05083	16
201.05853	15
201.09889	18
202.06207	63
203.06277	80
203.0696	270
204.07106	28
205.03468	14
205.04889	155
206.0507	88
212.04073	14
212.04964	14
221.07553	22
227.06743	37
231.02379	30
244.06874	12
245.08211	580
246.05028	12
246.08093	58
246.39572	13
247.05312	13
247.06493	37
247.08789	27
271.05334	13
287.04987	27
289.06857	1000

NAME: Quercetin-3-O-rutinoside
PRECURSORMZ: 609.14610844783
PRECURSORTYPE: [M-H]-
INSTRUMENTTYPE: LC-ESI-QTOF
SMILES: CC1OC(OCC2OC(OC3=C(OC4=CC(O)=CC(O)=C4C3=O)C3=CC(O)=C(O)C=C3)C(O)C(O)C2O)C(O)C(O)C1O
INCHIKEY: IKGXIBQEEMLURG-UHFFFAOYNA-N
Ontology: Flavonoid-3-O-glycosides
COLLISIONENERGY: 10
FORMULA: C27H30O16
RETENTIONTIME: 3.862367
IONMODE: Negative
Comment: registered in RIKEN PlaSMA
Num Peaks: 22
150.99579	6
151.00606	20
178.9973	16
243.0211	6
254.02116	6
255.02696	26
255.03926	11
256.03256	6
271.02045	60
271.0354	12
272.02328	8
272.03381	9
299.02261	9
300.02664	484
301.03308	325
302.03244	29
302.04425	23
303.04379	6
343.03821	7
608.14313	15
609.14496	1000
609.20557	9

NAME: Naringenin-7-O-glucoside
PRECURSORMZ: 433.11402044783
PRECURSORTYPE: [M-H]-
INSTRUMENTTYPE: LC-ESI-QTOF
SMILES: OCC1OC(OC2=CC(O)=C3C(=O)CC(OC3=C2)C2=CC=C(O)C=C2)C(O)C(O)C1O
INCHIKEY: DLIKSSGEMUFQOK-UHFFFAOYNA-N
Ontology: Flavonoid-7-O-glycosides
COLLISIONENERGY: 10
FORMULA: C21H22O10
RETENTIONTIME: 4.5225
IONMODE: Negative
Comment: registered in RIKEN PlaSMA
Num Peaks: 19
93.0326	10
107.008	8
119.04871	61
125.02667	10
145.0265	9
151.00223	186
152.00725	16
175.0023	6
177.01518	30
187.04346	12
193.01372	13
271.06	1000
271.08344	5
272.06372	200
273.05536	8
273.0687	21
295.06348	12
313.06754	15
433.11404	41

NAME: Acacetin-7-O-neohesperidoside
PRECURSORMZ: 591.17192924783
PRECURSORTYPE: [M-H]-
INSTRUMENTTYPE: LC-ESI-QTOF
SMILES: COC1=CC=C(C=C1)C1=CC(=O)C2=C(O)C=C(OC3OC(CO)C(O)C(O)C3OC3OC(C)C(O)C(O)C3O)C=C2O1
INCHIKEY: MLWDGPFGTFOLRJ-UHFFFAOYNA-N
Ontology: Flavonoid-7-O-glycosides
COLLISIONENERGY: 10
FORMULA: C28H32O14
RETENTIONTIME: 5.268017
IONMODE: Negative
Comment: registered in RIKEN PlaSMA
Num Peaks: 13
268.03595	143
269.03839	22
276.31778	5
283.05945	1000
284.06335	163
285.06262	21
297.06909	6
325.07516	31
326.07422	8
367.08508	7
471.10568	11
472.14096	11
591.16962	234

NAME: Acacetin-7-O-neohesperidoside
PRECURSORMZ: 637.17740855183
PRECURSORTYPE: [M+FA-H]-
INSTRUMENTTYPE: LC-ESI-QTOF
SMILES: COC1=CC=C(C=C1)C1=CC(=O)C2=C(O)C=C(OC3OC(CO)C(O)C(O)C3OC3OC(C)C(O)C(O)C3O)C=C2O1
INCHIKEY: MLWDGPFGTFOLRJ-UHFFFAOYNA-N
Ontology: Flavonoid-7-O-glycosides
COLLISIONENERGY: 10
FORMULA: C28H32O14
RETENTIONTIME: 5.268017
IONMODE: Negative
Comment: registered in RIKEN PlaSMA
Num Peaks: 42
79.45294	6
101.02327	7
103.04105	8
111.47506	9
112.01848	7
115.24328	5
131.03801	14
164.06201	8
183.14984	6
193.10941	7
248.0392	6
267.0766	7
268.03128	37
268.04419	13
269.0444	14
270.03134	7
283.05884	1000
284.06091	143
285.05585	26
285.07382	16
286.0676	6
296.07913	7
297.08109	12
309.06494	6
325.05695	7
325.07864	6
326.07486	7
352.09018	8
369.45477	6
375.36237	8
405.71548	6
407.60745	7
429.12106	8
446.12521	7
471.13483	8
591.1712	567
591.21448	6
592.17786	148
593.17029	16
593.18414	35
637.15308	22
637.17981	44

NAME: isoliquiritigenin
PRECURSORMZ: 255.06628244783
PRECURSORTYPE: [M-H]-
INSTRUMENTTYPE: LC-ESI-QTOF
SMILES: OC1=CC=C(C=CC(=O)C2=C(O)C=C(O)C=C2)C=C1
INCHIKEY: DXDRHHKMWQZJHT-UHFFFAOYSA-N
Ontology: 2'-Hydroxychalcones
COLLISIONENERGY: 10
FORMULA: C15H12O4
RETENTIONTIME: 6.4292
IONMODE: Negative
Comment: registered in RIKEN PlaSMA
Num Peaks: 15
91.01737	125
92.02533	8
93.03342	9
119.04916	1000
120.05305	119
135.00735	797
136.01147	39
137.01265	11
145.02754	8
148.00832	5
149.02422	13
169.06889	6
213.05714	7
237.05576	5
255.06584	588

NAME: (-)-Epicatechin
PRECURSORMZ: 289.07176174783
PRECURSORTYPE: [M-H]-
INSTRUMENTTYPE: LC-ESI-QTOF
SMILES: OC1CC2=C(O)C=C(O)C=C2OC1C1=CC(O)=C(O)C=C1
INCHIKEY: PFTAWBLQPZVEMU-UHFFFAOYNA-N
Ontology: Catechins
COLLISIONENERGY: 10
FORMULA: C15H14O6
RETENTIONTIME: 3.429833
IONMODE: Negative
Comment: registered in RIKEN PlaSMA
Num Peaks: 41
109.02625	19
109.03293	9
110.03566	5
123.04771	10
125.02047	75
135.04033	10
135.04813	8
137.02275	33
147.04558	6
151.03662	20
152.04135	5
161.05518	14
161.0623	13
165.0168	20
165.02657	7
167.03018	44
167.03674	13
175.03114	5
175.04118	11
176.04019	6
179.03494	67
180.03069	7
183.04964	5
185.05983	8
187.03949	18
188.04324	31
203.06895	101
204.07361	29
205.04947	138
217.08463	5
221.08064	10
229.05247	7
231.0273	10
245.07986	338
246.08511	53
247.06033	6
247.0847	6
260.05984	9
271.05591	27
271.06473	11
289.06982	1000

NAME: Quercetin-3-O-rutinoside
PRECURSORMZ: 609.14610844783
PRECURSORTYPE: [M-H]-
INSTRUMENTTYPE: LC-ESI-QTOF
SMILES: CC1OC(OCC2OC(OC3=C(OC4=CC(O)=CC(O)=C4C3=O)C3=CC(O)=C(O)C=C3)C(O)C(O)C2O)C(O)C(O)C1O
INCHIKEY: IKGXIBQEEMLURG-UHFFFAOYNA-N
Ontology: Flavonoid-3-O-glycosides
COLLISIONENERGY: 10
FORMULA: C27H30O16
RETENTIONTIME: 3.862367
IONMODE: Negative
Comment: registered in RIKEN PlaSMA
Num Peaks: 5
300.02673	7
301.03329	11
607.13763	6
608.12915	7
609.14661	1000

NAME: Naringenin-7-O-glucoside
PRECURSORMZ: 433.11402044783
PRECURSORTYPE: [M-H]-
INSTRUMENTTYPE: LC-ESI-QTOF
SMILES: OCC1OC(OC2=CC(O)=C3C(=O)CC(OC3=C2)C2=CC=C(O)C=C2)C(O)C(O)C1O
INCHIKEY: DLIKSSGEMUFQOK-UHFFFAOYNA-N
Ontology: Flavonoid-7-O-glycosides
COLLISIONENERGY: 10
FORMULA: C21H22O10
RETENTIONTIME: 4.5225
IONMODE: Negative
Comment: registered in RIKEN PlaSMA
Num Peaks: 7
271.06024	1000
272.06314	191
273.0665	17
295.05585	10
313.056	7
313.07217	10
433.11426	108

NAME: Acacetin-7-O-neohesperidoside
PRECURSORMZ: 591.17192924783
PRECURSORTYPE: [M-H]-
INSTRUMENTTYPE: LC-ESI-QTOF
SMILES: COC1=CC=C(C=C1)C1=CC(=O)C2=C(O)C=C(OC3OC(CO)C(O)C(O)C3OC3OC(C)C(O)C(O)C3O)C=C2O1
INCHIKEY: MLWDGPFGTFOLRJ-UHFFFAOYNA-N
Ontology: Flavonoid-7-O-glycosides
COLLISIONENERGY: 10
FORMULA: C28H32O14
RETENTIONTIME: 5.268017
IONMODE: Negative
Comment: registered in RIKEN PlaSMA
Num Peaks: 11
163.06044	19
283.05988	449
284.06192	78
285.06274	12
325.06931	6
450.98441	6
471.12534	11
472.12958	8
472.14276	8
591.17078	1000
591.2276	6

NAME: Acacetin-7-O-neohesperidoside
PRECURSORMZ: 637.17740855183
PRECURSORTYPE: [M+FA-H]-
INSTRUMENTTYPE: LC-ESI-QTOF
SMILES: COC1=CC=C(C=C1)C1=CC(=O)C2=C(O)C=C(OC3OC(CO)C(O)C(O)C3OC3OC(C)C(O)C(O)C3O)C=C2O1
INCHIKEY: MLWDGPFGTFOLRJ-UHFFFAOYNA-N
Ontology: Flavonoid-7-O-glycosides
COLLISIONENERGY: 10
FORMULA: C28H32O14
RETENTIONTIME: 5.268017
IONMODE: Negative
Comment: registered in RIKEN PlaSMA
Num Peaks: 17
205.07072	6
283.0477	21
283.0593	42
284.07214	5
358.90988	6
386.64871	7
472.1272	11
477.29919	7
487.74042	6
591.12524	9
591.17078	1000
592.17676	341
593.16321	55
593.18237	43
594.19385	5
637.15302	36
637.17847	143

NAME: isoliquiritigenin
PRECURSORMZ: 255.06628244783
PRECURSORTYPE: [M-H]-
INSTRUMENTTYPE: LC-ESI-QTOF
SMILES: OC1=CC=C(C=CC(=O)C2=C(O)C=C(O)C=C2)C=C1
INCHIKEY: DXDRHHKMWQZJHT-UHFFFAOYSA-N
Ontology: 2'-Hydroxychalcones
COLLISIONENERGY: 10
FORMULA: C15H12O4
RETENTIONTIME: 6.4292
IONMODE: Negative
Comment: registered in RIKEN PlaSMA
Num Peaks: 7
91.01591	14
119.04819	296
120.05172	32
135.00703	669
136.01027	70
149.02307	12
255.06386	1000

NAME: (-)-Epicatechin
PRECURSORMZ: 289.07176174783
PRECURSORTYPE: [M-H]-
INSTRUMENTTYPE: LC-ESI-QTOF
SMILES: OC1CC2=C(O)C=C(O)C=C2OC1C1=CC(O)=C(O)C=C1
INCHIKEY: PFTAWBLQPZVEMU-UHFFFAOYNA-N
Ontology: Catechins
COLLISIONENERGY: 30
FORMULA: C15H14O6
RETENTIONTIME: 3.429833
IONMODE: Negative
Comment: registered in RIKEN PlaSMA
Num Peaks: 99
57.03283	43
57.03778	26
68.05737	22
69.03883	36
81.03912	31
83.01234	157
86.12363	24
91.05379	73
93.0327	121
95.01431	40
95.04189	23
95.04875	132
96.02105	28
97.02764	257
99.03922	22
105.02854	130
105.03807	70
107.0481	55
108.01923	62
109.02788	840
113.06271	23
121.02946	274
122.0356	126
122.99448	24
123.04308	1000
124.046	23
125.01764	119
125.02312	321
126.1632	24
129.02802	22
130.03789	42
131.04135	58
131.05257	48
133.03101	49
134.03249	31
134.03699	58
135.04352	288
137.02142	395
138.0298	169
139.03275	25
139.04468	41
143.04919	59
145.02737	262
146.03471	88
147.03909	106
149.01915	129
149.0316	40
149.05168	78
150.03011	167
151.03371	141
151.04091	53
152.04288	43
156.33557	29
157.06514	102
158.35825	25
159.0385	183
159.04756	75
159.08273	23
160.04761	162
160.05862	65
161.05237	50
162.0547	28
162.06375	24
163.02933	25
163.04109	82
164.01277	43
164.04967	32
165.01447	26
167.03697	25
170.04634	36
171.07703	22
172.05286	25
173.01595	24
173.06274	72
174.02708	47
174.07133	24
174.07817	31
175.03703	172
175.073	41
175.08113	61
177.04991	34
184.04961	55
185.05147	24
186.05699	25
186.06984	42
187.04306	169
188.05264	96
197.01151	34
197.05846	24
200.07942	23
201.05116	102
201.05949	59
202.0634	49
203.06902	71
205.04794	22
212.03966	24
221.08203	44
227.07307	23
244.08267	25

NAME: Quercetin-3-O-rutinoside
PRECURSORMZ: 609.14610844783
PRECURSORTYPE: [M-H]-
INSTRUMENTTYPE: LC-ESI-QTOF
SMILES: CC1OC(OCC2OC(OC3=C(OC4=CC(O)=CC(O)=C4C3=O)C3=CC(O)=C(O)C=C3)C(O)C(O)C2O)C(O)C(O)C1O
INCHIKEY: IKGXIBQEEMLURG-UHFFFAOYNA-N
Ontology: Flavonoid-3-O-glycosides
COLLISIONENERGY: 30
FORMULA: C27H30O16
RETENTIONTIME: 3.862367
IONMODE: Negative
Comment: registered in RIKEN PlaSMA
Num Peaks: 15
151.00325	47
178.99759	52
254.02238	7
255.01404	8
255.03136	32
256.03024	6
271.01822	41
271.02887	20
272.02451	12
300.02679	1000
301.03345	650
302.03534	126
303.03986	16
343.04843	7
609.14728	112

NAME: Naringenin-7-O-glucoside
PRECURSORMZ: 433.11402044783
PRECURSORTYPE: [M-H]-
INSTRUMENTTYPE: LC-ESI-QTOF
SMILES: OCC1OC(OC2=CC(O)=C3C(=O)CC(OC3=C2)C2=CC=C(O)C=C2)C(O)C(O)C1O
INCHIKEY: DLIKSSGEMUFQOK-UHFFFAOYNA-N
Ontology: Flavonoid-7-O-glycosides
COLLISIONENERGY: 30
FORMULA: C21H22O10
RETENTIONTIME: 4.5225
IONMODE: Negative
Comment: registered in RIKEN PlaSMA
Num Peaks: 43
65.00204	8
83.00831	6
93.03253	48
94.0362	7
107.01494	75
108.99248	6
119.04806	341
120.04757	19
120.05237	40
125.02223	25
137.01862	9
145.0262	17
151.00238	1000
151.04413	6
152.00487	101
157.06625	7
158.86865	8
161.06303	8
164.01207	27
165.01642	57
165.02544	10
166.01915	9
175	34
176.00691	6
177.01804	112
178.01817	23
185.05664	5
185.06404	9
193.01035	32
193.01868	13
199.06709	7
219.02533	7
227.07025	33
228.07249	6
229.04695	16
238.40472	7
271.05954	681
271.08255	5
272.05966	132
272.08652	6
273.05743	15
273.06967	16
313.06882	8

NAME: Acacetin-7-O-neohesperidoside
PRECURSORMZ: 591.17192924783
PRECURSORTYPE: [M-H]-
INSTRUMENTTYPE: LC-ESI-QTOF
SMILES: COC1=CC=C(C=C1)C1=CC(=O)C2=C(O)C=C(OC3OC(CO)C(O)C(O)C3OC3OC(C)C(O)C(O)C3O)C=C2O1
INCHIKEY: MLWDGPFGTFOLRJ-UHFFFAOYNA-N
Ontology: Flavonoid-7-O-glycosides
COLLISIONENERGY: 30
FORMULA: C28H32O14
RETENTIONTIME: 5.268017
IONMODE: Negative
Comment: registered in RIKEN PlaSMA
Num Peaks: 10
145.04976	6
161.0416	5
268.02567	25
268.03751	120
269.04022	7
283.05954	1000
284.06396	144
285.0593	22
297.06805	7
349.0603	5

NAME: Acacetin-7-O-neohesperidoside
PRECURSORMZ: 637.17740855183
PRECURSORTYPE: [M+FA-H]-
INSTRUMENTTYPE: LC-ESI-QTOF
SMILES: COC1=CC=C(C=C1)C1=CC(=O)C2=C(O)C=C(OC3OC(CO)C(O)C(O)C3OC3OC(C)C(O)C(O)C3O)C=C2O1
INCHIKEY: MLWDGPFGTFOLRJ-UHFFFAOYNA-N
Ontology: Flavonoid-7-O-glycosides
COLLISIONENERGY: 30
FORMULA: C28H32O14
RETENTIONTIME: 5.268017
IONMODE: Negative
Comment: registered in RIKEN PlaSMA
Num Peaks: 13
82.3931	5
101.02349	8
115.04028	7
205.06691	7
205.07924	5
268.04065	15
268.07388	5
269.04041	6
278.99628	7
283.06	1000
284.06296	205
285.06613	24
297.06821	7

NAME: isoliquiritigenin
PRECURSORMZ: 255.06628244783
PRECURSORTYPE: [M-H]-
INSTRUMENTTYPE: LC-ESI-QTOF
SMILES: OC1=CC=C(C=CC(=O)C2=C(O)C=C(O)C=C2)C=C1
INCHIKEY: DXDRHHKMWQZJHT-UHFFFAOYSA-N
Ontology: 2'-Hydroxychalcones
COLLISIONENERGY: 30
FORMULA: C15H12O4
RETENTIONTIME: 6.4292
IONMODE: Negative
Comment: registered in RIKEN PlaSMA
Num Peaks: 9
91.01759	181
92.0211	18
93.03524	10
107.00918	5
117.03642	6
119.04845	1000
120.05064	81
121.03078	9
135.0076	72

NAME: (-)-Epicatechin
PRECURSORMZ: 289.07176174783
PRECURSORTYPE: [M-H]-
INSTRUMENTTYPE: LC-ESI-QTOF
SMILES: OC1CC2=C(O)C=C(O)C=C2OC1C1=CC(O)=C(O)C=C1
INCHIKEY: PFTAWBLQPZVEMU-UHFFFAOYNA-N
Ontology: Catechins
COLLISIONENERGY: 50
FORMULA: C15H14O6
RETENTIONTIME: 3.429833
IONMODE: Negative
Comment: registered in RIKEN PlaSMA
Num Peaks: 29
69.03043	216
70.03568	353
79.01711	255
81.02989	196
83.0144	206
93.03363	196
95.04781	294
97.02933	637
104.08353	206
105.03343	480
108.01886	176
108.02802	206
109.02646	1000
117.02484	176
117.03034	480
117.04149	245
122.03378	657
122.04294	176
123.0441	775
124.01768	245
125.02168	480
125.05194	196
130.04131	314
146.03381	176
147.00926	216
148.01294	225
160.04285	402
161.05225	275
201.05779	265

NAME: Quercetin-3-O-rutinoside
PRECURSORMZ: 609.14610844783
PRECURSORTYPE: [M-H]-
INSTRUMENTTYPE: LC-ESI-QTOF
SMILES: CC1OC(OCC2OC(OC3=C(OC4=CC(O)=CC(O)=C4C3=O)C3=CC(O)=C(O)C=C3)C(O)C(O)C2O)C(O)C(O)C1O
INCHIKEY: IKGXIBQEEMLURG-UHFFFAOYNA-N
Ontology: Flavonoid-3-O-glycosides
COLLISIONENERGY: 50
FORMULA: C27H30O16
RETENTIONTIME: 3.862367
IONMODE: Negative
Comment: registered in RIKEN PlaSMA
Num Peaks: 63
93.03191	5
106.99837	7
107.01233	36
108.01579	7
109.02931	27
121.03085	27
135.00542	19
137.02869	5
148.01447	16
148.01891	8
151.0013	142
152.0033	10
162.02988	6
163.00179	34
164.00876	7
171.04298	12
175.03273	5
178.99316	15
178.99899	32
183.04863	7
185.06006	7
186.03596	6
189.05493	6
198.02299	5
198.03061	17
201.04926	17
203.03752	5
204.04333	7
205.0509	6
211.03204	8
213.05849	5
216.03868	17
226.02032	15
226.03281	8
227.02852	21
227.03604	63
228.03093	5
228.04343	7
231.02249	6
241.01276	15
242.01932	20
243.02641	179
244.03288	38
253.02159	6
254.01828	39
254.03802	11
255.02817	481
255.04785	14
256.03345	74
271.02292	1000
272.02084	46
272.03146	114
272.05505	5
273.02829	46
273.94699	6
283.00934	10
283.0235	8
299.01538	18
299.03516	6
300.02716	368
301.03299	99
302.03363	19
302.04309	8

NAME: Naringenin-7-O-glucoside
PRECURSORMZ: 433.11402044783
PRECURSORTYPE: [M-H]-
INSTRUMENTTYPE: LC-ESI-QTOF
SMILES: OCC1OC(OC2=CC(O)=C3C(=O)CC(OC3=C2)C2=CC=C(O)C=C2)C(O)C(O)C1O
INCHIKEY: DLIKSSGEMUFQOK-UHFFFAOYNA-N
Ontology: Flavonoid-7-O-glycosides
COLLISIONENERGY: 50
FORMULA: C21H22O10
RETENTIONTIME: 4.5225
IONMODE: Negative
Comment: registered in RIKEN PlaSMA
Num Peaks: 62
63.02031	7
63.02514	15
64.99655	7
65.0034	46
69.03305	10
83.01218	58
84.01345	7
91.01564	6
93.03139	17
93.0405	6
100.07212	8
102.20374	7
103.01876	10
107.01204	199
107.04666	9
108.01895	51
108.02564	22
108.48816	6
109.03054	19
117.03368	24
119.01478	6
119.04871	1000
120.04942	72
120.06095	26
121.03038	11
121.07552	8
125.02376	10
128.91003	6
131.01251	6
132.01143	7
135.00079	6
136.01282	24
137.02052	14
143.05125	14
145.02847	26
146.03139	6
147.04486	7
150.02022	6
151.00162	228
152.00209	45
152.01215	8
152.50761	6
153.00163	12
157.05853	16
158.03568	6
158.06601	6
159.04228	9
161.05617	35
163.00011	12
164.00594	9
165.02382	12
167.04738	7
174.9978	15
177.01767	14
178.0229	10
181.0672	9
183.04268	6
185.05937	31
187.0377	14
187.04306	25
188.05083	6
391.02512	7

NAME: Acacetin-7-O-neohesperidoside
PRECURSORMZ: 591.17192924783
PRECURSORTYPE: [M-H]-
INSTRUMENTTYPE: LC-ESI-QTOF
SMILES: COC1=CC=C(C=C1)C1=CC(=O)C2=C(O)C=C(OC3OC(CO)C(O)C(O)C3OC3OC(C)C(O)C(O)C3O)C=C2O1
INCHIKEY: MLWDGPFGTFOLRJ-UHFFFAOYNA-N
Ontology: Flavonoid-7-O-glycosides
COLLISIONENERGY: 50
FORMULA: C28H32O14
RETENTIONTIME: 5.268017
IONMODE: Negative
Comment: registered in RIKEN PlaSMA
Num Peaks: 13
151.01118	7
211.03893	13
212.03763	8
239.03242	13
240.04303	18
268.03513	1000
269.04056	160
270.03455	14
271.04828	6
283.06229	183
284.06854	14
285.06519	5
290.05341	7

NAME: Acacetin-7-O-neohesperidoside
PRECURSORMZ: 637.17740855183
PRECURSORTYPE: [M+FA-H]-
INSTRUMENTTYPE: LC-ESI-QTOF
SMILES: COC1=CC=C(C=C1)C1=CC(=O)C2=C(O)C=C(OC3OC(CO)C(O)C(O)C3OC3OC(C)C(O)C(O)C3O)C=C2O1
INCHIKEY: MLWDGPFGTFOLRJ-UHFFFAOYNA-N
Ontology: Flavonoid-7-O-glycosides
COLLISIONENERGY: 50
FORMULA: C28H32O14
RETENTIONTIME: 5.268017
IONMODE: Negative
Comment: registered in RIKEN PlaSMA
Num Peaks: 25
62.368	6
143.77843	6
156.31728	8
198.50568	7
214.06763	16
239.02983	7
240.04845	16
250.01674	6
267.06522	17
267.98294	10
268.03641	1000
268.69971	8
269.01926	9
269.04208	213
270.03827	9
270.05161	32
271.04636	6
281.04541	26
281.05826	6
282.05029	9
283.05942	706
284.0639	105
285.05576	8
303.05585	10
334.06213	10

NAME: isoliquiritigenin
PRECURSORMZ: 255.06628244783
PRECURSORTYPE: [M-H]-
INSTRUMENTTYPE: LC-ESI-QTOF
SMILES: OC1=CC=C(C=CC(=O)C2=C(O)C=C(O)C=C2)C=C1
INCHIKEY: DXDRHHKMWQZJHT-UHFFFAOYSA-N
Ontology: 2'-Hydroxychalcones
COLLISIONENERGY: 50
FORMULA: C15H12O4
RETENTIONTIME: 6.4292
IONMODE: Negative
Comment: registered in RIKEN PlaSMA
Num Peaks: 12
91.02198	45
91.05341	95
92.02192	42
93.02815	19
93.03542	81
116.93307	19
117.03495	56
119.04771	1000
120.04745	85
120.05895	30
121.02822	26
122.60886	20

NAME: (-)-Epicatechin
PRECURSORMZ: 289.07176174783
PRECURSORTYPE: [M-H]-
INSTRUMENTTYPE: LC-ESI-QTOF
SMILES: OC1CC2=C(O)C=C(O)C=C2OC1C1=CC(O)=C(O)C=C1
INCHIKEY: PFTAWBLQPZVEMU-UHFFFAOYNA-N
Ontology: Catechins
COLLISIONENERGY: 10
FORMULA: C15H14O6
RETENTIONTIME: 3.429833
IONMODE: Negative
Comment: registered in RIKEN PlaSMA
Num Peaks: 118
79.01383	11
81.03107	12
83.0122	13
83.01868	16
93.03793	12
95.05377	12
97.02595	46
98.03656	12
99.04747	13
105.0353	9
107.05029	10
109.02791	177
110.03459	23
120.01925	10
121.02817	82
122.03915	24
123.04394	309
125.02299	338
126.03195	14
129.06973	10
130.04436	16
132.05573	9
133.0645	10
134.03873	10
135.03683	11
135.04797	33
137.02293	118
138.02112	10
138.02809	15
145.03075	16
146.03566	19
147.04019	20
147.08525	12
149.01912	20
149.02579	52
150.02429	11
151.03717	159
152.04289	10
154.03722	15
159.03735	26
159.0463	37
159.08472	15
160.04449	22
160.05428	12
161.02112	11
161.0563	46
161.06499	27
162.02797	59
162.06369	13
163.04254	17
164.01079	96
165.01524	49
166.01414	34
166.05652	11
167.02455	11
167.03276	53
167.04503	27
173.05684	23
174.02626	14
174.039	14
174.05847	11
175.03813	20
175.07094	10
176.03917	33
177.04935	15
177.06345	15
179.02791	30
179.03561	65
179.04878	10
180.03659	24
181.03043	15
181.17178	12
186.02652	23
186.05165	10
186.06923	27
187.02834	20
187.03891	54
188.04085	22
188.04999	35
189.03943	19
189.05315	12
197.0641	9
198.07829	11
199.07359	10
201.06032	9
202.0645	9
202.08488	15
203.05649	27
203.07091	259
204.07446	70
205.04832	154
205.05643	76
206.04373	14
206.05479	23
212.04065	10
217.07204	14
219.0656	12
221.08116	61
222.0701	9
222.09007	18
227.06786	31
228.08485	12
229.04475	20
230.04349	12
231.01776	10
239.75198	25
240.77823	12
245.08138	283
245.0979	50
246.07196	35
246.08893	77
246.10634	11
247.05664	53
247.06677	29
259.06696	13
260.07657	10
271.06226	19
289.07089	1000

NAME: Quercetin-3-O-rutinoside
PRECURSORMZ: 609.14610844783
PRECURSORTYPE: [M-H]-
INSTRUMENTTYPE: LC-ESI-QTOF
SMILES: CC1OC(OCC2OC(OC3=C(OC4=CC(O)=CC(O)=C4C3=O)C3=CC(O)=C(O)C=C3)C(O)C(O)C2O)C(O)C(O)C1O
INCHIKEY: IKGXIBQEEMLURG-UHFFFAOYNA-N
Ontology: Flavonoid-3-O-glycosides
COLLISIONENERGY: 10
FORMULA: C27H30O16
RETENTIONTIME: 3.862367
IONMODE: Negative
Comment: registered in RIKEN PlaSMA
Num Peaks: 16
151.00056	20
178.99519	7
229.04884	6
255.0265	30
256.03647	6
271.02023	59
271.03433	9
272.02124	6
283.02838	5
299.01883	16
300.02576	421
301.03333	261
302.03534	58
303.04138	8
608.11725	5
609.1441	1000

NAME: Naringenin-7-O-glucoside
PRECURSORMZ: 433.11402044783
PRECURSORTYPE: [M-H]-
INSTRUMENTTYPE: LC-ESI-QTOF
SMILES: OCC1OC(OC2=CC(O)=C3C(=O)CC(OC3=C2)C2=CC=C(O)C=C2)C(O)C(O)C1O
INCHIKEY: DLIKSSGEMUFQOK-UHFFFAOYNA-N
Ontology: Flavonoid-7-O-glycosides
COLLISIONENERGY: 10
FORMULA: C21H22O10
RETENTIONTIME: 4.5225
IONMODE: Negative
Comment: registered in RIKEN PlaSMA
Num Peaks: 18
93.03349	13
107.01437	16
119.04847	92
145.02646	8
151.00246	218
152.00366	24
164.00954	5
174.99988	8
177.01605	29
193.01407	8
194.0162	6
271.06128	1000
272.06415	176
273.06366	24
295.06461	8
313.06375	7
314.06659	5
433.11432	38

NAME: Acacetin-7-O-neohesperidoside
PRECURSORMZ: 591.17192924783
PRECURSORTYPE: [M-H]-
INSTRUMENTTYPE: LC-ESI-QTOF
SMILES: COC1=CC=C(C=C1)C1=CC(=O)C2=C(O)C=C(OC3OC(CO)C(O)C(O)C3OC3OC(C)C(O)C(O)C3O)C=C2O1
INCHIKEY: MLWDGPFGTFOLRJ-UHFFFAOYNA-N
Ontology: Flavonoid-7-O-glycosides
COLLISIONENERGY: 10
FORMULA: C28H32O14
RETENTIONTIME: 5.268017
IONMODE: Negative
Comment: registered in RIKEN PlaSMA
Num Peaks: 13
59.01318	7
205.07236	12
247.07954	9
268.03619	155
269.04349	38
270.03448	15
283.06052	1000
284.06265	205
285.06454	24
325.07141	10
325.086	6
471.13303	19
591.17188	250

NAME: isoliquiritigenin
PRECURSORMZ: 255.06628244783
PRECURSORTYPE: [M-H]-
INSTRUMENTTYPE: LC-ESI-QTOF
SMILES: OC1=CC=C(C=CC(=O)C2=C(O)C=C(O)C=C2)C=C1
INCHIKEY: DXDRHHKMWQZJHT-UHFFFAOYSA-N
Ontology: 2'-Hydroxychalcones
COLLISIONENERGY: 10
FORMULA: C15H12O4
RETENTIONTIME: 6.4292
IONMODE: Negative
Comment: registered in RIKEN PlaSMA
Num Peaks: 13
77.26306	7
91.01782	101
119.04829	1000
120.05088	78
135.00635	759
136.00955	65
137.01495	7
145.0293	9
148.01189	13
149.02229	14
169.06326	8
213.04836	7
255.06372	507

NAME: (-)-Epicatechin
PRECURSORMZ: 289.07176174783
PRECURSORTYPE: [M-H]-
INSTRUMENTTYPE: LC-ESI-QTOF
SMILES: OC1CC2=C(O)C=C(O)C=C2OC1C1=CC(O)=C(O)C=C1
INCHIKEY: PFTAWBLQPZVEMU-UHFFFAOYNA-N
Ontology: Catechins
COLLISIONENERGY: 10
FORMULA: C15H14O6
RETENTIONTIME: 3.429833
IONMODE: Negative
Comment: registered in RIKEN PlaSMA
Num Peaks: 46
97.02502	7
109.02348	6
109.03192	29
121.03078	7
123.04257	35
125.02197	41
126.0256	8
135.04039	6
137.02367	15
138.02254	6
139.03812	9
149.02132	18
150.0303	7
151.03906	25
159.04327	6
161.02026	7
161.05997	7
161.06598	10
162.03081	7
162.06119	5
165.01573	27
165.02376	6
167.03447	16
175.03317	7
175.07091	5
179.03142	82
187.04379	19
188.04503	25
199.07285	6
202.06116	5
202.07007	7
203.06908	97
205.04924	103
205.07735	6
206.05019	20
206.05907	5
221.0842	11
227.06688	12
227.0759	15
228.0813	8
231.01883	9
245.08151	363
246.08592	56
247.0594	6
271.05817	22
289.06918	1000

NAME: Quercetin-3-O-rutinoside
PRECURSORMZ: 609.14610844783
PRECURSORTYPE: [M-H]-
INSTRUMENTTYPE: LC-ESI-QTOF
SMILES: CC1OC(OCC2OC(OC3=C(OC4=CC(O)=CC(O)=C4C3=O)C3=CC(O)=C(O)C=C3)C(O)C(O)C2O)C(O)C(O)C1O
INCHIKEY: IKGXIBQEEMLURG-UHFFFAOYNA-N
Ontology: Flavonoid-3-O-glycosides
COLLISIONENERGY: 10
FORMULA: C27H30O16
RETENTIONTIME: 3.862367
IONMODE: Negative
Comment: registered in RIKEN PlaSMA
Num Peaks: 5
301.03448	16
607.12335	12
608.13751	19
608.16034	5
609.14764	1000

NAME: Naringenin-7-O-glucoside
PRECURSORMZ: 433.11402044783
PRECURSORTYPE: [M-H]-
INSTRUMENTTYPE: LC-ESI-QTOF
SMILES: OCC1OC(OC2=CC(O)=C3C(=O)CC(OC3=C2)C2=CC=C(O)C=C2)C(O)C(O)C1O
INCHIKEY: DLIKSSGEMUFQOK-UHFFFAOYNA-N
Ontology: Flavonoid-7-O-glycosides
COLLISIONENERGY: 10
FORMULA: C21H22O10
RETENTIONTIME: 4.5225
IONMODE: Negative
Comment: registered in RIKEN PlaSMA
Num Peaks: 7
151.00543	5
271.05954	1000
272.06384	178
273.07071	21
295.06015	11
313.07062	17
433.11441	88

NAME: Acacetin-7-O-neohesperidoside
PRECURSORMZ: 591.17192924783
PRECURSORTYPE: [M-H]-
INSTRUMENTTYPE: LC-ESI-QTOF
SMILES: COC1=CC=C(C=C1)C1=CC(=O)C2=C(O)C=C(OC3OC(CO)C(O)C(O)C3OC3OC(C)C(O)C(O)C3O)C=C2O1
INCHIKEY: MLWDGPFGTFOLRJ-UHFFFAOYNA-N
Ontology: Flavonoid-7-O-glycosides
COLLISIONENERGY: 10
FORMULA: C28H32O14
RETENTIONTIME: 5.268017
IONMODE: Negative
Comment: registered in RIKEN PlaSMA
Num Peaks: 15
163.0578	15
205.0656	8
247.08699	6
282.97702	6
283.0593	583
284.06461	74
325.0607	6
325.0733	21
356.08652	7
367.09088	9
393.50854	6
429.11386	8
451.63046	10
471.13562	18
591.17291	1000

NAME: isoliquiritigenin
PRECURSORMZ: 255.06628244783
PRECURSORTYPE: [M-H]-
INSTRUMENTTYPE: LC-ESI-QTOF
SMILES: OC1=CC=C(C=CC(=O)C2=C(O)C=C(O)C=C2)C=C1
INCHIKEY: DXDRHHKMWQZJHT-UHFFFAOYSA-N
Ontology: 2'-Hydroxychalcones
COLLISIONENERGY: 10
FORMULA: C15H12O4
RETENTIONTIME: 6.4292
IONMODE: Negative
Comment: registered in RIKEN PlaSMA
Num Peaks: 7
91.01703	7
119.04848	263
120.05199	37
135.00673	660
136.01083	61
149.02338	6
255.06375	1000

NAME: (-)-Epicatechin
PRECURSORMZ: 289.07176174783
PRECURSORTYPE: [M-H]-
INSTRUMENTTYPE: LC-ESI-QTOF
SMILES: OC1CC2=C(O)C=C(O)C=C2OC1C1=CC(O)=C(O)C=C1
INCHIKEY: PFTAWBLQPZVEMU-UHFFFAOYNA-N
Ontology: Catechins
COLLISIONENERGY: 30
FORMULA: C15H14O6
RETENTIONTIME: 3.429833
IONMODE: Negative
Comment: registered in RIKEN PlaSMA
Num Peaks: 98
81.02889	52
83.00947	17
83.0154	89
93.03439	172
95.05027	131
96.05284	38
97.02758	111
97.033	61
105.02936	31
105.03917	20
106.64793	48
107.0509	31
108.01944	49
108.02364	26
109.02688	743
110.03333	99
111.03764	21
115.05212	27
118.03748	27
120.01714	42
121.02533	212
121.03225	60
122.02426	22
122.03636	200
123.03188	22
123.04468	1000
124.012	44
124.04552	94
125.02208	196
131.04793	36
133.06512	24
135.04424	75
136.01596	44
137.022	256
138.02248	40
138.03146	180
138.03961	59
139.03741	28
143.05663	22
145.0256	110
145.03758	76
145.07243	21
146.02811	23
146.03621	21
147.04231	51
147.0809	37
148.05013	54
149.01991	44
149.03075	27
150.0325	186
151.03522	233
151.04512	64
157.06487	63
158.02794	26
159.03885	77
159.04573	232
159.086	38
160.04613	19
160.05438	81
161.02646	24
161.0574	56
161.06552	26
162.03134	145
162.05478	33
163.03839	87
164.00958	92
164.01596	69
164.02527	47
164.04988	20
165.01738	53
169.03035	21
169.0385	42
173.05803	66
174.02711	64
174.0695	62
175.07141	49
175.08035	89
176.03831	58
176.58556	38
177.04962	27
177.05797	37
183.04478	20
185.0631	102
186.02603	72
187.03769	89
188.04503	64
198.06238	26
201.05721	102
202.05841	57
203.06229	52
203.07112	74
212.04552	22
213.04233	23
225.04849	22
226.0777	27
227.07033	41
230.05754	31
242.0563	33

NAME: Quercetin-3-O-rutinoside
PRECURSORMZ: 609.14610844783
PRECURSORTYPE: [M-H]-
INSTRUMENTTYPE: LC-ESI-QTOF
SMILES: CC1OC(OCC2OC(OC3=C(OC4=CC(O)=CC(O)=C4C3=O)C3=CC(O)=C(O)C=C3)C(O)C(O)C2O)C(O)C(O)C1O
INCHIKEY: IKGXIBQEEMLURG-UHFFFAOYNA-N
Ontology: Flavonoid-3-O-glycosides
COLLISIONENERGY: 30
FORMULA: C27H30O16
RETENTIONTIME: 3.862367
IONMODE: Negative
Comment: registered in RIKEN PlaSMA
Num Peaks: 21
150.99796	19
151.00534	21
178.99611	32
191.03484	5
229.01248	6
255.01816	10
255.02716	31
256.03525	6
271.0192	62
272.02438	9
283.02344	9
299.01035	8
300.02533	1000
301.03061	582
302.01132	5
302.03363	105
303.02847	6
303.04172	5
343.04547	12
609.10846	6
609.14111	90

NAME: Naringenin-7-O-glucoside
PRECURSORMZ: 433.11402044783
PRECURSORTYPE: [M-H]-
INSTRUMENTTYPE: LC-ESI-QTOF
SMILES: OCC1OC(OC2=CC(O)=C3C(=O)CC(OC3=C2)C2=CC=C(O)C=C2)C(O)C(O)C1O
INCHIKEY: DLIKSSGEMUFQOK-UHFFFAOYNA-N
Ontology: Flavonoid-7-O-glycosides
COLLISIONENERGY: 30
FORMULA: C21H22O10
RETENTIONTIME: 4.5225
IONMODE: Negative
Comment: registered in RIKEN PlaSMA
Num Peaks: 52
64.99991	6
66.52589	8
83.01166	8
87.21247	5
93.03198	54
94.04023	5
107.01259	45
119.04871	343
120.05	21
120.05752	8
121.0184	5
121.02782	13
125.02281	28
125.02898	12
131.015	6
145.02319	6
149.02037	5
150.78407	7
151.00168	1000
151.03229	6
152.00047	41
152.0079	51
153.00941	15
157.6123	6
164.01317	36
165.01732	43
165.02357	14
172.97464	6
174.99878	26
175.00563	20
177.0154	112
177.02394	32
178.01738	5
185.05432	12
187.0412	6
187.06148	8
193.0164	30
193.0242	7
202.0582	6
221.7946	5
227.06908	40
228.06802	5
266.06732	6
268.03033	5
269.03378	7
271.05795	670
272.06055	101
272.07486	9
274.07159	7
295.05893	5
313.07263	5
325.8143	5

NAME: Acacetin-7-O-neohesperidoside
PRECURSORMZ: 591.17192924783
PRECURSORTYPE: [M-H]-
INSTRUMENTTYPE: LC-ESI-QTOF
SMILES: COC1=CC=C(C=C1)C1=CC(=O)C2=C(O)C=C(OC3OC(CO)C(O)C(O)C3OC3OC(C)C(O)C(O)C3O)C=C2O1
INCHIKEY: MLWDGPFGTFOLRJ-UHFFFAOYNA-N
Ontology: Flavonoid-7-O-glycosides
COLLISIONENERGY: 30
FORMULA: C28H32O14
RETENTIONTIME: 5.268017
IONMODE: Negative
Comment: registered in RIKEN PlaSMA
Num Peaks: 8
267.05783	6
268.03641	110
269.03613	16
283.05917	1000
284.0618	133
285.06744	9
325.06665	7
591.18024	20

NAME: Acacetin-7-O-neohesperidoside
PRECURSORMZ: 637.17740855183
PRECURSORTYPE: [M+FA-H]-
INSTRUMENTTYPE: LC-ESI-QTOF
SMILES: COC1=CC=C(C=C1)C1=CC(=O)C2=C(O)C=C(OC3OC(CO)C(O)C(O)C3OC3OC(C)C(O)C(O)C3O)C=C2O1
INCHIKEY: MLWDGPFGTFOLRJ-UHFFFAOYNA-N
Ontology: Flavonoid-7-O-glycosides
COLLISIONENERGY: 30
FORMULA: C28H32O14
RETENTIONTIME: 5.268017
IONMODE: Negative
Comment: registered in RIKEN PlaSMA
Num Peaks: 12
59.01584	6
115.04105	15
163.06262	5
268.03555	16
283.06003	1000
284.06229	126
285.06613	18
286.06958	8
297.07977	8
305.09174	5
323.05972	5
326.09329	6

NAME: isoliquiritigenin
PRECURSORMZ: 255.06628244783
PRECURSORTYPE: [M-H]-
INSTRUMENTTYPE: LC-ESI-QTOF
SMILES: OC1=CC=C(C=CC(=O)C2=C(O)C=C(O)C=C2)C=C1
INCHIKEY: DXDRHHKMWQZJHT-UHFFFAOYSA-N
Ontology: 2'-Hydroxychalcones
COLLISIONENERGY: 30
FORMULA: C15H12O4
RETENTIONTIME: 6.4292
IONMODE: Negative
Comment: registered in RIKEN PlaSMA
Num Peaks: 7
91.01796	160
92.02057	12
93.03077	7
119.0491	1000
120.05255	70
135.00912	69
169.06459	11

NAME: (-)-Epicatechin
PRECURSORMZ: 289.07176174783
PRECURSORTYPE: [M-H]-
INSTRUMENTTYPE: LC-ESI-QTOF
SMILES: OC1CC2=C(O)C=C(O)C=C2OC1C1=CC(O)=C(O)C=C1
INCHIKEY: PFTAWBLQPZVEMU-UHFFFAOYNA-N
Ontology: Catechins
COLLISIONENERGY: 50
FORMULA: C15H14O6
RETENTIONTIME: 3.429833
IONMODE: Negative
Comment: registered in RIKEN PlaSMA
Num Peaks: 24
69.0338	383
83.0139	213
93.03111	351
93.03853	468
94.03903	298
106.03625	330
108.0206	681
109.02382	681
109.03368	479
110.02964	213
121.0308	245
122.03152	511
123.00587	255
123.04301	1000
129.03204	287
130.02982	255
135.04192	468
141.032	245
141.03737	319
147.043	266
161.02502	213
172.05476	277
187.02628	287
187.03621	191

NAME: Quercetin-3-O-rutinoside
PRECURSORMZ: 609.14610844783
PRECURSORTYPE: [M-H]-
INSTRUMENTTYPE: LC-ESI-QTOF
SMILES: CC1OC(OCC2OC(OC3=C(OC4=CC(O)=CC(O)=C4C3=O)C3=CC(O)=C(O)C=C3)C(O)C(O)C2O)C(O)C(O)C1O
INCHIKEY: IKGXIBQEEMLURG-UHFFFAOYNA-N
Ontology: Flavonoid-3-O-glycosides
COLLISIONENERGY: 50
FORMULA: C27H30O16
RETENTIONTIME: 3.862367
IONMODE: Negative
Comment: registered in RIKEN PlaSMA
Num Peaks: 73
107.01192	31
108.01878	28
109.02776	9
119.01564	9
121.02222	8
121.02889	20
135.01303	5
136.01585	9
137.02095	10
143.04417	6
145.02635	6
147.04361	8
148.01639	16
148.94188	7
149.02325	8
151.00244	213
151.82849	5
152.00435	14
158.06216	5
160.05432	8
161.02019	9
163.00134	31
163.0094	13
164.0052	8
164.01364	6
165.02342	11
171.04263	8
172.04135	10
178.9982	72
187.03815	14
189.02252	8
198.03133	9
201.0504	13
202.05502	5
205.75935	5
211.04102	41
215.03055	8
216.04137	13
217.04457	10
226.02457	28
227.02858	20
227.0403	20
228.44928	7
229.0515	32
231.02612	7
239.03915	11
240.03603	8
242.02148	19
242.03503	6
243.02791	183
244.02763	6
244.03758	13
245.04901	24
254.02454	25
255.02875	437
256.03036	112
257.0368	19
258.04019	5
259.02966	5
269.01215	5
271.02396	1000
272.02124	100
272.03299	89
273.03116	37
283.02298	10
284.01953	7
284.03531	6
299.00827	7
299.022	21
300.026	445
301.03217	111
303.03281	10
573.47247	6

NAME: Naringenin-7-O-glucoside
PRECURSORMZ: 433.11402044783
PRECURSORTYPE: [M-H]-
INSTRUMENTTYPE: LC-ESI-QTOF
SMILES: OCC1OC(OC2=CC(O)=C3C(=O)CC(OC3=C2)C2=CC=C(O)C=C2)C(O)C(O)C1O
INCHIKEY: DLIKSSGEMUFQOK-UHFFFAOYNA-N
Ontology: Flavonoid-7-O-glycosides
COLLISIONENERGY: 50
FORMULA: C21H22O10
RETENTIONTIME: 4.5225
IONMODE: Negative
Comment: registered in RIKEN PlaSMA
Num Peaks: 39
63.02189	11
65.00141	92
80.02159	23
83.01215	64
93.03385	33
93.03733	76
107.01067	204
108.01673	13
109.03057	15
116.05509	14
117.03367	29
119.04742	1000
120.05255	119
121.05627	32
129.04065	10
130.03906	15
131.0114	11
132.31401	10
136.01585	14
142.03368	13
143.05161	11
145.02692	43
146.03609	10
151.00165	251
152.00766	23
153.01764	13
157.06308	10
159.08778	11
161.06194	35
165.01985	23
177.01912	85
180.0536	13
182.06033	10
185.06554	24
187.04028	117
199.07155	23
209.0563	10
224.04301	12
230.84286	10

NAME: Acacetin-7-O-neohesperidoside
PRECURSORMZ: 591.17192924783
PRECURSORTYPE: [M-H]-
INSTRUMENTTYPE: LC-ESI-QTOF
SMILES: COC1=CC=C(C=C1)C1=CC(=O)C2=C(O)C=C(OC3OC(CO)C(O)C(O)C3OC3OC(C)C(O)C(O)C3O)C=C2O1
INCHIKEY: MLWDGPFGTFOLRJ-UHFFFAOYNA-N
Ontology: Flavonoid-7-O-glycosides
COLLISIONENERGY: 50
FORMULA: C28H32O14
RETENTIONTIME: 5.268017
IONMODE: Negative
Comment: registered in RIKEN PlaSMA
Num Peaks: 15
107.01203	5
142.03647	7
149.99532	5
211.03629	15
212.04866	8
212.89041	5
239.03404	23
240.03825	8
268.03571	1000
269.04031	191
270.04788	35
282.04684	5
283.0621	147
284.06281	22
285.06436	8

NAME: Acacetin-7-O-neohesperidoside
PRECURSORMZ: 637.17740855183
PRECURSORTYPE: [M+FA-H]-
INSTRUMENTTYPE: LC-ESI-QTOF
SMILES: COC1=CC=C(C=C1)C1=CC(=O)C2=C(O)C=C(OC3OC(CO)C(O)C(O)C3OC3OC(C)C(O)C(O)C3O)C=C2O1
INCHIKEY: MLWDGPFGTFOLRJ-UHFFFAOYNA-N
Ontology: Flavonoid-7-O-glycosides
COLLISIONENERGY: 50
FORMULA: C28H32O14
RETENTIONTIME: 5.268017
IONMODE: Negative
Comment: registered in RIKEN PlaSMA
Num Peaks: 21
89.02222	9
117.03075	9
145.64503	14
157.02287	9
239.06703	8
268.03625	1000
269.03415	91
269.04645	103
270.04877	8
271.03528	12
278.10806	14
279.06552	14
283.05997	695
284.04938	11
284.06775	63
285.06598	26
285.09732	9
286.07574	12
290.19598	8
306.99857	17
310.05771	9

NAME: isoliquiritigenin
PRECURSORMZ: 255.06628244783
PRECURSORTYPE: [M-H]-
INSTRUMENTTYPE: LC-ESI-QTOF
SMILES: OC1=CC=C(C=CC(=O)C2=C(O)C=C(O)C=C2)C=C1
INCHIKEY: DXDRHHKMWQZJHT-UHFFFAOYSA-N
Ontology: 2'-Hydroxychalcones
COLLISIONENERGY: 50
FORMULA: C15H12O4
RETENTIONTIME: 6.4292
IONMODE: Negative
Comment: registered in RIKEN PlaSMA
Num Peaks: 10
64.99825	13
91.01939	69
91.0519	17
92.99819	16
93.03382	174
94.04018	15
117.03211	75
119.04866	1000
120.05076	128
167.05505	17

NAME: (-)-Epicatechin
PRECURSORMZ: 289.07176174783
PRECURSORTYPE: [M-H]-
INSTRUMENTTYPE: LC-ESI-QTOF
SMILES: OC1CC2=C(O)C=C(O)C=C2OC1C1=CC(O)=C(O)C=C1
INCHIKEY: PFTAWBLQPZVEMU-UHFFFAOYNA-N
Ontology: Catechins
COLLISIONENERGY: 10
FORMULA: C15H14O6
RETENTIONTIME: 3.429833
IONMODE: Negative
Comment: registered in RIKEN PlaSMA
Num Peaks: 112
51.02081	10
73.43335	13
81.03307	34
90.92653	15
93.03024	12
95.04602	41
96.04991	9
97.02393	28
97.03043	29
104.32224	10
108.02331	28
109.027	147
109.03203	55
110.0304	13
111.03191	12
115.05457	9
117.02616	10
117.03281	20
119.048	14
121.02942	21
122.03941	44
123.04356	178
124.04719	34
125.02171	329
126.02998	18
133.06599	10
135.04088	27
135.04626	25
137.02251	186
138.02856	39
139.0354	43
139.04266	11
139.21722	19
145.0287	22
146.02632	10
146.0347	25
146.06361	11
147.04208	21
149.01933	29
149.05792	14
151.03819	137
152.04381	13
157.06512	23
157.0724	9
159.04163	27
159.05069	28
159.07877	14
160.03967	10
161.01979	29
161.05377	35
161.06372	11
162.0321	46
162.06859	14
163.03685	11
164.01155	88
164.04617	11
165.01068	11
165.02057	55
165.14044	14
167.0311	47
167.04192	16
173.05222	13
173.05885	19
175.03191	12
175.04253	23
177.04951	10
177.13605	9
179.03482	172
180.03119	12
180.04124	13
181.05589	9
183.04117	10
184.04973	23
185.05527	40
186.05478	13
187.03549	84
187.04788	13
188.04597	101
189.04558	26
201.05821	13
202.05078	18
202.05919	11
202.07121	18
203.06456	178
203.07362	104
204.07475	34
205.04829	197
206.05132	33
207.05913	10
211.73674	11
215.07281	9
217.05103	9
221.08081	28
222.07809	13
227.0645	21
227.07352	28
230.06334	21
231.02995	10
232.03993	12
245.03296	10
245.04752	10
245.08066	351
246.07462	11
246.0876	44
247.05576	22
247.0639	27
247.08374	9
250.84862	10
271.06607	42
287.05133	15
288.06027	14
289.07175	1000

NAME: Quercetin-3-O-rutinoside
PRECURSORMZ: 609.14610844783
PRECURSORTYPE: [M-H]-
INSTRUMENTTYPE: LC-ESI-QTOF
SMILES: CC1OC(OCC2OC(OC3=C(OC4=CC(O)=CC(O)=C4C3=O)C3=CC(O)=C(O)C=C3)C(O)C(O)C2O)C(O)C(O)C1O
INCHIKEY: IKGXIBQEEMLURG-UHFFFAOYNA-N
Ontology: Flavonoid-3-O-glycosides
COLLISIONENERGY: 10
FORMULA: C27H30O16
RETENTIONTIME: 3.862367
IONMODE: Negative
Comment: registered in RIKEN PlaSMA
Num Peaks: 19
151.00262	26
163.00113	8
178.99425	33
255.02582	44
271.02386	88
272.0249	12
272.0365	10
273.03809	8
299.01865	9
300.02539	526
301.03311	362
301.06534	6
302.03461	50
302.04733	21
303.04321	9
344.05179	6
607.12323	6
607.1391	7
609.14545	1000

NAME: Naringenin-7-O-glucoside
PRECURSORMZ: 433.11402044783
PRECURSORTYPE: [M-H]-
INSTRUMENTTYPE: LC-ESI-QTOF
SMILES: OCC1OC(OC2=CC(O)=C3C(=O)CC(OC3=C2)C2=CC=C(O)C=C2)C(O)C(O)C1O
INCHIKEY: DLIKSSGEMUFQOK-UHFFFAOYNA-N
Ontology: Flavonoid-7-O-glycosides
COLLISIONENERGY: 10
FORMULA: C21H22O10
RETENTIONTIME: 4.5225
IONMODE: Negative
Comment: registered in RIKEN PlaSMA
Num Peaks: 17
93.03188	15
119.04835	72
119.05804	9
120.05394	6
151.00092	229
165.0154	13
174.99947	21
177.01768	30
193.00444	7
271.05893	1000
272.06122	158
272.08423	6
273.06552	33
295.0686	6
313.06573	18
433.0907	5
433.11121	25

NAME: Acacetin-7-O-neohesperidoside
PRECURSORMZ: 591.17192924783
PRECURSORTYPE: [M-H]-
INSTRUMENTTYPE: LC-ESI-QTOF
SMILES: COC1=CC=C(C=C1)C1=CC(=O)C2=C(O)C=C(OC3OC(CO)C(O)C(O)C3OC3OC(C)C(O)C(O)C3O)C=C2O1
INCHIKEY: MLWDGPFGTFOLRJ-UHFFFAOYNA-N
Ontology: Flavonoid-7-O-glycosides
COLLISIONENERGY: 10
FORMULA: C28H32O14
RETENTIONTIME: 5.268017
IONMODE: Negative
Comment: registered in RIKEN PlaSMA
Num Peaks: 18
196.04893	5
205.06705	7
267.06076	7
268.03464	177
269.03891	14
270.03598	7
283.05945	1000
284.06143	173
285.06485	17
286.05136	5
325.0629	11
325.0787	5
326.0618	7
326.07651	6
471.12936	5
471.14319	6
472.12241	6
591.16656	207

NAME: isoliquiritigenin
PRECURSORMZ: 255.06628244783
PRECURSORTYPE: [M-H]-
INSTRUMENTTYPE: LC-ESI-QTOF
SMILES: OC1=CC=C(C=CC(=O)C2=C(O)C=C(O)C=C2)C=C1
INCHIKEY: DXDRHHKMWQZJHT-UHFFFAOYSA-N
Ontology: 2'-Hydroxychalcones
COLLISIONENERGY: 10
FORMULA: C15H12O4
RETENTIONTIME: 6.4292
IONMODE: Negative
Comment: registered in RIKEN PlaSMA
Num Peaks: 14
91.01685	131
92.0204	16
93.02369	5
93.0312	6
109.02788	5
119.04794	1000
120.05147	107
135.007	882
136.01105	89
137.01212	6
145.02864	8
149.02411	12
213.05505	5
255.06415	483

NAME: (-)-Epicatechin
PRECURSORMZ: 289.07176174783
PRECURSORTYPE: [M-H]-
INSTRUMENTTYPE: LC-ESI-QTOF
SMILES: OC1CC2=C(O)C=C(O)C=C2OC1C1=CC(O)=C(O)C=C1
INCHIKEY: PFTAWBLQPZVEMU-UHFFFAOYNA-N
Ontology: Catechins
COLLISIONENERGY: 10
FORMULA: C15H14O6
RETENTIONTIME: 3.429833
IONMODE: Negative
Comment: registered in RIKEN PlaSMA
Num Peaks: 41
109.0273	38
123.04055	13
125.02283	66
126.02293	12
135.04405	6
137.02113	63
138.02426	6
142.13632	10
143.04448	7
149.01834	6
151.04045	27
159.04214	6
161.05994	36
162.03178	19
165.0098	7
165.01593	13
166.02672	9
175.03165	7
175.0721	8
179.03305	64
180.03557	6
187.04066	26
188.04556	15
201.08296	6
202.06306	12
203.06909	104
204.07533	6
205.04787	116
206.0535	9
217.08177	13
227.06894	15
231.03271	7
245.0799	334
246.08185	23
247.06755	6
247.08849	13
259.05933	5
271.05978	9
278.73709	7
287.04568	5
289.06958	1000

NAME: Quercetin-3-O-rutinoside
PRECURSORMZ: 609.14610844783
PRECURSORTYPE: [M-H]-
INSTRUMENTTYPE: LC-ESI-QTOF
SMILES: CC1OC(OCC2OC(OC3=C(OC4=CC(O)=CC(O)=C4C3=O)C3=CC(O)=C(O)C=C3)C(O)C(O)C2O)C(O)C(O)C1O
INCHIKEY: IKGXIBQEEMLURG-UHFFFAOYNA-N
Ontology: Flavonoid-3-O-glycosides
COLLISIONENERGY: 10
FORMULA: C27H30O16
RETENTIONTIME: 3.862367
IONMODE: Negative
Comment: registered in RIKEN PlaSMA
Num Peaks: 3
301.03333	11
608.13306	20
609.14673	1000

NAME: Naringenin-7-O-glucoside
PRECURSORMZ: 433.11402044783
PRECURSORTYPE: [M-H]-
INSTRUMENTTYPE: LC-ESI-QTOF
SMILES: OCC1OC(OC2=CC(O)=C3C(=O)CC(OC3=C2)C2=CC=C(O)C=C2)C(O)C(O)C1O
INCHIKEY: DLIKSSGEMUFQOK-UHFFFAOYNA-N
Ontology: Flavonoid-7-O-glycosides
COLLISIONENERGY: 10
FORMULA: C21H22O10
RETENTIONTIME: 4.5225
IONMODE: Negative
Comment: registered in RIKEN PlaSMA
Num Peaks: 7
271.05969	1000
272.06296	177
273.0657	18
295.05884	9
313.05142	7
313.07706	8
433.11044	97

NAME: Acacetin-7-O-neohesperidoside
PRECURSORMZ: 591.17192924783
PRECURSORTYPE: [M-H]-
INSTRUMENTTYPE: LC-ESI-QTOF
SMILES: COC1=CC=C(C=C1)C1=CC(=O)C2=C(O)C=C(OC3OC(CO)C(O)C(O)C3OC3OC(C)C(O)C(O)C3O)C=C2O1
INCHIKEY: MLWDGPFGTFOLRJ-UHFFFAOYNA-N
Ontology: Flavonoid-7-O-glycosides
COLLISIONENERGY: 10
FORMULA: C28H32O14
RETENTIONTIME: 5.268017
IONMODE: Negative
Comment: registered in RIKEN PlaSMA
Num Peaks: 15
103.03582	6
163.06223	22
198.45197	5
283.05865	584
284.06277	66
285.05811	11
325.06421	19
325.08105	10
326.07843	5
445.11316	9
471.11313	7
471.12665	8
471.14108	6
534.57501	10
591.17273	1000

NAME: Acacetin-7-O-neohesperidoside
PRECURSORMZ: 637.17740855183
PRECURSORTYPE: [M+FA-H]-
INSTRUMENTTYPE: LC-ESI-QTOF
SMILES: COC1=CC=C(C=C1)C1=CC(=O)C2=C(O)C=C(OC3OC(CO)C(O)C(O)C3OC3OC(C)C(O)C(O)C3O)C=C2O1
INCHIKEY: MLWDGPFGTFOLRJ-UHFFFAOYNA-N
Ontology: Flavonoid-7-O-glycosides
COLLISIONENERGY: 10
FORMULA: C28H32O14
RETENTIONTIME: 5.268017
IONMODE: Negative
Comment: registered in RIKEN PlaSMA
Num Peaks: 20
283.056	19
283.06537	49
283.07901	11
284.06018	7
313.95645	7
316.55356	6
385.08731	10
410.35941	7
415.08652	8
420.75397	11
461.49628	6
490.24612	6
539.80841	5
591.17316	1000
592.17053	233
592.1861	192
593.16077	9
593.18506	53
594.17627	12
637.17688	168

NAME: isoliquiritigenin
PRECURSORMZ: 255.06628244783
PRECURSORTYPE: [M-H]-
INSTRUMENTTYPE: LC-ESI-QTOF
SMILES: OC1=CC=C(C=CC(=O)C2=C(O)C=C(O)C=C2)C=C1
INCHIKEY: DXDRHHKMWQZJHT-UHFFFAOYSA-N
Ontology: 2'-Hydroxychalcones
COLLISIONENERGY: 10
FORMULA: C15H12O4
RETENTIONTIME: 6.4292
IONMODE: Negative
Comment: registered in RIKEN PlaSMA
Num Peaks: 6
119.04858	252
120.05294	16
135.00714	619
136.01024	50
161.02252	5
255.06461	1000

NAME: (-)-Epicatechin
PRECURSORMZ: 289.07176174783
PRECURSORTYPE: [M-H]-
INSTRUMENTTYPE: LC-ESI-QTOF
SMILES: OC1CC2=C(O)C=C(O)C=C2OC1C1=CC(O)=C(O)C=C1
INCHIKEY: PFTAWBLQPZVEMU-UHFFFAOYNA-N
Ontology: Catechins
COLLISIONENERGY: 30
FORMULA: C15H14O6
RETENTIONTIME: 3.429833
IONMODE: Negative
Comment: registered in RIKEN PlaSMA
Num Peaks: 93
67.05672	30
69.03542	32
72.05033	34
79.01778	35
81.03506	90
83.01462	106
83.19475	24
85.02444	41
93.03207	98
95.01329	55
95.0474	55
95.05401	52
97.02864	252
98.0373	26
99.04467	24
105.02962	24
108.02059	89
109.02769	909
110.03082	30
117.03011	26
121.02632	198
122.03798	211
123.00961	28
123.04409	1000
124.01845	29
124.0472	24
125.0223	371
131.04668	30
133.06232	35
135.03697	22
135.04204	83
135.04961	41
136.04822	22
137.02217	155
137.02878	120
138.02821	52
138.03389	34
145.03052	158
146.03061	24
146.03917	106
149.02365	146
149.06238	31
150.03006	175
151.02068	47
151.03867	184
152.04376	28
153.05954	22
157.06781	22
159.04099	204
160.04932	22
160.05655	24
161.02003	35
161.05733	205
162.02487	22
162.03746	143
164.0123	161
165.01967	91
170.03552	32
171.03854	25
171.07858	23
172.05299	31
173.05637	112
174.02617	31
174.0735	49
175.04019	191
175.08022	98
176.08118	66
177.04753	50
177.0554	90
177.09155	26
179.0677	28
184.05577	32
185.05136	26
186.06683	23
187.04074	76
187.04698	30
187.07802	24
188.04829	52
189.05969	38
199.06932	28
200.04698	30
201.05525	107
202.05612	104
202.06575	64
203.07413	115
205.04822	59
209.06683	26
212.04199	50
217.05457	22
221.07408	58
221.0873	41
227.07858	26
229.05225	23

NAME: Quercetin-3-O-rutinoside
PRECURSORMZ: 609.14610844783
PRECURSORTYPE: [M-H]-
INSTRUMENTTYPE: LC-ESI-QTOF
SMILES: CC1OC(OCC2OC(OC3=C(OC4=CC(O)=CC(O)=C4C3=O)C3=CC(O)=C(O)C=C3)C(O)C(O)C2O)C(O)C(O)C1O
INCHIKEY: IKGXIBQEEMLURG-UHFFFAOYNA-N
Ontology: Flavonoid-3-O-glycosides
COLLISIONENERGY: 30
FORMULA: C27H30O16
RETENTIONTIME: 3.862367
IONMODE: Negative
Comment: registered in RIKEN PlaSMA
Num Peaks: 20
150.99864	19
151.0052	9
178.9946	35
179.00539	11
191.03371	5
242.0239	7
254.01956	10
255.02574	32
271.02753	53
272.03339	11
273.03574	8
283.01263	5
299.01688	9
300.02612	1000
301.03336	582
302.03674	111
303.03351	7
303.04214	13
343.04694	13
609.14594	89

NAME: Naringenin-7-O-glucoside
PRECURSORMZ: 433.11402044783
PRECURSORTYPE: [M-H]-
INSTRUMENTTYPE: LC-ESI-QTOF
SMILES: OCC1OC(OC2=CC(O)=C3C(=O)CC(OC3=C2)C2=CC=C(O)C=C2)C(O)C(O)C1O
INCHIKEY: DLIKSSGEMUFQOK-UHFFFAOYNA-N
Ontology: Flavonoid-7-O-glycosides
COLLISIONENERGY: 30
FORMULA: C21H22O10
RETENTIONTIME: 4.5225
IONMODE: Negative
Comment: registered in RIKEN PlaSMA
Num Peaks: 50
64.99827	7
65.01055	6
93.03184	36
105.54256	6
107.01209	75
116.47002	8
119.04785	260
119.51281	5
121.05386	5
125.02206	27
131.02034	8
135.00751	7
148.65292	8
149.01486	5
151.00186	1000
151.88576	5
152.00545	62
152.01064	21
153.01605	6
157.83694	8
164.00912	11
164.01576	10
165.01648	32
166.01562	11
174.99561	5
175.00505	17
177.01727	174
178.02194	7
179.03488	16
180.02858	8
185.0551	15
187.03787	6
188.05836	7
189.01244	5
192.10419	7
193.0127	19
205.01338	11
208.0515	6
219.03108	6
227.06651	20
241.05934	6
249.05864	6
270.04788	8
271.05008	138
271.06021	553
272.06464	81
273.07318	14
285.0813	6
295.0618	7
313.06967	7

NAME: Acacetin-7-O-neohesperidoside
PRECURSORMZ: 591.17192924783
PRECURSORTYPE: [M-H]-
INSTRUMENTTYPE: LC-ESI-QTOF
SMILES: COC1=CC=C(C=C1)C1=CC(=O)C2=C(O)C=C(OC3OC(CO)C(O)C(O)C3OC3OC(C)C(O)C(O)C3O)C=C2O1
INCHIKEY: MLWDGPFGTFOLRJ-UHFFFAOYNA-N
Ontology: Flavonoid-7-O-glycosides
COLLISIONENERGY: 30
FORMULA: C28H32O14
RETENTIONTIME: 5.268017
IONMODE: Negative
Comment: registered in RIKEN PlaSMA
Num Peaks: 7
115.04222	9
268.03363	103
283.05893	1000
283.09082	8
284.06458	183
285.05215	9
285.06473	29

NAME: Acacetin-7-O-neohesperidoside
PRECURSORMZ: 637.17740855183
PRECURSORTYPE: [M+FA-H]-
INSTRUMENTTYPE: LC-ESI-QTOF
SMILES: COC1=CC=C(C=C1)C1=CC(=O)C2=C(O)C=C(OC3OC(CO)C(O)C(O)C3OC3OC(C)C(O)C(O)C3O)C=C2O1
INCHIKEY: MLWDGPFGTFOLRJ-UHFFFAOYNA-N
Ontology: Flavonoid-7-O-glycosides
COLLISIONENERGY: 30
FORMULA: C28H32O14
RETENTIONTIME: 5.268017
IONMODE: Negative
Comment: registered in RIKEN PlaSMA
Num Peaks: 8
268.03818	24
283.05905	1000
284.06458	191
285.06125	31
296.07016	9
306.09512	5
325.08044	14
397.43695	5

NAME: isoliquiritigenin
PRECURSORMZ: 255.06628244783
PRECURSORTYPE: [M-H]-
INSTRUMENTTYPE: LC-ESI-QTOF
SMILES: OC1=CC=C(C=CC(=O)C2=C(O)C=C(O)C=C2)C=C1
INCHIKEY: DXDRHHKMWQZJHT-UHFFFAOYSA-N
Ontology: 2'-Hydroxychalcones
COLLISIONENERGY: 30
FORMULA: C15H12O4
RETENTIONTIME: 6.4292
IONMODE: Negative
Comment: registered in RIKEN PlaSMA
Num Peaks: 8
91.0174	153
92.02048	6
92.02772	6
93.03115	10
107.0116	6
119.04865	1000
120.05143	86
135.00713	63

NAME: (-)-Epicatechin
PRECURSORMZ: 289.07176174783
PRECURSORTYPE: [M-H]-
INSTRUMENTTYPE: LC-ESI-QTOF
SMILES: OC1CC2=C(O)C=C(O)C=C2OC1C1=CC(O)=C(O)C=C1
INCHIKEY: PFTAWBLQPZVEMU-UHFFFAOYNA-N
Ontology: Catechins
COLLISIONENERGY: 50
FORMULA: C15H14O6
RETENTIONTIME: 3.429833
IONMODE: Negative
Comment: registered in RIKEN PlaSMA
Num Peaks: 16
81.02918	150
95.05689	278
108.01894	135
109.02671	1000
121.02703	188
121.03304	150
121.0636	150
122.03753	579
123.04404	135
135.01273	165
137.02815	173
146.03854	241
158.03596	180
159.04709	143
175.04179	150
175.08183	135

NAME: Quercetin-3-O-rutinoside
PRECURSORMZ: 609.14610844783
PRECURSORTYPE: [M-H]-
INSTRUMENTTYPE: LC-ESI-QTOF
SMILES: CC1OC(OCC2OC(OC3=C(OC4=CC(O)=CC(O)=C4C3=O)C3=CC(O)=C(O)C=C3)C(O)C(O)C2O)C(O)C(O)C1O
INCHIKEY: IKGXIBQEEMLURG-UHFFFAOYNA-N
Ontology: Flavonoid-3-O-glycosides
COLLISIONENERGY: 50
FORMULA: C27H30O16
RETENTIONTIME: 3.862367
IONMODE: Negative
Comment: registered in RIKEN PlaSMA
Num Peaks: 68
83.01189	6
84.99067	5
107.01421	33
108.02007	17
121.02883	21
133.03029	6
135.00653	23
136.00923	5
143.04614	8
148.01276	17
149.02725	9
150.99968	93
151.00732	62
152.00183	7
152.00764	24
153.00377	6
157.06641	5
159.04422	6
163.00342	35
163.04025	11
164.0083	14
165.01407	21
175.02977	9
178.99461	48
179.00389	25
183.04138	9
183.04877	18
186.02832	9
187.04315	5
193.01283	6
199.04121	7
202.01601	5
202.02751	14
203.03546	5
211.02745	9
211.03955	16
212.04646	5
215.02669	8
215.03535	7
216.05057	7
217.041	5
227.0363	37
229.04396	11
240.04405	5
241.008	6
242.01846	23
243.03024	158
244.03107	40
245.04207	7
246.0443	7
254.01776	24
254.03102	19
255.02704	415
256.0296	66
257.0433	11
271.02322	1000
272.02621	165
273.02487	19
273.04477	13
293.01151	5
299.01755	18
300.02432	253
300.03314	112
300.05063	7
301.02209	33
301.03403	80
302.03854	13
316.36105	6

NAME: Naringenin-7-O-glucoside
PRECURSORMZ: 433.11402044783
PRECURSORTYPE: [M-H]-
INSTRUMENTTYPE: LC-ESI-QTOF
SMILES: OCC1OC(OC2=CC(O)=C3C(=O)CC(OC3=C2)C2=CC=C(O)C=C2)C(O)C(O)C1O
INCHIKEY: DLIKSSGEMUFQOK-UHFFFAOYNA-N
Ontology: Flavonoid-7-O-glycosides
COLLISIONENERGY: 50
FORMULA: C21H22O10
RETENTIONTIME: 4.5225
IONMODE: Negative
Comment: registered in RIKEN PlaSMA
Num Peaks: 53
53.83981	10
57.99922	10
63.02033	12
64.99821	21
80.02168	11
83.01003	19
83.01516	47
86.77489	10
89.03631	12
93.03277	16
93.03951	10
94.481	9
97.02953	14
107.01239	216
107.05089	15
108.01556	71
109.01798	11
117.03284	14
117.03695	35
119.0176	21
119.04863	1000
120.05205	100
121.0295	33
131.01263	11
133.034	16
136.01056	9
136.02246	14
137.01654	10
142.04599	12
143.04666	10
143.05402	15
145.02576	21
146.03123	11
148.01497	17
150.99683	137
151.0051	191
152.00647	9
152.01465	12
153.01407	17
156.05862	9
163.03284	13
164.00482	32
164.01329	9
177.00777	14
185.05345	30
187.03717	15
187.04977	15
188.03868	14
189.05516	10
201.05457	11
210.06982	17
225.05917	12
230.71477	12

NAME: Acacetin-7-O-neohesperidoside
PRECURSORMZ: 591.17192924783
PRECURSORTYPE: [M-H]-
INSTRUMENTTYPE: LC-ESI-QTOF
SMILES: COC1=CC=C(C=C1)C1=CC(=O)C2=C(O)C=C(OC3OC(CO)C(O)C(O)C3OC3OC(C)C(O)C(O)C3O)C=C2O1
INCHIKEY: MLWDGPFGTFOLRJ-UHFFFAOYNA-N
Ontology: Flavonoid-7-O-glycosides
COLLISIONENERGY: 50
FORMULA: C28H32O14
RETENTIONTIME: 5.268017
IONMODE: Negative
Comment: registered in RIKEN PlaSMA
Num Peaks: 18
64.7237	6
150.99449	7
196.04857	11
200.04771	5
217.9877	7
239.03828	7
240.0507	8
252.03934	6
268.03598	1000
269.04083	187
270.05081	30
281.03326	7
281.04413	7
282.05063	6
283.05789	139
284.04938	6
284.06454	16
473.34842	5

NAME: Acacetin-7-O-neohesperidoside
PRECURSORMZ: 637.17740855183
PRECURSORTYPE: [M+FA-H]-
INSTRUMENTTYPE: LC-ESI-QTOF
SMILES: COC1=CC=C(C=C1)C1=CC(=O)C2=C(O)C=C(OC3OC(CO)C(O)C(O)C3OC3OC(C)C(O)C(O)C3O)C=C2O1
INCHIKEY: MLWDGPFGTFOLRJ-UHFFFAOYNA-N
Ontology: Flavonoid-7-O-glycosides
COLLISIONENERGY: 50
FORMULA: C28H32O14
RETENTIONTIME: 5.268017
IONMODE: Negative
Comment: registered in RIKEN PlaSMA
Num Peaks: 22
142.85997	11
151.00694	8
239.0247	7
252.03928	8
259.96133	9
267.00156	11
268.03754	1000
268.85791	8
269.0369	129
269.04834	58
269.44739	10
269.5553	8
270.03735	9
270.05319	8
275.26147	11
283.05914	583
284.06198	33
285.06174	9
285.0755	17
286.06226	8
311.04169	8
490.38	13

NAME: isoliquiritigenin
PRECURSORMZ: 255.06628244783
PRECURSORTYPE: [M-H]-
INSTRUMENTTYPE: LC-ESI-QTOF
SMILES: OC1=CC=C(C=CC(=O)C2=C(O)C=C(O)C=C2)C=C1
INCHIKEY: DXDRHHKMWQZJHT-UHFFFAOYSA-N
Ontology: 2'-Hydroxychalcones
COLLISIONENERGY: 50
FORMULA: C15H12O4
RETENTIONTIME: 6.4292
IONMODE: Negative
Comment: registered in RIKEN PlaSMA
Num Peaks: 11
91.01831	84
91.05177	16
91.05682	16
93.03124	98
93.03748	24
94.03693	30
117.03358	88
119.04872	1000
120.05009	20
120.06106	22
169.06992	26

NAME: Quercetin-3-O-galactoside
PRECURSORMZ: 463.08819964783
PRECURSORTYPE: [M-H]-
INSTRUMENTTYPE: LC-ESI-QTOF
SMILES: OCC1OC(OC2=C(OC3=CC(O)=CC(O)=C3C2=O)C2=CC(O)=C(O)C=C2)C(O)C(O)C1O
INCHIKEY: OVSQVDMCBVZWGM-UHFFFAOYNA-N
Ontology: Flavonoid-3-O-glycosides
COLLISIONENERGY: 10
FORMULA: C21H20O12
RETENTIONTIME: 3.986217
IONMODE: Negative
Comment: registered in RIKEN PlaSMA
Num Peaks: 50
108.02238	10
109.02721	9
123.03834	8
148.01421	13
151.00237	124
152.0183	6
162.9968	8
163.00697	9
164.00768	9
170.03197	5
175.02817	6
178.99835	35
211.04921	6
216.03871	13
226.02585	9
227.04074	13
228.03935	11
229.03886	6
241.01436	7
242.02165	12
243.03032	58
244.03601	12
245.04559	18
249.09439	5
254.0184	28
255.02821	155
256.02939	33
266.01697	6
270.01202	11
270.02527	8
271.02567	424
272.02673	82
272.11069	7
273.03372	15
285.03241	6
299.00497	31
299.02499	33
300.02798	1000
301.0332	696
301.05969	7
302.03479	125
303.0484	17
303.5741	5
343.04523	9
461.05829	7
461.08008	31
462.07144	25
462.08682	11
462.1058	6
463.08737	911

NAME: Datiscetin-3-O-rutinoside
PRECURSORMZ: 593.15119384783
PRECURSORTYPE: [M-H]-
INSTRUMENTTYPE: LC-ESI-QTOF
SMILES: CC1OC(OCC2OC(OC3=C(OC4=CC(O)=CC(O)=C4C3=O)C3=CC=CC=C3O)C(O)C(O)C2O)C(O)C(O)C1O
INCHIKEY: BJJCTXDEJUWVIC-UHFFFAOYNA-N
Ontology: Flavonoid-3-O-glycosides
COLLISIONENERGY: 10
FORMULA: C27H30O15
RETENTIONTIME: 4.099083
IONMODE: Negative
Comment: registered in RIKEN PlaSMA
Num Peaks: 25
124.01937	6
125.02302	41
133.0271	7
143.04955	9
151.00237	34
165.01404	7
171.04526	8
177.02141	7
199.03993	6
204.95457	6
213.04646	18
213.05663	17
214.05893	10
255.02251	9
255.03535	10
257.04779	6
267.03036	58
268.02579	9
268.04272	10
284.03094	143
285.0394	1000
286.04309	169
287.04474	31
327.06021	14
593.15179	737

NAME: Hesperetin-7-O-neohesperidoside
PRECURSORMZ: 609.18249394783
PRECURSORTYPE: [M-H]-
INSTRUMENTTYPE: LC-ESI-QTOF
SMILES: COC1=C(O)C=C(C=C1)C1CC(=O)C2=C(O)C=C(OC3OC(CO)C(O)C(O)C3OC3OC(C)C(O)C(O)C3O)C=C2O1
INCHIKEY: ARGKVCXINMKCAZ-UHFFFAOYNA-N
Ontology: Flavonoid-7-O-glycosides
COLLISIONENERGY: 10
FORMULA: C28H34O15
RETENTIONTIME: 4.609183
IONMODE: Negative
Comment: registered in RIKEN PlaSMA
Num Peaks: 27
125.02402	15
151.00456	17
164.01521	11
199.03574	7
215.07123	7
225.05157	5
233.08543	7
240.03687	6
242.05719	21
243.05836	6
257.0838	11
283.05777	21
286.04651	40
287.05142	11
301.0705	601
302.0755	109
303.07181	16
325.06299	15
325.07571	18
326.07306	6
343.07437	23
343.08713	27
373.0914	5
403.09076	6
489.13849	37
490.14206	6
609.18359	1000

NAME: Phloretin-2'-O-glucoside
PRECURSORMZ: 435.12967054783
PRECURSORTYPE: [M-H]-
INSTRUMENTTYPE: LC-ESI-QTOF
SMILES: OCC1OC(OC2=CC(O)=CC(O)=C2C(=O)CCC2=CC=C(O)C=C2)C(O)C(O)C1O
INCHIKEY: IOUVKUPGCMBWBT-UHFFFAOYNA-N
Ontology: Flavonoid O-glycosides
COLLISIONENERGY: 10
FORMULA: C21H24O10
RETENTIONTIME: 4.7256
IONMODE: Negative
Comment: registered in RIKEN PlaSMA
Num Peaks: 21
81.03207	8
93.02972	13
119.04777	36
123.04327	77
124.05344	9
125.02169	50
149.01755	15
149.02507	6
151.00175	5
167.03305	452
168.03752	56
179.0338	49
189.0553	14
191.03355	9
255.05626	7
255.06813	6
273.07446	1000
274.07849	162
275.07425	7
275.08304	13
435.1239	62

NAME: Kaempferol-4'-methyl ether
PRECURSORMZ: 299.05611164783
PRECURSORTYPE: [M-H]-
INSTRUMENTTYPE: LC-ESI-QTOF
SMILES: COC1=CC=C(C=C1)C1=C(O)C(=O)C2=C(O)C=C(O)C=C2O1
INCHIKEY: SQFSKOYWJBQGKQ-UHFFFAOYSA-N
Ontology: Flavonols
COLLISIONENERGY: 10
FORMULA: C16H12O6
RETENTIONTIME: 7.54755
IONMODE: Negative
Comment: registered in RIKEN PlaSMA
Num Peaks: 33
63.02275	6
83.01162	11
92.02744	5
104.02457	9
107.01263	67
108.01836	8
119.01585	5
120.02139	29
132.02045	39
136.01506	23
149.99382	16
151.0022	173
152.00291	9
155.05383	5
156.05806	6
163.00102	33
164.00938	65
183.04533	27
200.04582	16
210.03101	7
211.03703	5
211.04555	9
227.03714	36
228.04297	10
255.02777	25
283.02545	13
284.03198	910
285.0369	128
286.03046	6
286.04044	20
286.05115	7
296.94861	6
299.0556	1000

NAME: Quercetin-3-O-galactoside
PRECURSORMZ: 463.08819964783
PRECURSORTYPE: [M-H]-
INSTRUMENTTYPE: LC-ESI-QTOF
SMILES: OCC1OC(OC2=C(OC3=CC(O)=CC(O)=C3C2=O)C2=CC(O)=C(O)C=C2)C(O)C(O)C1O
INCHIKEY: OVSQVDMCBVZWGM-UHFFFAOYNA-N
Ontology: Flavonoid-3-O-glycosides
COLLISIONENERGY: 10
FORMULA: C21H20O12
RETENTIONTIME: 3.986217
IONMODE: Negative
Comment: registered in RIKEN PlaSMA
Num Peaks: 7
299.02005	8
300.02396	88
301.03217	170
302.04047	25
461.07364	23
462.077	51
463.08572	1000

NAME: Datiscetin-3-O-rutinoside
PRECURSORMZ: 593.15119384783
PRECURSORTYPE: [M-H]-
INSTRUMENTTYPE: LC-ESI-QTOF
SMILES: CC1OC(OCC2OC(OC3=C(OC4=CC(O)=CC(O)=C4C3=O)C3=CC=CC=C3O)C(O)C(O)C2O)C(O)C(O)C1O
INCHIKEY: BJJCTXDEJUWVIC-UHFFFAOYNA-N
Ontology: Flavonoid-3-O-glycosides
COLLISIONENERGY: 10
FORMULA: C27H30O15
RETENTIONTIME: 4.099083
IONMODE: Negative
Comment: registered in RIKEN PlaSMA
Num Peaks: 3
285.03973	100
286.04169	6
593.15021	1000

NAME: Hesperetin-7-O-neohesperidoside
PRECURSORMZ: 609.18249394783
PRECURSORTYPE: [M-H]-
INSTRUMENTTYPE: LC-ESI-QTOF
SMILES: COC1=C(O)C=C(C=C1)C1CC(=O)C2=C(O)C=C(OC3OC(CO)C(O)C(O)C3OC3OC(C)C(O)C(O)C3O)C=C2O1
INCHIKEY: ARGKVCXINMKCAZ-UHFFFAOYNA-N
Ontology: Flavonoid-7-O-glycosides
COLLISIONENERGY: 10
FORMULA: C28H34O15
RETENTIONTIME: 4.609183
IONMODE: Negative
Comment: registered in RIKEN PlaSMA
Num Peaks: 2
301.07489	10
609.18152	1000

NAME: Phloretin-2'-O-glucoside
PRECURSORMZ: 435.12967054783
PRECURSORTYPE: [M-H]-
INSTRUMENTTYPE: LC-ESI-QTOF
SMILES: OCC1OC(OC2=CC(O)=CC(O)=C2C(=O)CCC2=CC=C(O)C=C2)C(O)C(O)C1O
INCHIKEY: IOUVKUPGCMBWBT-UHFFFAOYNA-N
Ontology: Flavonoid O-glycosides
COLLISIONENERGY: 10
FORMULA: C21H24O10
RETENTIONTIME: 4.7256
IONMODE: Negative
Comment: registered in RIKEN PlaSMA
Num Peaks: 8
125.02311	11
167.03386	11
273.07599	1000
274.07968	183
275.08133	27
297.07333	10
315.08505	10
435.12961	205

NAME: Kaempferol-4'-methyl ether
PRECURSORMZ: 299.05611164783
PRECURSORTYPE: [M-H]-
INSTRUMENTTYPE: LC-ESI-QTOF
SMILES: COC1=CC=C(C=C1)C1=C(O)C(=O)C2=C(O)C=C(O)C=C2O1
INCHIKEY: SQFSKOYWJBQGKQ-UHFFFAOYSA-N
Ontology: Flavonols
COLLISIONENERGY: 10
FORMULA: C16H12O6
RETENTIONTIME: 7.54755
IONMODE: Negative
Comment: registered in RIKEN PlaSMA
Num Peaks: 5
151.00092	5
284.03082	213
285.03589	26
286.03433	6
299.05499	1000

NAME: Quercetin-3-O-galactoside
PRECURSORMZ: 463.08819964783
PRECURSORTYPE: [M-H]-
INSTRUMENTTYPE: LC-ESI-QTOF
SMILES: OCC1OC(OC2=C(OC3=CC(O)=CC(O)=C3C2=O)C2=CC(O)=C(O)C=C2)C(O)C(O)C1O
INCHIKEY: OVSQVDMCBVZWGM-UHFFFAOYNA-N
Ontology: Flavonoid-3-O-glycosides
COLLISIONENERGY: 30
FORMULA: C21H20O12
RETENTIONTIME: 3.986217
IONMODE: Negative
Comment: registered in RIKEN PlaSMA
Num Peaks: 37
113.69406	5
121.02698	9
124.01364	6
129.75427	5
151.00198	76
151.16394	6
152.00604	7
163.00711	11
178.99751	71
180.00597	5
190.99677	8
203.03127	6
227.03012	17
229.04181	9
242.01469	11
242.02368	10
243.02907	70
244.03706	6
254.01903	34
255.00819	6
255.02718	204
256.02167	5
256.03333	21
257.0314	9
266.01443	6
270.01913	15
271.02307	355
272.02652	97
273.03006	37
274.04211	8
283.02744	21
299.01172	14
299.02341	16
300.02649	1000
301.03186	336
302.03116	28
302.04181	18

NAME: Datiscetin-3-O-rutinoside
PRECURSORMZ: 593.15119384783
PRECURSORTYPE: [M-H]-
INSTRUMENTTYPE: LC-ESI-QTOF
SMILES: CC1OC(OCC2OC(OC3=C(OC4=CC(O)=CC(O)=C4C3=O)C3=CC=CC=C3O)C(O)C(O)C2O)C(O)C(O)C1O
INCHIKEY: BJJCTXDEJUWVIC-UHFFFAOYNA-N
Ontology: Flavonoid-3-O-glycosides
COLLISIONENERGY: 30
FORMULA: C27H30O15
RETENTIONTIME: 4.099083
IONMODE: Negative
Comment: registered in RIKEN PlaSMA
Num Peaks: 17
125.0226	57
133.02722	9
143.04771	15
151.00273	45
152.00804	5
163.00397	8
171.03867	7
213.05594	45
255.02837	27
256.03973	8
267.02936	42
284.03137	162
285.03928	1000
286.04346	190
287.03543	10
287.05109	11
593.14111	10

NAME: Hesperetin-7-O-neohesperidoside
PRECURSORMZ: 609.18249394783
PRECURSORTYPE: [M-H]-
INSTRUMENTTYPE: LC-ESI-QTOF
SMILES: COC1=C(O)C=C(C=C1)C1CC(=O)C2=C(O)C=C(OC3OC(CO)C(O)C(O)C3OC3OC(C)C(O)C(O)C3O)C=C2O1
INCHIKEY: ARGKVCXINMKCAZ-UHFFFAOYNA-N
Ontology: Flavonoid-7-O-glycosides
COLLISIONENERGY: 30
FORMULA: C28H34O15
RETENTIONTIME: 4.609183
IONMODE: Negative
Comment: registered in RIKEN PlaSMA
Num Peaks: 31
125.02597	5
150.99974	10
164.00731	6
199.03789	6
200.04694	8
216.04146	5
217.05304	8
241.05116	10
242.04697	8
242.05919	34
257.08072	14
283.06232	32
284.06241	6
286.04343	42
286.05573	14
287.04312	7
287.05469	14
301.07007	1000
302.07504	188
303.07553	43
304.07803	5
325.06357	15
325.07184	44
326.08087	7
327.08249	5
343.08072	57
367.0899	6
403.10208	14
489.12573	11
489.15439	9
609.18341	117

NAME: Phloretin-2'-O-glucoside
PRECURSORMZ: 435.12967054783
PRECURSORTYPE: [M-H]-
INSTRUMENTTYPE: LC-ESI-QTOF
SMILES: OCC1OC(OC2=CC(O)=CC(O)=C2C(=O)CCC2=CC=C(O)C=C2)C(O)C(O)C1O
INCHIKEY: IOUVKUPGCMBWBT-UHFFFAOYNA-N
Ontology: Flavonoid O-glycosides
COLLISIONENERGY: 30
FORMULA: C21H24O10
RETENTIONTIME: 4.7256
IONMODE: Negative
Comment: registered in RIKEN PlaSMA
Num Peaks: 33
81.02975	13
93.03187	31
119.04836	77
123.04368	214
124.0456	21
124.05247	9
125.02209	75
126.0263	6
149.02106	7
149.02805	15
150.99626	6
151.00145	14
163.0383	8
165.05859	8
166.0271	5
167.03294	1000
168.03795	95
169.03238	6
169.04129	6
169.0618	7
179.03137	99
179.04454	10
180.04124	8
189.04568	7
189.05534	12
191.02945	10
211.07893	14
229.08768	8
255.05588	9
256.06812	5
273.07657	137
274.07672	38
275.07681	7

NAME: Kaempferol-4'-methyl ether
PRECURSORMZ: 299.05611164783
PRECURSORTYPE: [M-H]-
INSTRUMENTTYPE: LC-ESI-QTOF
SMILES: COC1=CC=C(C=C1)C1=C(O)C(=O)C2=C(O)C=C(O)C=C2O1
INCHIKEY: SQFSKOYWJBQGKQ-UHFFFAOYSA-N
Ontology: Flavonols
COLLISIONENERGY: 30
FORMULA: C16H12O6
RETENTIONTIME: 7.54755
IONMODE: Negative
Comment: registered in RIKEN PlaSMA
Num Peaks: 98
63.02253	142
64.0192	5
64.99652	6
65.00456	34
80.43226	8
83.01058	39
83.01561	108
83.23417	8
84.01701	5
85.48518	11
91.01985	12
92.02477	6
92.03214	8
93.03595	6
94.00439	21
95.00779	12
95.01456	15
100.37011	7
104.02229	14
104.02865	15
107.0132	597
108.01938	112
109.01527	7
110.47487	7
119.02107	6
120.0182	74
120.02481	36
121.02138	6
121.99881	98
123.0103	8
130.03503	8
130.03931	5
131.04793	9
132.01933	189
133.02522	9
133.99586	6
135.00609	29
135.0143	6
136.00397	6
136.01488	82
136.02481	6
143.04778	11
147.65508	8
149.32996	6
149.99547	20
151.0022	1000
152.00241	44
152.01173	28
155.04897	9
156.05962	61
158.03807	7
163.00189	175
164.01132	328
164.99925	6
165.01445	32
167.04259	13
167.04727	6
175.03735	6
175.76221	6
178.99991	6
183.04674	5
184.03912	9
184.05148	5
187.03525	5
191.00069	17
193.02208	6
199.03862	41
200.04488	47
210.02823	5
211.03683	98
211.04909	21
211.15956	7
212.04628	43
212.05429	12
213.01611	9
213.05423	25
215.59212	5
218.02112	5
225.97871	12
226.02518	6
227.0343	125
228.03931	48
239.03008	31
239.41965	5
240.03931	40
240.05692	7
255.02422	130
255.04736	6
256.02753	16
256.03882	11
257.03351	5
267.05026	12
269.74817	9
270.24948	6
283.02307	141
284.03287	522
285.03342	116
286.03418	12

NAME: Quercetin-3-O-galactoside
PRECURSORMZ: 463.08819964783
PRECURSORTYPE: [M-H]-
INSTRUMENTTYPE: LC-ESI-QTOF
SMILES: OCC1OC(OC2=C(OC3=CC(O)=CC(O)=C3C2=O)C2=CC(O)=C(O)C=C2)C(O)C(O)C1O
INCHIKEY: OVSQVDMCBVZWGM-UHFFFAOYNA-N
Ontology: Flavonoid-3-O-glycosides
COLLISIONENERGY: 50
FORMULA: C21H20O12
RETENTIONTIME: 3.986217
IONMODE: Negative
Comment: registered in RIKEN PlaSMA
Num Peaks: 139
66.12411	7
74.7467	7
80.99932	6
83.01327	13
91.01463	8
93.03382	7
96.02127	13
107.01216	68
108.02	29
108.03014	8
109.02719	26
115.37562	6
119.0123	15
120.99693	8
121.02855	33
121.99317	6
122.03543	10
124.01444	7
125.02995	9
127.05301	9
131.04565	8
133.02917	7
133.99615	19
134.00529	7
135.00546	25
135.01144	30
136.02065	6
138.02249	10
139.05946	8
141.03146	7
141.03754	6
143.04997	22
147.01091	8
147.04239	6
148.01607	78
151.00381	65
152.00859	20
153.02924	7
153.0354	10
155.04782	6
156.40891	9
157.03255	15
159.03741	13
161.02054	21
163.00563	42
164.0094	14
165.01047	8
170.03229	23
171.04272	49
172.0459	14
172.05588	10
173.02452	6
173.05145	9
173.06035	6
174.02849	13
175.03793	24
181.03885	7
183.03842	17
183.05	55
184.00726	10
184.04454	6
185.0098	9
185.05576	7
185.0627	6
186.01999	8
186.02882	9
187.0327	6
187.04204	31
188.03691	11
188.06241	6
190.03024	15
194.02304	6
197.02356	12
198.03078	55
198.9985	6
199.04161	131
199.80711	7
200.04497	8
201.01778	39
201.03143	8
201.05591	8
202.03	22
203.02585	9
206.25174	7
209.02255	7
210.03143	7
211.0406	71
212.00397	8
213.01881	43
213.41422	6
214.02443	34
214.89819	8
215.03333	51
215.04022	30
216.03456	9
216.04796	6
216.06329	9
222.99001	8
226.01897	6
226.02989	29
226.08774	10
227.03336	135
227.04645	18
227.95404	6
228.03954	35
228.23354	16
229.01215	49
237.00882	25
241.00854	39
241.02184	24
241.03551	6
242.02023	42
243.02719	345
244.03378	47
244.07556	8
245.02412	6
245.05048	6
246.00839	6
246.04468	8
253.01076	18
254.02679	16
254.55075	7
254.84012	6
255.02701	348
255.04399	61
255.50365	6
256.03116	69
257.04156	6
269.01053	6
271.02356	1000
271.21979	6
272.02872	127
298.96979	6
299.02936	20
299.04749	6
300.02277	37
300.04123	7
301.6041	9
366.41315	7

NAME: Datiscetin-3-O-rutinoside
PRECURSORMZ: 593.15119384783
PRECURSORTYPE: [M-H]-
INSTRUMENTTYPE: LC-ESI-QTOF
SMILES: CC1OC(OCC2OC(OC3=C(OC4=CC(O)=CC(O)=C4C3=O)C3=CC=CC=C3O)C(O)C(O)C2O)C(O)C(O)C1O
INCHIKEY: BJJCTXDEJUWVIC-UHFFFAOYNA-N
Ontology: Flavonoid-3-O-glycosides
COLLISIONENERGY: 50
FORMULA: C27H30O15
RETENTIONTIME: 4.099083
IONMODE: Negative
Comment: registered in RIKEN PlaSMA
Num Peaks: 135
56.16376	10
63.02352	20
65.00185	41
65.00774	11
79.01152	13
80.22335	14
81.03468	19
83.01159	136
88.04455	18
94.00292	10
94.01323	21
96.02387	10
99.78641	16
107.0121	352
108.01637	54
108.02441	27
119.05276	27
124.01485	87
125.02271	523
125.03526	24
126.02415	13
126.89102	10
127.65408	15
129.0321	13
129.06462	11
129.06952	10
131.04671	20
131.05115	7
133.02893	286
134.03217	52
135.00481	43
136.0153	175
137.01398	10
137.02353	19
139.05466	15
141.03511	11
143.04794	273
144.05208	9
145.05821	20
145.36386	11
146.03741	10
147.0441	28
148.0051	14
148.04576	13
149.02658	9
149.05684	10
150.05858	11
151.00197	1000
151.05737	14
152.00688	48
153.00894	11
155.0423	10
157.01883	21
157.03185	30
157.06686	26
158.03029	36
159.04784	16
160.01053	10
161.05763	12
161.06548	9
163.00008	161
163.01163	19
164.00951	47
165.01601	12
169.06592	74
170.03334	12
170.06934	13
170.85556	10
171.0441	299
172.04517	22
173.05864	27
175.04333	11
177.01358	11
183.03821	12
184.09174	19
185.05684	78
186.05635	11
186.06525	25
187.03729	85
189.05212	13
191.05705	9
191.99728	21
195.04622	50
196.047	13
196.05554	11
197.06042	31
198.02959	23
199.03859	35
199.04695	27
200.04123	23
201.05153	20
210.0369	12
211.039	136
211.05589	16
212.04106	79
213.05084	93
213.06082	27
214.05641	25
215.03279	19
217.04919	9
217.05626	10
223.03703	77
224.0435	25
225.01328	13
227.03297	222
227.20277	9
228.03162	13
228.0423	29
229.04674	58
230.04916	17
238.01982	10
239.03354	93
240.0394	13
240.04745	11
241.04565	46
255.02919	399
255.04359	65
256.03363	256
257.03851	35
257.05051	12
266.01752	14
267.02689	514
268.02774	40
268.03894	49
269.02798	14
284.02878	115
284.04047	66
285.03333	178
285.04285	173
285.06467	12
286.04022	41
287.02188	10
287.05008	9
314.82263	16
519.32501	16

NAME: Hesperetin-7-O-neohesperidoside
PRECURSORMZ: 609.18249394783
PRECURSORTYPE: [M-H]-
INSTRUMENTTYPE: LC-ESI-QTOF
SMILES: COC1=C(O)C=C(C=C1)C1CC(=O)C2=C(O)C=C(OC3OC(CO)C(O)C(O)C3OC3OC(C)C(O)C(O)C3O)C=C2O1
INCHIKEY: ARGKVCXINMKCAZ-UHFFFAOYNA-N
Ontology: Flavonoid-7-O-glycosides
COLLISIONENERGY: 50
FORMULA: C28H34O15
RETENTIONTIME: 4.609183
IONMODE: Negative
Comment: registered in RIKEN PlaSMA
Num Peaks: 221
57.03305	14
83.01227	27
84.0377	14
87.00685	6
97.02686	7
99.01359	6
105.03658	7
107.0112	61
107.01623	23
108.02129	17
111.01302	10
112.6609	8
115.03581	10
118.04616	6
119.01066	8
123.00574	6
124.01312	8
124.01901	16
125.01262	10
125.02372	166
125.03569	8
126.02213	7
126.02891	6
130.03891	8
132.01443	8
132.02151	6
134.03435	167
135.03882	19
135.04556	29
136.01468	163
136.04678	18
136.98032	11
137.01495	8
137.0257	7
137.03159	10
137.98938	16
142.93982	6
144.62834	6
147.03658	6
149.05756	82
149.07254	11
149.99342	11
150.03279	6
150.06404	6
151.00218	587
151.04593	8
152.00743	59
152.71977	8
153.00543	12
155.33566	12
158.03868	63
159.04378	15
160.01764	25
161.01855	8
161.06265	12
163.00002	9
163.00775	6
164.01027	1000
165.009	53
165.01967	54
166.01144	10
166.02623	9
170.03578	8
170.45657	6
171.0434	6
172.07611	10
173.01956	17
173.05319	42
173.06024	30
174.02986	223
174.06226	7
175.00047	23
175.03651	69
176.03908	14
176.04947	6
177.01628	24
177.03061	6
180.82327	6
181.02234	7
182.02922	7
185.02155	31
185.05719	20
186.02267	7
186.06497	9
187.03961	11
187.07063	8
188.01295	9
188.03984	19
188.04588	31
189.01118	6
189.04787	6
189.06032	8
190.05609	14
190.9948	6
191.06776	62
192.00575	9
192.04216	12
196.04802	40
197.04015	8
197.06177	8
198.02357	17
198.03271	11
199.03691	231
199.46846	8
199.67699	7
200.00453	57
200.02708	9
200.04276	167
200.07217	11
200.52011	7
201.01604	219
201.06001	11
202.02138	26
202.0378	6
202.05736	12
203.0024	18
203.02539	6
206.00821	6
206.02191	7
209.06036	6
210.78868	7
211.07924	6
213.04526	16
213.05716	46
214.01855	7
214.03445	18
214.05843	55
214.07185	16
214.95732	7
215.03293	137
215.06757	58
216.0016	6
216.03838	103
216.08464	15
217.03731	14
217.05133	64
218.06664	11
219.0278	26
223.88974	11
224.0394	17
224.04935	23
224.2238	7
225.04611	37
225.05801	5
226.02861	9
227.0175	11
227.03571	75
229.0096	6
229.65102	10
230.04858	11
230.0619	19
233.07697	16
239.024	7
240.03865	62
240.05679	6
241.04828	76
241.0724	6
241.11313	6
242.03796	16
242.05621	318
242.07179	12
243.05733	78
243.07135	10
244.03662	23
244.06012	7
244.07408	6
246.91867	6
249.03487	6
251.06888	9
253.05258	6
254.0471	6
254.05762	7
256.07211	11
257.03738	10
257.0499	15
257.07144	67
257.08649	43
257.09921	16
258.04019	33
258.05316	141
259.05313	26
259.06378	13
264.03607	7
267.02649	7
268.02466	51
268.04141	67
269.03491	17
269.04492	30
271.05475	8
271.06494	12
283.05643	70
284.03235	14
284.05685	8
284.06854	7
285.03699	74
285.05533	9
286.04431	307
287.04968	7
287.05969	24
288.04648	8
288.05655	15
295.04855	10
296.07285	7
299.04892	6
300.01813	6
301.02869	6
301.06796	429
302.05957	15
302.07263	35
302.08429	18
303.07355	16
304.06686	16
308.06039	6
309.04141	9
324.06161	7
325.0766	8
328.0563	12
329.95105	13
343.0751	24
346.09818	8
486.11145	7

NAME: Phloretin-2'-O-glucoside
PRECURSORMZ: 435.12967054783
PRECURSORTYPE: [M-H]-
INSTRUMENTTYPE: LC-ESI-QTOF
SMILES: OCC1OC(OC2=CC(O)=CC(O)=C2C(=O)CCC2=CC=C(O)C=C2)C(O)C(O)C1O
INCHIKEY: IOUVKUPGCMBWBT-UHFFFAOYNA-N
Ontology: Flavonoid O-glycosides
COLLISIONENERGY: 50
FORMULA: C21H24O10
RETENTIONTIME: 4.7256
IONMODE: Negative
Comment: registered in RIKEN PlaSMA
Num Peaks: 77
65.00136	20
65.00588	14
81.02872	72
81.03394	285
82.04052	22
83.00972	87
83.01649	43
84.01994	18
84.0472	14
84.14424	11
84.25668	19
85.01678	20
93.02895	33
93.03488	62
95.01307	30
95.04939	49
96.01702	23
97.03086	13
107.01378	125
108.02	28
109.03303	15
118.03477	11
119.04832	248
120.0518	28
121.02586	13
121.06383	31
123.04406	1000
124.01471	34
124.04137	14
124.04778	25
124.05482	16
125.02245	343
125.72618	11
126.02047	22
133.06496	11
135.04382	46
136.04349	17
137.03278	15
139.03755	13
143.05035	25
144.56009	11
145.05803	11
146.06093	12
146.06824	17
147.04103	13
147.05215	20
148.05081	15
148.05727	10
149.02185	49
151.00238	177
152.00687	11
157.06754	12
161.05759	13
162.03642	11
163.03386	13
164.07846	14
165.04935	13
166.85634	14
167.0284	111
167.03564	244
168.04031	43
168.05615	11
171.04083	37
171.04958	11
172.04735	11
172.05699	23
179.02414	16
179.04221	29
186.05966	20
187.04077	12
189.05135	34
189.05794	63
190.06096	11
201.05978	12
211.07227	12
255.06026	14
435.14618	17

NAME: Kaempferol-4'-methyl ether
PRECURSORMZ: 299.05611164783
PRECURSORTYPE: [M-H]-
INSTRUMENTTYPE: LC-ESI-QTOF
SMILES: COC1=CC=C(C=C1)C1=C(O)C(=O)C2=C(O)C=C(O)C=C2O1
INCHIKEY: SQFSKOYWJBQGKQ-UHFFFAOYSA-N
Ontology: Flavonols
COLLISIONENERGY: 50
FORMULA: C16H12O6
RETENTIONTIME: 7.54755
IONMODE: Negative
Comment: registered in RIKEN PlaSMA
Num Peaks: 52
63.02288	206
65.00111	211
65.0064	59
83.01343	166
91.02243	141
92.0268	358
94.00694	82
95.01111	124
96.0121	51
103.05463	56
104.02135	234
104.02525	132
107.01296	496
108.0173	68
108.02235	270
110.31564	96
112.89069	101
117.0323	231
120.02306	59
121.02459	132
124.01205	59
125.01774	56
129.02939	65
132.01994	394
134.99767	76
135.00932	155
136.00858	96
145.02803	163
146.02744	56
151.00732	56
155.04254	96
155.0506	101
156.02209	85
156.04904	54
157.02794	68
163.00381	1000
164.00816	104
167.04428	70
169.03105	59
170.02783	54
171.03897	68
172.04967	65
182.02727	54
183.04482	262
185.02715	127
199.02626	70
199.03737	115
199.04845	70
200.03328	59
210.01454	70
211.04207	87
255.01222	62

NAME: Quercetin-3-O-galactoside
PRECURSORMZ: 463.08819964783
PRECURSORTYPE: [M-H]-
INSTRUMENTTYPE: LC-ESI-QTOF
SMILES: OCC1OC(OC2=C(OC3=CC(O)=CC(O)=C3C2=O)C2=CC(O)=C(O)C=C2)C(O)C(O)C1O
INCHIKEY: OVSQVDMCBVZWGM-UHFFFAOYNA-N
Ontology: Flavonoid-3-O-glycosides
COLLISIONENERGY: 10
FORMULA: C21H20O12
RETENTIONTIME: 3.986217
IONMODE: Negative
Comment: registered in RIKEN PlaSMA
Num Peaks: 48
52.7534	6
121.02919	9
125.02379	7
131.19817	5
149.99866	6
151.00221	98
152.00513	7
163.00066	9
163.25627	6
174.0367	6
178.996	20
179.00888	5
187.04765	9
203.02478	12
211.03708	26
212.04669	7
227.03719	9
229.81128	7
240.04399	7
242.0202	12
243.02753	63
243.04787	7
245.0441	15
254.02501	11
255.03145	138
256.01978	9
256.03622	32
270.01764	20
271.02304	325
272.02963	62
273.03516	17
283.0155	7
283.02444	8
298.01593	13
299.01602	60
299.8049	6
300.0264	840
301.03448	551
302.03525	116
303.03757	8
303.04758	7
343.04675	11
353.09595	5
461.07373	23
462.06845	8
462.08575	22
463.08701	1000
463.14539	6

NAME: Datiscetin-3-O-rutinoside
PRECURSORMZ: 593.15119384783
PRECURSORTYPE: [M-H]-
INSTRUMENTTYPE: LC-ESI-QTOF
SMILES: CC1OC(OCC2OC(OC3=C(OC4=CC(O)=CC(O)=C4C3=O)C3=CC=CC=C3O)C(O)C(O)C2O)C(O)C(O)C1O
INCHIKEY: BJJCTXDEJUWVIC-UHFFFAOYNA-N
Ontology: Flavonoid-3-O-glycosides
COLLISIONENERGY: 10
FORMULA: C27H30O15
RETENTIONTIME: 4.099083
IONMODE: Negative
Comment: registered in RIKEN PlaSMA
Num Peaks: 30
107.01463	10
125.02455	50
126.02811	13
127.02418	6
133.02702	6
143.05013	8
150.9969	13
151.00395	44
162.99409	8
169.0639	12
171.04256	10
175.04169	6
197.35159	6
213.05423	10
227.02838	9
239.03404	5
255.01613	6
255.02893	21
256.03632	12
257.03778	13
263.60275	5
266.02283	5
267.02246	26
267.03818	6
284.03168	84
285.03812	1000
286.0405	121
286.05457	28
287.04605	33
593.14758	782

NAME: Hesperetin-7-O-neohesperidoside
PRECURSORMZ: 609.18249394783
PRECURSORTYPE: [M-H]-
INSTRUMENTTYPE: LC-ESI-QTOF
SMILES: COC1=C(O)C=C(C=C1)C1CC(=O)C2=C(O)C=C(OC3OC(CO)C(O)C(O)C3OC3OC(C)C(O)C(O)C3O)C=C2O1
INCHIKEY: ARGKVCXINMKCAZ-UHFFFAOYNA-N
Ontology: Flavonoid-7-O-glycosides
COLLISIONENERGY: 10
FORMULA: C28H34O15
RETENTIONTIME: 4.609183
IONMODE: Negative
Comment: registered in RIKEN PlaSMA
Num Peaks: 32
125.01867	6
150.99843	14
164.00751	7
164.01445	9
173.05914	8
174.02283	5
199.04265	8
201.02161	7
215.07024	8
217.04872	11
242.05415	24
242.06543	8
257.08359	25
258.05023	12
283.06021	18
284.05991	5
285.03479	6
286.0473	59
287.04001	7
287.05728	5
301.06992	644
302.07523	143
303.06964	13
303.08026	10
310.04929	7
325.07025	17
343.08142	21
343.103	5
403.10007	15
489.14084	31
490.1449	10
609.18207	1000

NAME: Phloretin-2'-O-glucoside
PRECURSORMZ: 435.12967054783
PRECURSORTYPE: [M-H]-
INSTRUMENTTYPE: LC-ESI-QTOF
SMILES: OCC1OC(OC2=CC(O)=CC(O)=C2C(=O)CCC2=CC=C(O)C=C2)C(O)C(O)C1O
INCHIKEY: IOUVKUPGCMBWBT-UHFFFAOYNA-N
Ontology: Flavonoid O-glycosides
COLLISIONENERGY: 10
FORMULA: C21H24O10
RETENTIONTIME: 4.7256
IONMODE: Negative
Comment: registered in RIKEN PlaSMA
Num Peaks: 19
81.034	8
93.03262	12
119.04836	27
123.04409	72
125.02235	61
135.04103	6
149.02625	5
151.00189	7
167.03322	443
168.03618	49
169.04137	6
179.03279	59
189.0619	6
273.07498	1000
274.07843	128
275.0824	12
297.073	9
315.09253	7
435.12805	77

NAME: Kaempferol-4'-methyl ether
PRECURSORMZ: 299.05611164783
PRECURSORTYPE: [M-H]-
INSTRUMENTTYPE: LC-ESI-QTOF
SMILES: COC1=CC=C(C=C1)C1=C(O)C(=O)C2=C(O)C=C(O)C=C2O1
INCHIKEY: SQFSKOYWJBQGKQ-UHFFFAOYSA-N
Ontology: Flavonols
COLLISIONENERGY: 10
FORMULA: C16H12O6
RETENTIONTIME: 7.54755
IONMODE: Negative
Comment: registered in RIKEN PlaSMA
Num Peaks: 30
63.02209	9
64.99904	6
83.00997	12
92.0266	5
107.01147	73
108.02218	8
120.02886	7
121.99868	9
132.0224	30
135.00757	8
149.99237	24
151.00117	203
156.05624	11
163.00195	43
164.01131	60
165.01172	7
183.0433	7
200.04507	18
211.03596	10
227.03517	31
240.03423	10
255.02066	10
255.03293	19
256.03558	14
257.03394	5
283.02554	13
284.03128	945
285.03281	186
286.03619	31
299.05368	1000

NAME: Quercetin-3-O-galactoside
PRECURSORMZ: 463.08819964783
PRECURSORTYPE: [M-H]-
INSTRUMENTTYPE: LC-ESI-QTOF
SMILES: OCC1OC(OC2=C(OC3=CC(O)=CC(O)=C3C2=O)C2=CC(O)=C(O)C=C2)C(O)C(O)C1O
INCHIKEY: OVSQVDMCBVZWGM-UHFFFAOYNA-N
Ontology: Flavonoid-3-O-glycosides
COLLISIONENERGY: 10
FORMULA: C21H20O12
RETENTIONTIME: 3.986217
IONMODE: Negative
Comment: registered in RIKEN PlaSMA
Num Peaks: 7
299.01611	7
300.02679	84
301.03284	119
302.03851	25
461.06793	18
462.07346	58
463.08688	1000

NAME: Datiscetin-3-O-rutinoside
PRECURSORMZ: 593.15119384783
PRECURSORTYPE: [M-H]-
INSTRUMENTTYPE: LC-ESI-QTOF
SMILES: CC1OC(OCC2OC(OC3=C(OC4=CC(O)=CC(O)=C4C3=O)C3=CC=CC=C3O)C(O)C(O)C2O)C(O)C(O)C1O
INCHIKEY: BJJCTXDEJUWVIC-UHFFFAOYNA-N
Ontology: Flavonoid-3-O-glycosides
COLLISIONENERGY: 10
FORMULA: C27H30O15
RETENTIONTIME: 4.099083
IONMODE: Negative
Comment: registered in RIKEN PlaSMA
Num Peaks: 3
285.0376	111
286.04263	15
593.14838	1000

NAME: Hesperetin-7-O-neohesperidoside
PRECURSORMZ: 609.18249394783
PRECURSORTYPE: [M-H]-
INSTRUMENTTYPE: LC-ESI-QTOF
SMILES: COC1=C(O)C=C(C=C1)C1CC(=O)C2=C(O)C=C(OC3OC(CO)C(O)C(O)C3OC3OC(C)C(O)C(O)C3O)C=C2O1
INCHIKEY: ARGKVCXINMKCAZ-UHFFFAOYNA-N
Ontology: Flavonoid-7-O-glycosides
COLLISIONENERGY: 10
FORMULA: C28H34O15
RETENTIONTIME: 4.609183
IONMODE: Negative
Comment: registered in RIKEN PlaSMA
Num Peaks: 3
301.0665	15
489.13461	6
609.18158	1000

NAME: Phloretin-2'-O-glucoside
PRECURSORMZ: 435.12967054783
PRECURSORTYPE: [M-H]-
INSTRUMENTTYPE: LC-ESI-QTOF
SMILES: OCC1OC(OC2=CC(O)=CC(O)=C2C(=O)CCC2=CC=C(O)C=C2)C(O)C(O)C1O
INCHIKEY: IOUVKUPGCMBWBT-UHFFFAOYNA-N
Ontology: Flavonoid O-glycosides
COLLISIONENERGY: 10
FORMULA: C21H24O10
RETENTIONTIME: 4.7256
IONMODE: Negative
Comment: registered in RIKEN PlaSMA
Num Peaks: 7
125.02393	7
167.03445	9
273.07468	1000
274.07825	196
275.08099	25
297.0726	10
435.1254	234

NAME: Kaempferol-4'-methyl ether
PRECURSORMZ: 299.05611164783
PRECURSORTYPE: [M-H]-
INSTRUMENTTYPE: LC-ESI-QTOF
SMILES: COC1=CC=C(C=C1)C1=C(O)C(=O)C2=C(O)C=C(O)C=C2O1
INCHIKEY: SQFSKOYWJBQGKQ-UHFFFAOYSA-N
Ontology: Flavonols
COLLISIONENERGY: 10
FORMULA: C16H12O6
RETENTIONTIME: 7.54755
IONMODE: Negative
Comment: registered in RIKEN PlaSMA
Num Peaks: 5
284.03174	224
285.02997	31
285.04471	10
286.03851	5
299.05411	1000

NAME: Quercetin-3-O-galactoside
PRECURSORMZ: 463.08819964783
PRECURSORTYPE: [M-H]-
INSTRUMENTTYPE: LC-ESI-QTOF
SMILES: OCC1OC(OC2=C(OC3=CC(O)=CC(O)=C3C2=O)C2=CC(O)=C(O)C=C2)C(O)C(O)C1O
INCHIKEY: OVSQVDMCBVZWGM-UHFFFAOYNA-N
Ontology: Flavonoid-3-O-glycosides
COLLISIONENERGY: 30
FORMULA: C21H20O12
RETENTIONTIME: 3.986217
IONMODE: Negative
Comment: registered in RIKEN PlaSMA
Num Peaks: 39
83.01303	11
121.02734	11
136.06099	9
149.01648	6
149.02559	6
151.00064	91
152.00539	13
163.00166	22
163.04062	6
178.98781	11
178.99838	39
200.04596	7
211.0377	13
213.05594	7
217.00877	6
226.01086	6
239.03273	6
242.01122	10
242.01959	21
243.0271	67
244.03401	8
245.04422	18
254.01349	18
254.0224	12
255.02835	223
256.03278	32
270.01193	35
271.02301	474
272.02716	80
272.04547	12
273.03012	26
284.02866	6
299.00885	13
299.02228	14
300.02576	1000
301.0314	366
302.0329	51
303.02826	5
463.08774	9

NAME: Datiscetin-3-O-rutinoside
PRECURSORMZ: 593.15119384783
PRECURSORTYPE: [M-H]-
INSTRUMENTTYPE: LC-ESI-QTOF
SMILES: CC1OC(OCC2OC(OC3=C(OC4=CC(O)=CC(O)=C4C3=O)C3=CC=CC=C3O)C(O)C(O)C2O)C(O)C(O)C1O
INCHIKEY: BJJCTXDEJUWVIC-UHFFFAOYNA-N
Ontology: Flavonoid-3-O-glycosides
COLLISIONENERGY: 30
FORMULA: C27H30O15
RETENTIONTIME: 4.099083
IONMODE: Negative
Comment: registered in RIKEN PlaSMA
Num Peaks: 25
125.02177	57
136.01889	5
143.0477	14
151.00078	45
152.00711	7
171.03922	5
171.04913	6
177.02118	5
199.04079	6
213.05241	37
214.06406	5
215.03157	5
241.04681	7
255.02672	22
256.03351	5
257.04312	13
257.05228	5
267.02814	35
284.03156	148
285.03903	1000
286.04132	170
287.03949	14
287.05096	6
327.05246	7
593.15619	25

NAME: Hesperetin-7-O-neohesperidoside
PRECURSORMZ: 609.18249394783
PRECURSORTYPE: [M-H]-
INSTRUMENTTYPE: LC-ESI-QTOF
SMILES: COC1=C(O)C=C(C=C1)C1CC(=O)C2=C(O)C=C(OC3OC(CO)C(O)C(O)C3OC3OC(C)C(O)C(O)C3O)C=C2O1
INCHIKEY: ARGKVCXINMKCAZ-UHFFFAOYNA-N
Ontology: Flavonoid-7-O-glycosides
COLLISIONENERGY: 30
FORMULA: C28H34O15
RETENTIONTIME: 4.609183
IONMODE: Negative
Comment: registered in RIKEN PlaSMA
Num Peaks: 30
125.02248	20
134.0367	6
151.00081	13
164.00418	8
164.01257	6
174.03456	7
199.03983	8
201.01874	7
217.05142	6
233.07494	13
242.0515	15
243.06032	6
257.0806	25
258.09085	5
283.06058	17
285.03903	5
286.04657	52
287.05325	8
301.07071	1000
302.07361	181
303.0675	7
303.08032	27
325.07034	34
343.07974	42
344.07898	8
355.08417	13
367.08469	6
403.10431	9
489.13611	17
609.18146	86

NAME: Phloretin-2'-O-glucoside
PRECURSORMZ: 435.12967054783
PRECURSORTYPE: [M-H]-
INSTRUMENTTYPE: LC-ESI-QTOF
SMILES: OCC1OC(OC2=CC(O)=CC(O)=C2C(=O)CCC2=CC=C(O)C=C2)C(O)C(O)C1O
INCHIKEY: IOUVKUPGCMBWBT-UHFFFAOYNA-N
Ontology: Flavonoid O-glycosides
COLLISIONENERGY: 30
FORMULA: C21H24O10
RETENTIONTIME: 4.7256
IONMODE: Negative
Comment: registered in RIKEN PlaSMA
Num Peaks: 27
83.01463	13
93.03297	20
119.04988	51
120.05452	6
123.04446	173
124.05044	20
125.02281	96
126.02541	11
135.04591	12
149.02003	22
149.02623	8
151.00241	20
165.05156	6
167.03377	1000
168.03825	75
169.03693	21
179.03242	106
187.06732	6
187.07552	7
189.0573	7
191.03563	14
211.0708	5
229.08917	7
255.06398	6
273.07657	162
274.07999	40
275.08813	8

NAME: Kaempferol-4'-methyl ether
PRECURSORMZ: 299.05611164783
PRECURSORTYPE: [M-H]-
INSTRUMENTTYPE: LC-ESI-QTOF
SMILES: COC1=CC=C(C=C1)C1=C(O)C(=O)C2=C(O)C=C(O)C=C2O1
INCHIKEY: SQFSKOYWJBQGKQ-UHFFFAOYSA-N
Ontology: Flavonols
COLLISIONENERGY: 30
FORMULA: C16H12O6
RETENTIONTIME: 7.54755
IONMODE: Negative
Comment: registered in RIKEN PlaSMA
Num Peaks: 113
63.02015	24
63.02419	28
64.02245	6
65.00142	42
65.0063	10
74.75342	7
81.59772	5
83.01253	154
83.03235	6
92.02524	39
93.0274	7
93.0396	8
94.00026	10
94.00526	21
95.00942	20
96.01533	13
107.01283	577
108.01697	112
108.02445	35
110.00364	9
120.01936	163
121.01888	6
121.02575	6
121.99957	30
123.00266	10
124.00718	11
126.01337	10
130.03908	11
132.02054	177
133.02699	21
134.02209	9
135.0049	22
136.01239	76
136.03397	7
137.01666	20
139.58365	5
140.02567	9
141.03702	11
143.04976	20
149.99529	51
151.00215	1000
151.11536	5
152.00258	61
152.0101	39
153.00571	7
154.0417	8
156.06046	14
157.06343	7
159.03885	17
159.0488	7
163.00224	204
164.00906	350
164.99837	5
165.01244	23
165.02159	11
165.53824	5
167.04956	6
168.64145	18
170.03566	7
172.04984	13
174.03506	15
182.03795	5
183.03246	6
183.04143	13
183.04851	10
184.04816	12
184.06245	13
185.02188	7
187.03461	11
187.95093	6
188.0448	6
188.41585	6
190.2675	6
190.99928	14
193.41238	5
195.03537	6
196.05879	14
199.03543	66
199.05463	5
200.04822	11
201.04221	7
210.03333	23
211.03242	12
211.04213	19
212.04639	14
213.01248	5
215.03233	6
227.03558	183
228.01982	5
228.03259	29
229.04646	14
239.03151	35
239.04187	5
240.0425	19
241.03716	5
242.02777	6
255.02943	157
255.03958	51
256.03622	36
256.04916	6
266.01019	11
267.03436	15
277.67361	6
283.01825	63
283.03427	29
283.76147	5
284.03162	558
284.37964	8
285.02319	21
285.03922	110
286.02313	5
286.04221	22
299.06274	7

NAME: Quercetin-3-O-galactoside
PRECURSORMZ: 463.08819964783
PRECURSORTYPE: [M-H]-
INSTRUMENTTYPE: LC-ESI-QTOF
SMILES: OCC1OC(OC2=C(OC3=CC(O)=CC(O)=C3C2=O)C2=CC(O)=C(O)C=C2)C(O)C(O)C1O
INCHIKEY: OVSQVDMCBVZWGM-UHFFFAOYNA-N
Ontology: Flavonoid-3-O-glycosides
COLLISIONENERGY: 50
FORMULA: C21H20O12
RETENTIONTIME: 3.986217
IONMODE: Negative
Comment: registered in RIKEN PlaSMA
Num Peaks: 140
83.01128	7
91.01254	5
93.03359	7
105.22321	11
107.0125	38
108.01061	5
108.01761	25
108.02679	8
109.02827	54
110.02979	5
114.60959	6
115.05949	10
116.05396	5
117.03646	6
119.0094	12
120.01406	5
121.02744	17
121.03303	8
121.05956	10
122.03125	6
129.06464	5
131.05206	13
133.01762	9
134.00026	9
135.00946	14
136.01222	13
137.01917	7
138.6362	7
143.04655	13
145.02286	5
145.03271	5
146.03362	14
148.01511	80
149.01408	6
149.02365	36
150.02351	5
151.00237	74
152.01077	11
154.04031	6
155.04713	5
158.99265	6
159.03651	8
159.04642	20
160.05386	8
161.02094	6
161.06345	12
163.00354	38
164.01114	15
165.00961	6
165.02217	5
167.04724	18
169.02203	5
169.03191	11
170.0222	10
171.04185	33
171.97423	5
173.02368	8
174.06172	8
175.03302	6
175.04323	13
177.01701	7
178.9955	10
181.0249	5
182.03285	15
182.04263	6
183.04463	48
183.05635	10
184.23192	5
185.01628	12
185.5257	5
186.01978	10
186.02579	13
187.04007	38
188.03925	6
190.99724	7
192.00507	6
198.02805	31
199.03159	45
199.04021	109
200.00261	12
200.04587	30
201.00746	12
201.01514	34
201.02499	11
202.02747	8
202.05275	6
203.03027	12
206.85316	6
209.02843	9
210.03036	23
211.03616	40
211.04626	20
213.01416	19
213.02296	14
213.03979	7
215.02502	18
215.03471	63
216.01189	8
216.02776	6
216.03465	8
216.04277	5
218.03036	8
225.0092	8
225.02168	6
226.02005	25
226.02919	15
227.03217	194
227.05151	12
228.03714	34
228.48726	5
229.0116	37
229.02757	18
229.60611	6
241.00259	20
241.01196	26
241.03198	7
242.0175	128
243.02765	436
244.02409	17
244.03741	46
245.02466	7
245.03979	10
246.05849	5
253.00983	6
253.02008	6
254.02312	22
255.02881	370
256.03149	102
257.01727	8
271.02435	1000
272.02686	138
272.04916	6
273.01761	5
273.03287	33
282.01874	9
284.0336	12
299.02197	14
300.00781	6
300.02148	27
301.03165	6

NAME: Datiscetin-3-O-rutinoside
PRECURSORMZ: 593.15119384783
PRECURSORTYPE: [M-H]-
INSTRUMENTTYPE: LC-ESI-QTOF
SMILES: CC1OC(OCC2OC(OC3=C(OC4=CC(O)=CC(O)=C4C3=O)C3=CC=CC=C3O)C(O)C(O)C2O)C(O)C(O)C1O
INCHIKEY: BJJCTXDEJUWVIC-UHFFFAOYNA-N
Ontology: Flavonoid-3-O-glycosides
COLLISIONENERGY: 50
FORMULA: C27H30O15
RETENTIONTIME: 4.099083
IONMODE: Negative
Comment: registered in RIKEN PlaSMA
Num Peaks: 167
63.02145	17
64.02333	8
65.00063	8
83.00991	60
83.01464	32
83.67609	9
84.01768	14
87.00981	10
87.04576	30
91.02147	10
95.01388	9
96.01611	7
105.21709	10
106.97707	8
107.00624	30
107.01318	216
108.01744	60
108.02296	53
109.01379	8
109.02427	8
117.03004	9
119.01354	8
119.04429	9
121.03301	12
122.00002	12
123.00737	8
124.01417	174
125.02278	494
125.2902	8
126.01805	12
126.02679	40
127.03188	11
128.05882	14
128.89763	7
131.03366	9
131.04781	8
131.82283	8
132.0199	9
133.02832	425
134.02979	28
134.03531	14
134.97389	7
135.0023	8
135.01198	52
135.24178	8
135.40262	8
136.01529	173
137.01859	38
138.02519	8
141.07121	10
142.07095	13
143.04907	159
144.0513	29
144.05748	8
144.56956	8
145.02779	9
146.06577	11
147.04259	8
148.00874	8
148.02013	12
148.05005	12
149.02943	9
149.98756	16
149.9998	26
151.00096	1000
151.02086	10
151.04201	10
151.13611	10
152.00015	18
152.01192	21
153.00673	21
153.01994	10
153.06389	9
154.04408	10
154.07726	8
156.05675	58
157.01881	8
157.03267	60
157.69395	8
159.04123	34
160.01437	8
161.05743	47
162.21642	11
163.00241	111
164.00647	34
165.0011	10
165.01109	7
166.02161	9
167.04326	11
167.05292	33
169.06499	138
169.78813	7
170.02841	7
170.03732	18
170.0649	9
171.004	9
171.04305	248
171.06017	14
172.02345	11
172.047	30
173.06252	17
174.03206	9
175.03445	14
175.04536	24
177.01031	15
179.05365	10
184.04732	14
185.01591	9
185.05771	137
186.06038	8
187.04027	39
188.04497	16
189.05206	55
192.00583	11
195.04578	42
195.06142	8
196.04498	10
196.05533	17
197.06006	8
198.03874	12
199.03705	8
199.04387	8
200.04468	42
207.0405	9
210.02348	8
211.03864	196
212.04407	24
213.01907	9
213.03682	8
213.05431	172
213.06671	20
214.00891	9
214.05579	35
215.03442	43
223.03503	80
224.03067	8
224.0564	13
225.05811	7
227.0321	238
228.04256	23
229.04832	14
231.24646	8
238.01988	23
239.02461	50
239.03619	41
240.04063	56
242.04907	8
243.01888	13
249.06064	13
255.02805	626
255.20439	9
256.03574	200
256.06259	8
257.04852	47
266.02225	13
267.02945	480
268.02298	24
268.0372	53
269.03992	9
283.02063	11
284.02911	113
285.03616	344
285.0473	118
285.89563	11
286.04541	74
359.8204	8
444.25815	7

NAME: Hesperetin-7-O-neohesperidoside
PRECURSORMZ: 609.18249394783
PRECURSORTYPE: [M-H]-
INSTRUMENTTYPE: LC-ESI-QTOF
SMILES: COC1=C(O)C=C(C=C1)C1CC(=O)C2=C(O)C=C(OC3OC(CO)C(O)C(O)C3OC3OC(C)C(O)C(O)C3O)C=C2O1
INCHIKEY: ARGKVCXINMKCAZ-UHFFFAOYNA-N
Ontology: Flavonoid-7-O-glycosides
COLLISIONENERGY: 50
FORMULA: C28H34O15
RETENTIONTIME: 4.609183
IONMODE: Negative
Comment: registered in RIKEN PlaSMA
Num Peaks: 209
65.00385	7
69.51233	8
71.01173	12
73.34697	5
83.01155	40
83.01669	9
83.02296	6
83.04907	7
85.21532	8
87.00603	17
87.35185	10
92.02522	5
99.34984	8
107.01422	53
107.51267	5
107.96805	6
108.01773	38
108.02541	12
120.02052	19
123.04507	7
124.01494	37
125.00391	7
125.01965	75
125.02522	106
125.10786	6
126.02135	7
126.02855	12
126.66234	6
129.03073	14
132.02098	6
134.03482	163
135.0419	76
136.01454	126
136.04369	5
137.02161	5
146.04387	6
148.05292	13
149.01634	9
149.0593	62
150.05881	19
151.00218	540
152.00993	74
155.8358	9
157.4028	9
158.03615	56
160.0135	14
161.02016	25
162.03636	6
164.00981	1000
165.01538	125
166.01648	6
168.0555	9
171.03886	6
172.05588	25
173.01462	7
173.02946	18
173.05186	10
173.06204	36
174.03023	321
174.04402	7
174.99857	29
175.0345	63
175.04672	14
176.00876	5
176.03589	16
176.05408	14
177.01288	43
177.02715	28
180.05182	15
181.67749	9
183.03954	6
185.02591	27
186.06456	15
187.04176	68
187.07339	14
188.00339	9
188.01318	9
188.04178	12
188.05139	34
189.01558	5
190.06117	6
191.06451	14
191.07994	20
192.07477	7
197.0573	8
198.02789	8
198.06628	7
199.03821	286
200.00999	37
200.04311	177
201.01709	208
201.03493	10
201.04834	17
201.05692	10
202.0218	102
202.03537	9
202.05595	8
203.02547	15
203.03448	7
203.063	5
205.21527	11
206.01622	6
211.03485	13
211.05319	7
213.05077	38
214.02109	16
214.03374	8
214.05949	95
214.92719	7
215.03468	142
215.06769	55
216.03264	23
216.04114	57
216.0732	6
217.04424	68
217.39682	7
218.056	24
218.12839	6
219.02888	9
224.04478	41
224.06136	6
225.05199	27
227.03152	45
227.06378	7
228.03172	5
229.04117	13
229.05078	14
229.94121	14
230.05666	36
230.06767	7
231.03252	9
231.06335	6
233.07816	23
233.09036	6
233.50467	8
234.09196	15
235.01515	7
239.028	7
239.04007	24
239.06888	11
240.04176	62
240.07832	12
240.99872	10
241.04211	32
241.05164	122
242.05589	333
243.02042	6
243.03029	25
243.05539	42
243.06624	23
244.03923	5
244.065	12
245.07237	5
248.03709	6
249.05322	6
251.03223	5
255.05417	6
257.03375	5
257.04752	41
257.07788	70
257.09122	20
258.05148	74
258.08069	17
258.09955	5
258.28928	6
259.034	5
259.05597	23
260.06274	14
266.04959	6
267.02774	31
268.03192	63
268.04837	8
269.04135	51
272.48511	7
283.061	19
283.07928	18
284.01746	12
284.06335	13
285.03485	71
285.04901	15
285.07965	17
285.8837	6
286.04736	321
286.79288	6
286.90625	9
287.04846	50
288.0535	12
293.08469	7
295.04291	9
295.06577	11
299.05676	6
300.05478	7
301.07101	350
302.06952	11
305.08514	6
305.09985	10
305.27515	6
310.03894	7
313.06143	6
315.08575	13
325.02496	6
325.06567	6
325.07706	6
327.04745	6
328.05637	5
344.07684	6
459.10428	5
473.11313	8
596.10236	8

NAME: Phloretin-2'-O-glucoside
PRECURSORMZ: 435.12967054783
PRECURSORTYPE: [M-H]-
INSTRUMENTTYPE: LC-ESI-QTOF
SMILES: OCC1OC(OC2=CC(O)=CC(O)=C2C(=O)CCC2=CC=C(O)C=C2)C(O)C(O)C1O
INCHIKEY: IOUVKUPGCMBWBT-UHFFFAOYNA-N
Ontology: Flavonoid O-glycosides
COLLISIONENERGY: 50
FORMULA: C21H24O10
RETENTIONTIME: 4.7256
IONMODE: Negative
Comment: registered in RIKEN PlaSMA
Num Peaks: 67
63.02022	8
64.99524	14
65.00186	19
79.05801	15
81.03347	318
82.03294	10
83.01328	107
84.01468	9
93.03267	142
95.01173	26
95.01652	19
95.04646	29
97.02838	12
99.04316	12
105.02975	8
107.01074	59
107.01704	23
108.0162	10
111.03591	12
111.04218	7
117.03289	11
119.04885	238
120.05465	38
121.03017	9
123.04359	1000
124.00942	8
124.04558	34
124.05151	28
125.02313	163
126.02761	25
132.01068	11
133.02544	14
137.01979	23
138.02469	14
138.03189	12
143.03951	11
145.06668	37
146.06473	18
146.07233	9
147.04369	45
149.01859	9
150.02753	8
151.00262	137
152.01076	11
163.04129	10
164.0152	17
164.07353	11
164.08536	13
166.01884	10
166.98364	11
167.01054	15
167.0321	283
167.12036	10
168.04175	32
169.06441	30
179.03448	49
185.05655	19
186.06969	24
187.04233	14
187.07903	7
187.08614	7
189.05453	77
190.05991	13
191.03392	9
199.06058	8
228.08328	12
255.06172	10

NAME: Kaempferol-4'-methyl ether
PRECURSORMZ: 299.05611164783
PRECURSORTYPE: [M-H]-
INSTRUMENTTYPE: LC-ESI-QTOF
SMILES: COC1=CC=C(C=C1)C1=C(O)C(=O)C2=C(O)C=C(O)C=C2O1
INCHIKEY: SQFSKOYWJBQGKQ-UHFFFAOYSA-N
Ontology: Flavonols
COLLISIONENERGY: 50
FORMULA: C16H12O6
RETENTIONTIME: 7.54755
IONMODE: Negative
Comment: registered in RIKEN PlaSMA
Num Peaks: 48
63.02053	236
63.02662	75
65.00351	188
80.02882	134
83.01398	473
84.67107	62
88.67526	86
91.01609	106
92.02489	349
93.0181	62
95.0122	202
96.01597	82
104.02052	65
104.02695	140
104.03518	123
107.01069	1000
108.01985	726
108.03164	79
117.0273	151
117.03843	62
119.01053	103
125.03328	75
129.0363	92
132.01701	442
133.0188	96
133.0269	72
135.00758	370
136.02121	86
141.03215	147
147.03195	72
154.04105	137
155.03893	79
155.04474	72
163.00162	613
164.00641	86
165.0106	96
167.04529	188
169.02057	110
173.01962	99
182.03763	212
183.03699	250
184.03857	82
199.03581	68
199.04289	92
211.0363	140
213.01749	86
227.0397	202
286.51324	68

NAME: Quercetin-3-O-galactoside
PRECURSORMZ: 463.08819964783
PRECURSORTYPE: [M-H]-
INSTRUMENTTYPE: LC-ESI-QTOF
SMILES: OCC1OC(OC2=C(OC3=CC(O)=CC(O)=C3C2=O)C2=CC(O)=C(O)C=C2)C(O)C(O)C1O
INCHIKEY: OVSQVDMCBVZWGM-UHFFFAOYNA-N
Ontology: Flavonoid-3-O-glycosides
COLLISIONENERGY: 10
FORMULA: C21H20O12
RETENTIONTIME: 3.986217
IONMODE: Negative
Comment: registered in RIKEN PlaSMA
Num Peaks: 50
83.01171	6
107.00928	14
121.02402	7
135.00879	5
151.00516	40
151.67944	5
152.00998	5
178.9986	51
183.04288	6
189.05699	5
205.94942	5
211.04224	7
213.00616	6
226.01753	6
227.02888	8
227.0377	8
228.03371	7
239.03358	5
242.01801	17
242.03563	8
243.02271	21
243.03027	25
244.02859	18
245.03867	23
254.02321	18
255.02878	137
256.02164	12
256.0318	13
257.03763	9
269.04471	6
270.01752	11
271.02261	280
272.01718	17
272.03082	62
273.02744	5
273.04449	17
283.02084	13
299.00723	17
299.02344	38
300.02499	805
301.03177	625
301.06458	9
302.03091	39
302.043	44
303.03748	11
343.06894	6
461.06082	25
462.04684	8
462.07495	56
463.08533	1000

NAME: Datiscetin-3-O-rutinoside
PRECURSORMZ: 593.15119384783
PRECURSORTYPE: [M-H]-
INSTRUMENTTYPE: LC-ESI-QTOF
SMILES: CC1OC(OCC2OC(OC3=C(OC4=CC(O)=CC(O)=C4C3=O)C3=CC=CC=C3O)C(O)C(O)C2O)C(O)C(O)C1O
INCHIKEY: BJJCTXDEJUWVIC-UHFFFAOYNA-N
Ontology: Flavonoid-3-O-glycosides
COLLISIONENERGY: 10
FORMULA: C27H30O15
RETENTIONTIME: 4.099083
IONMODE: Negative
Comment: registered in RIKEN PlaSMA
Num Peaks: 26
107.00902	5
124.00894	5
125.02088	33
133.02565	9
143.0498	10
150.99623	16
151.00311	26
163.00357	10
171.04437	13
211.03905	6
213.05261	29
239.02513	6
241.04482	6
255.02811	22
256.03348	11
257.0484	9
267.01425	6
267.03061	43
284.03284	97
285.03821	1000
285.06516	7
286.0426	190
286.06281	6
287.04605	19
327.04507	6
593.14972	941

NAME: Hesperetin-7-O-neohesperidoside
PRECURSORMZ: 609.18249394783
PRECURSORTYPE: [M-H]-
INSTRUMENTTYPE: LC-ESI-QTOF
SMILES: COC1=C(O)C=C(C=C1)C1CC(=O)C2=C(O)C=C(OC3OC(CO)C(O)C(O)C3OC3OC(C)C(O)C(O)C3O)C=C2O1
INCHIKEY: ARGKVCXINMKCAZ-UHFFFAOYNA-N
Ontology: Flavonoid-7-O-glycosides
COLLISIONENERGY: 10
FORMULA: C28H34O15
RETENTIONTIME: 4.609183
IONMODE: Negative
Comment: registered in RIKEN PlaSMA
Num Peaks: 25
125.02039	13
125.02625	7
151.00711	11
164.01027	23
174.03401	8
186.02359	5
199.0349	12
199.04535	6
215.03992	7
242.05554	18
257.07452	12
258.0719	6
283.06201	19
286.04892	68
287.0567	6
301.07126	614
302.07379	112
303.07645	16
304.08307	7
325.06866	23
343.07742	28
403.10049	10
447.12231	8
489.13797	25
609.1817	1000

NAME: Phloretin-2'-O-glucoside
PRECURSORMZ: 435.12967054783
PRECURSORTYPE: [M-H]-
INSTRUMENTTYPE: LC-ESI-QTOF
SMILES: OCC1OC(OC2=CC(O)=CC(O)=C2C(=O)CCC2=CC=C(O)C=C2)C(O)C(O)C1O
INCHIKEY: IOUVKUPGCMBWBT-UHFFFAOYNA-N
Ontology: Flavonoid O-glycosides
COLLISIONENERGY: 10
FORMULA: C21H24O10
RETENTIONTIME: 4.7256
IONMODE: Negative
Comment: registered in RIKEN PlaSMA
Num Peaks: 17
93.03658	7
119.04807	14
119.0519	5
123.04186	54
125.02061	55
151.00316	7
167.03255	451
168.03618	30
179.03708	25
180.03204	6
189.05122	7
273.07556	1000
274.07947	167
275.08057	27
276.08414	9
297.07269	9
435.1293	98

NAME: Kaempferol-4'-methyl ether
PRECURSORMZ: 299.05611164783
PRECURSORTYPE: [M-H]-
INSTRUMENTTYPE: LC-ESI-QTOF
SMILES: COC1=CC=C(C=C1)C1=C(O)C(=O)C2=C(O)C=C(O)C=C2O1
INCHIKEY: SQFSKOYWJBQGKQ-UHFFFAOYSA-N
Ontology: Flavonols
COLLISIONENERGY: 10
FORMULA: C16H12O6
RETENTIONTIME: 7.54755
IONMODE: Negative
Comment: registered in RIKEN PlaSMA
Num Peaks: 38
63.01997	7
83.01388	16
95.01207	10
104.02422	9
107.01299	50
108.01848	23
120.01951	11
121.99676	10
132.0161	11
132.02188	31
135.00366	12
136.00984	8
136.01801	6
149.98572	7
149.99461	13
151.00111	220
152.00439	21
163.00072	46
164.00436	16
164.0148	24
165.01117	6
190.99519	6
199.03424	7
200.04117	16
211.03563	16
212.04953	7
225.02049	6
227.03616	29
228.03122	20
255.02498	37
256.02246	5
283.01703	6
284.02939	885
285.03409	187
286.02365	13
286.03809	20
298.05249	6
299.05246	1000

NAME: Quercetin-3-O-galactoside
PRECURSORMZ: 463.08819964783
PRECURSORTYPE: [M-H]-
INSTRUMENTTYPE: LC-ESI-QTOF
SMILES: OCC1OC(OC2=C(OC3=CC(O)=CC(O)=C3C2=O)C2=CC(O)=C(O)C=C2)C(O)C(O)C1O
INCHIKEY: OVSQVDMCBVZWGM-UHFFFAOYNA-N
Ontology: Flavonoid-3-O-glycosides
COLLISIONENERGY: 10
FORMULA: C21H20O12
RETENTIONTIME: 3.986217
IONMODE: Negative
Comment: registered in RIKEN PlaSMA
Num Peaks: 9
299.01318	11
299.02814	6
300.0267	78
301.03448	135
302.03772	17
461.05942	8
461.07742	9
462.07092	44
463.08707	1000

NAME: Datiscetin-3-O-rutinoside
PRECURSORMZ: 593.15119384783
PRECURSORTYPE: [M-H]-
INSTRUMENTTYPE: LC-ESI-QTOF
SMILES: CC1OC(OCC2OC(OC3=C(OC4=CC(O)=CC(O)=C4C3=O)C3=CC=CC=C3O)C(O)C(O)C2O)C(O)C(O)C1O
INCHIKEY: BJJCTXDEJUWVIC-UHFFFAOYNA-N
Ontology: Flavonoid-3-O-glycosides
COLLISIONENERGY: 10
FORMULA: C27H30O15
RETENTIONTIME: 4.099083
IONMODE: Negative
Comment: registered in RIKEN PlaSMA
Num Peaks: 3
285.03821	100
286.04437	14
593.15112	1000

NAME: Hesperetin-7-O-neohesperidoside
PRECURSORMZ: 609.18249394783
PRECURSORTYPE: [M-H]-
INSTRUMENTTYPE: LC-ESI-QTOF
SMILES: COC1=C(O)C=C(C=C1)C1CC(=O)C2=C(O)C=C(OC3OC(CO)C(O)C(O)C3OC3OC(C)C(O)C(O)C3O)C=C2O1
INCHIKEY: ARGKVCXINMKCAZ-UHFFFAOYNA-N
Ontology: Flavonoid-7-O-glycosides
COLLISIONENERGY: 10
FORMULA: C28H34O15
RETENTIONTIME: 4.609183
IONMODE: Negative
Comment: registered in RIKEN PlaSMA
Num Peaks: 2
301.0744	21
609.18372	1000

NAME: Phloretin-2'-O-glucoside
PRECURSORMZ: 435.12967054783
PRECURSORTYPE: [M-H]-
INSTRUMENTTYPE: LC-ESI-QTOF
SMILES: OCC1OC(OC2=CC(O)=CC(O)=C2C(=O)CCC2=CC=C(O)C=C2)C(O)C(O)C1O
INCHIKEY: IOUVKUPGCMBWBT-UHFFFAOYNA-N
Ontology: Flavonoid O-glycosides
COLLISIONENERGY: 10
FORMULA: C21H24O10
RETENTIONTIME: 4.7256
IONMODE: Negative
Comment: registered in RIKEN PlaSMA
Num Peaks: 8
125.02153	5
167.02914	9
167.03772	7
273.07471	1000
274.07816	176
275.07346	14
275.0849	19
435.12714	228

NAME: Kaempferol-4'-methyl ether
PRECURSORMZ: 299.05611164783
PRECURSORTYPE: [M-H]-
INSTRUMENTTYPE: LC-ESI-QTOF
SMILES: COC1=CC=C(C=C1)C1=C(O)C(=O)C2=C(O)C=C(O)C=C2O1
INCHIKEY: SQFSKOYWJBQGKQ-UHFFFAOYSA-N
Ontology: Flavonols
COLLISIONENERGY: 10
FORMULA: C16H12O6
RETENTIONTIME: 7.54755
IONMODE: Negative
Comment: registered in RIKEN PlaSMA
Num Peaks: 4
151.00136	7
284.03046	220
285.0347	29
299.05466	1000

NAME: Quercetin-3-O-galactoside
PRECURSORMZ: 463.08819964783
PRECURSORTYPE: [M-H]-
INSTRUMENTTYPE: LC-ESI-QTOF
SMILES: OCC1OC(OC2=C(OC3=CC(O)=CC(O)=C3C2=O)C2=CC(O)=C(O)C=C2)C(O)C(O)C1O
INCHIKEY: OVSQVDMCBVZWGM-UHFFFAOYNA-N
Ontology: Flavonoid-3-O-glycosides
COLLISIONENERGY: 30
FORMULA: C21H20O12
RETENTIONTIME: 3.986217
IONMODE: Negative
Comment: registered in RIKEN PlaSMA
Num Peaks: 42
129.01509	5
148.02524	5
150.99995	82
151.00722	40
152.01051	9
163.00294	17
164.00807	8
178.99596	62
179.9967	10
201.04985	5
211.03658	7
211.05109	7
212.48497	6
215.0369	6
226.02286	10
227.03329	8
227.04515	8
242.01448	9
243.02763	57
243.03955	13
244.02859	12
244.03641	13
254.01462	7
254.02534	22
255.02873	242
256.03323	33
257.03391	6
270.01031	17
271.02402	438
272.01279	8
272.03012	71
273.03046	16
273.0466	9
274.03705	7
283.02322	23
299.01614	21
300.02582	1000
301.03168	428
302.02057	6
302.03122	21
302.04434	9
343.04477	6

NAME: Datiscetin-3-O-rutinoside
PRECURSORMZ: 593.15119384783
PRECURSORTYPE: [M-H]-
INSTRUMENTTYPE: LC-ESI-QTOF
SMILES: CC1OC(OCC2OC(OC3=C(OC4=CC(O)=CC(O)=C4C3=O)C3=CC=CC=C3O)C(O)C(O)C2O)C(O)C(O)C1O
INCHIKEY: BJJCTXDEJUWVIC-UHFFFAOYNA-N
Ontology: Flavonoid-3-O-glycosides
COLLISIONENERGY: 30
FORMULA: C27H30O15
RETENTIONTIME: 4.099083
IONMODE: Negative
Comment: registered in RIKEN PlaSMA
Num Peaks: 21
125.02169	61
133.02876	21
143.05107	7
151.00281	58
163.00172	16
199.04129	9
213.0565	29
214.05617	6
240.04816	5
241.05016	6
255.02687	23
256.04266	5
257.04846	18
267.01898	10
267.02869	42
268.03415	7
284.02936	162
284.04846	18
285.03937	1000
286.04184	181
287.04443	22

NAME: Hesperetin-7-O-neohesperidoside
PRECURSORMZ: 609.18249394783
PRECURSORTYPE: [M-H]-
INSTRUMENTTYPE: LC-ESI-QTOF
SMILES: COC1=C(O)C=C(C=C1)C1CC(=O)C2=C(O)C=C(OC3OC(CO)C(O)C(O)C3OC3OC(C)C(O)C(O)C3O)C=C2O1
INCHIKEY: ARGKVCXINMKCAZ-UHFFFAOYNA-N
Ontology: Flavonoid-7-O-glycosides
COLLISIONENERGY: 30
FORMULA: C28H34O15
RETENTIONTIME: 4.609183
IONMODE: Negative
Comment: registered in RIKEN PlaSMA
Num Peaks: 27
125.02705	9
164.00926	10
199.03377	7
215.0322	6
217.04425	7
241.05316	8
242.04996	10
242.06036	13
257.08093	14
258.05435	5
283.06027	11
286.04477	43
287.05618	18
301.06949	1000
302.07312	174
303.07803	32
307.0611	6
310.05179	8
315.08856	7
325.06885	43
343.08035	57
355.07724	8
356.08871	5
367.08173	6
474.11987	6
489.13968	31
609.18604	106

NAME: Phloretin-2'-O-glucoside
PRECURSORMZ: 435.12967054783
PRECURSORTYPE: [M-H]-
INSTRUMENTTYPE: LC-ESI-QTOF
SMILES: OCC1OC(OC2=CC(O)=CC(O)=C2C(=O)CCC2=CC=C(O)C=C2)C(O)C(O)C1O
INCHIKEY: IOUVKUPGCMBWBT-UHFFFAOYNA-N
Ontology: Flavonoid O-glycosides
COLLISIONENERGY: 30
FORMULA: C21H24O10
RETENTIONTIME: 4.7256
IONMODE: Negative
Comment: registered in RIKEN PlaSMA
Num Peaks: 30
81.0321	8
83.01465	7
93.03393	10
93.03741	5
99.04382	5
119.04836	53
123.04301	161
124.05228	13
125.02294	89
135.04097	12
139.04427	6
151.00444	12
153.01874	5
167.03326	1000
168.03766	100
169.03322	15
169.06569	7
179.02704	35
179.03505	70
180.03886	15
181.03859	10
187.07585	10
189.05389	15
191.03152	9
229.08817	11
255.06136	6
255.07037	7
273.07458	155
274.06686	7
274.08197	29

NAME: Kaempferol-4'-methyl ether
PRECURSORMZ: 299.05611164783
PRECURSORTYPE: [M-H]-
INSTRUMENTTYPE: LC-ESI-QTOF
SMILES: COC1=CC=C(C=C1)C1=C(O)C(=O)C2=C(O)C=C(O)C=C2O1
INCHIKEY: SQFSKOYWJBQGKQ-UHFFFAOYSA-N
Ontology: Flavonols
COLLISIONENERGY: 30
FORMULA: C16H12O6
RETENTIONTIME: 7.54755
IONMODE: Negative
Comment: registered in RIKEN PlaSMA
Num Peaks: 90
62.86958	6
63.02318	40
65.00185	40
66.00581	6
83.01244	114
92.02592	24
94.00309	27
95.00885	12
104.0247	8
105.02781	6
105.78703	8
107.01234	505
108.02083	116
108.02628	35
109.01984	7
109.02459	7
109.03257	6
114.22023	7
120.01955	129
121.02349	10
121.99916	55
123.01023	9
124.00502	6
132.01912	193
133.02422	19
135.00552	33
136.01086	32
136.01761	45
137.01974	19
149.99623	39
151.00325	1000
152.00464	71
153.02382	6
156.06189	13
157.0636	6
158.04468	8
160.04796	8
163.00259	246
164.01007	316
165.01175	28
166.01544	19
167.03662	5
167.05574	6
168.94244	5
172.0206	6
173.02429	7
173.06023	6
176.01071	21
182.03604	15
183.02782	7
183.04231	19
184.04933	27
186.03021	8
189.01273	5
190.99672	6
195.03827	8
199.03979	84
200.04041	62
200.05159	10
201.05701	8
210.02512	11
210.04222	6
211.03035	5
211.041	25
212.0407	13
212.04988	16
217.01003	6
227.032	110
227.03886	44
228.02893	10
228.04305	22
229.05077	8
229.40985	5
238.39694	8
239.02348	12
239.03258	8
240.04471	33
243.06099	7
252.00372	6
253.88753	8
255.03278	127
256.03076	12
256.03894	17
257.03665	8
283.02667	55
284.03113	528
285.03125	68
285.04285	35
286.04977	10
299.06842	11

NAME: Quercetin-3-O-galactoside
PRECURSORMZ: 463.08819964783
PRECURSORTYPE: [M-H]-
INSTRUMENTTYPE: LC-ESI-QTOF
SMILES: OCC1OC(OC2=C(OC3=CC(O)=CC(O)=C3C2=O)C2=CC(O)=C(O)C=C2)C(O)C(O)C1O
INCHIKEY: OVSQVDMCBVZWGM-UHFFFAOYNA-N
Ontology: Flavonoid-3-O-glycosides
COLLISIONENERGY: 50
FORMULA: C21H20O12
RETENTIONTIME: 3.986217
IONMODE: Negative
Comment: registered in RIKEN PlaSMA
Num Peaks: 132
63.02007	5
83.01281	7
91.01727	12
93.03091	8
94.03771	11
95.015	6
101.04216	6
106.00408	7
106.49152	5
107.01094	85
108.01845	94
108.99312	8
109.0229	5
119.01188	15
120.01367	6
121.01954	11
121.02727	16
121.03474	5
123.00578	12
124.01044	14
133.02087	7
135.00294	23
135.00998	7
136.01714	7
136.30688	5
137.01344	7
137.03017	6
142.90979	10
143.04266	13
145.02852	18
147.00534	14
148.00681	16
148.01712	62
150.01927	7
151.00296	31
151.02122	6
152.00784	19
153.03856	10
154.0421	8
155.04353	22
155.05611	7
157.0224	5
159.04359	5
159.0537	9
161.05992	12
162.03641	7
163.00397	19
164.00514	9
169.03104	7
170.03539	5
171.03842	6
171.0477	16
171.05446	13
172.05054	26
173.02373	13
174.02774	6
174.03555	14
175.04022	13
178.9993	11
182.02934	6
182.04018	7
183.02853	5
183.04364	28
184.04951	5
185.02209	22
186.02927	8
187.03732	53
188.04613	10
189.05428	8
192.00603	7
197.02112	13
198.0248	12
198.03145	26
198.06442	7
199.03691	139
199.05754	7
200.0443	6
201.00662	9
201.01964	38
201.05157	12
201.61438	6
202.01767	6
202.02899	12
203.02495	8
203.03391	22
203.04234	17
211.03667	42
212.03896	5
213.01425	7
214.04276	6
215.03189	35
216.02724	12
218.01942	8
225.01584	12
225.99968	7
226.02556	29
227.0359	197
228.03009	11
228.04414	15
229.00032	7
229.01797	5
229.04655	8
230.01399	7
239.02725	7
239.03685	5
239.0497	9
241.0105	60
242.01094	12
242.0204	40
243.02792	315
244.0139	6
244.03616	35
245.02689	7
254.01747	21
254.03062	10
255.0296	301
256.03067	56
257.04013	18
258.01578	7
271.02496	1000
271.75961	5
272.00943	6
272.02835	102
272.0477	18
273.02454	16
292.82837	7
299.01169	5
299.02399	26
300.00272	7
300.02213	11
300.05402	6
301.03043	5

NAME: Datiscetin-3-O-rutinoside
PRECURSORMZ: 593.15119384783
PRECURSORTYPE: [M-H]-
INSTRUMENTTYPE: LC-ESI-QTOF
SMILES: CC1OC(OCC2OC(OC3=C(OC4=CC(O)=CC(O)=C4C3=O)C3=CC=CC=C3O)C(O)C(O)C2O)C(O)C(O)C1O
INCHIKEY: BJJCTXDEJUWVIC-UHFFFAOYNA-N
Ontology: Flavonoid-3-O-glycosides
COLLISIONENERGY: 50
FORMULA: C27H30O15
RETENTIONTIME: 4.099083
IONMODE: Negative
Comment: registered in RIKEN PlaSMA
Num Peaks: 149
65.00216	13
77.03983	13
80.02869	10
81.0324	9
83.01335	130
83.02225	12
84.0143	9
87.00568	12
93.03399	51
94.00199	9
101.28519	8
107.01282	339
107.17055	9
108.00964	33
108.01875	95
108.98817	8
109.00108	8
109.02178	10
117.03314	13
118.84019	8
119.04492	17
119.05157	17
120.01826	9
124.01468	112
125.02239	536
126.02444	9
127.02693	9
127.03621	16
130.03328	9
131.05644	10
133.02702	401
134.0293	22
134.03819	22
135.00444	28
135.0134	18
136.01241	174
137.01341	13
141.06718	21
143.04358	75
143.05167	108
143.30116	11
144.04916	35
145.05705	13
145.06377	10
147.04616	9
149.9929	17
151.00159	1000
152.0062	71
153.01685	19
153.06882	10
155.0472	31
156.05772	11
157.02583	31
157.03247	10
157.06059	19
160.01308	8
161.06007	29
162.062	12
162.99875	62
163.00752	65
164.00505	53
164.02138	10
168.05481	11
169.062	77
169.06996	46
170.03407	17
170.06923	22
171.04279	115
172.04494	31
175.02591	9
175.04201	9
177.01236	16
178.98741	8
179.03131	8
179.04559	17
180.0531	11
180.20425	12
183.04134	46
184.05418	36
185.05908	103
186.80287	13
187.03493	9
187.04437	21
187.07884	13
189.05464	38
189.98772	10
190.73447	8
194.04059	9
195.0408	20
195.04907	36
196.04291	13
196.05392	8
197.05786	11
199.03746	29
199.0481	7
201.01558	25
209.04607	12
211.03244	85
211.03973	246
211.45099	10
212.03506	15
213.05243	186
214.05956	41
215.03342	67
215.04333	22
216.02748	9
217.04066	16
217.04907	10
218.74852	9
221.02145	11
223.03754	66
223.10593	15
225.00925	9
227.03285	205
227.04282	71
228.0311	12
228.03972	11
229.03862	13
229.04756	8
229.84943	16
230.05746	11
238.92776	11
239.02846	101
240.04002	42
241.03528	21
241.05156	34
248.22362	9
254.04182	9
255.02794	606
256.02954	122
256.04352	23
256.05484	8
257.02274	8
258.04196	9
266.00986	12
266.02252	17
267.02899	690
268.02768	76
269.03812	10
283.02344	8
283.03531	11
284.02328	78
284.03156	167
285.0217	43
285.04099	380
285.2399	9
286.03992	53
287.03342	15
460.91	13

NAME: Hesperetin-7-O-neohesperidoside
PRECURSORMZ: 609.18249394783
PRECURSORTYPE: [M-H]-
INSTRUMENTTYPE: LC-ESI-QTOF
SMILES: COC1=C(O)C=C(C=C1)C1CC(=O)C2=C(O)C=C(OC3OC(CO)C(O)C(O)C3OC3OC(C)C(O)C(O)C3O)C=C2O1
INCHIKEY: ARGKVCXINMKCAZ-UHFFFAOYNA-N
Ontology: Flavonoid-7-O-glycosides
COLLISIONENERGY: 50
FORMULA: C28H34O15
RETENTIONTIME: 4.609183
IONMODE: Negative
Comment: registered in RIKEN PlaSMA
Num Peaks: 218
55.84489	6
67.83254	7
71.01291	20
82.00337	9
83.01169	8
87.00527	6
88.03661	6
96.02261	8
97.51002	8
107.01257	82
108.01566	14
108.02439	6
108.44527	6
112.78822	7
114.06651	8
118.03558	8
122.00653	8
124.01851	9
125.02138	93
125.02864	44
125.87192	6
125.99269	8
126.02485	7
126.03104	8
131.01308	9
131.02873	8
132.0217	8
133.02626	5
134.03697	140
135.00201	8
135.03729	28
135.048	10
136.0148	123
136.03706	9
137.02254	12
138.03972	16
144.6264	8
145.03625	6
146.04071	13
148.00764	6
149.01807	9
149.05846	68
149.06989	8
151.00276	527
152.00523	53
152.01201	34
154.01196	6
155.04729	7
157.03323	5
157.74547	8
158.03554	48
159.03914	18
159.04634	6
160.01566	17
161.02525	12
162.03171	19
162.99783	8
164.00993	1000
164.4635	11
165.0154	50
165.02249	25
166.01479	16
166.02271	11
168.04605	7
169.08095	9
170.06955	13
172.05029	28
172.06264	6
172.84535	6
173.02658	6
173.0587	46
174.02885	247
174.06718	8
174.67931	6
174.99644	20
175.00554	24
175.03952	49
176.00964	22
176.02887	6
176.04549	15
176.26677	8
177.01317	17
177.04544	7
177.46805	7
178.02997	26
179.03056	9
184.02158	6
185.02774	23
185.05951	11
187.03336	22
187.04312	26
187.07965	6
187.08923	11
188.00259	8
188.01511	8
188.02257	7
188.04472	59
189.05524	6
190.03236	5
191.06241	12
191.07109	39
192.07054	8
193.00687	16
194.02956	7
196.05183	33
198.03055	53
199.03888	286
199.99789	7
200.01111	18
200.04753	103
201.01726	234
201.04501	21
201.05577	30
202.01355	7
202.02438	35
202.03421	17
203.00284	8
203.01312	9
203.03578	17
203.04539	6
207.04318	11
209.05557	7
210.05711	6
211.04507	33
212.03918	6
212.05037	9
213.05589	46
214.06261	120
215.01866	12
215.03525	116
215.04828	22
215.06747	30
215.07422	12
216.04514	33
216.06778	9
216.94084	7
217.04607	43
217.05519	35
218.01193	9
218.05612	8
218.06635	11
222.03586	10
223.02628	7
223.04732	17
224.04562	82
225.04153	6
225.05711	7
225.06552	5
227.02704	14
227.0358	53
227.04807	8
227.08977	6
229.0486	7
229.08299	9
230.01749	8
230.05103	21
230.07898	7
233.07771	25
238.04865	6
238.06126	6
239.06491	14
240.0379	82
241.05005	163
242.05656	422
243.02165	6
243.05237	13
243.06812	37
250.0325	8
254.0612	15
257.02618	7
257.04944	15
257.06027	8
257.08038	67
257.09171	19
258.04166	29
258.05692	42
259.87512	12
265.04926	5
267.02283	5
268.02869	38
268.04462	56
269.03876	24
271.05688	6
272.0705	7
276.03775	7
282.04944	6
283.04639	41
283.06055	34
284.03787	6
284.06873	8
285.04303	76
285.55859	11
286.02789	18
286.04913	289
286.08865	7
287.03888	15
287.05374	72
287.1254	7
288.04645	7
292.41269	10
295.04044	7
297.08212	5
301.07031	422
301.10532	6
302.03827	5
302.06436	18
302.07767	27
303.06717	8
303.08813	9
310.0423	7
328.05573	6
329.06128	9
339.09875	6
340.05804	8
368.03766	8
433.11404	5
609.17413	39
609.19415	106

NAME: Phloretin-2'-O-glucoside
PRECURSORMZ: 435.12967054783
PRECURSORTYPE: [M-H]-
INSTRUMENTTYPE: LC-ESI-QTOF
SMILES: OCC1OC(OC2=CC(O)=CC(O)=C2C(=O)CCC2=CC=C(O)C=C2)C(O)C(O)C1O
INCHIKEY: IOUVKUPGCMBWBT-UHFFFAOYNA-N
Ontology: Flavonoid O-glycosides
COLLISIONENERGY: 50
FORMULA: C21H24O10
RETENTIONTIME: 4.7256
IONMODE: Negative
Comment: registered in RIKEN PlaSMA
Num Peaks: 67
67.43805	25
81.03318	265
82.03556	14
83.01192	76
83.01878	19
83.03593	13
85.029	11
91.01931	12
93.0338	76
94.03957	11
95.01155	13
95.04388	29
95.0507	31
96.0525	25
97.02202	14
104.02157	15
107.01313	39
107.04842	16
117.02515	10
119.04655	288
120.05092	77
122.03867	24
122.57238	10
123.0436	1000
124.01823	11
124.0448	20
124.05172	22
125.02186	253
125.04916	17
131.00748	10
135.04726	26
137.01826	11
143.04984	21
145.02321	10
145.06509	11
145.26622	17
147.047	12
151.00305	60
151.03947	11
159.04105	11
161.05928	39
163.03865	10
164.01767	10
166.02582	13
167.03409	299
168.0374	46
168.05902	16
169.06023	23
169.07236	10
171.04041	45
171.05159	13
172.05382	11
179.02701	22
179.03906	11
182.07234	15
184.05437	11
185.09303	15
187.07411	35
189.05408	87
190.0219	12
190.05664	38
200.05013	12
211.07005	23
214.05794	11
214.0751	14
227.07172	10
256.05515	11

NAME: Kaempferol-4'-methyl ether
PRECURSORMZ: 299.05611164783
PRECURSORTYPE: [M-H]-
INSTRUMENTTYPE: LC-ESI-QTOF
SMILES: COC1=CC=C(C=C1)C1=C(O)C(=O)C2=C(O)C=C(O)C=C2O1
INCHIKEY: SQFSKOYWJBQGKQ-UHFFFAOYSA-N
Ontology: Flavonols
COLLISIONENERGY: 50
FORMULA: C16H12O6
RETENTIONTIME: 7.54755
IONMODE: Negative
Comment: registered in RIKEN PlaSMA
Num Peaks: 50
63.0209	187
65.00026	251
83.01264	136
89.03266	75
92.02643	70
95.01345	70
104.02347	104
107.0103	201
107.01683	53
108.02038	604
117.03055	190
117.04013	96
121.9996	70
126.5635	53
127.05059	56
129.03255	222
130.03871	56
130.04576	61
132.01897	404
134.02144	70
135.00578	243
143.04617	80
145.02303	78
146.03075	61
151.00333	53
153.03836	128
154.03354	70
154.0437	72
155.04276	142
155.0513	123
156.05362	59
157.02744	56
159.02814	78
163.00407	1000
164.01309	118
167.04382	61
182.04033	53
183.03674	91
183.04831	246
185.33281	64
199.03102	88
199.04315	59
199.05472	59
200.05412	126
211.03516	51
213.02162	53
226.02751	51
227.02805	110
227.06021	107
239.0265	61

NAME: Apigenin-6-C-glucoside-7-O-glucoside
PRECURSORMZ: 593.15119384783
PRECURSORTYPE: [M-H]-
INSTRUMENTTYPE: LC-ESI-QTOF
SMILES: OCC1OC(OC2=C(C3OC(CO)C(O)C(O)C3O)C(O)=C3C(=O)C=C(OC3=C2)C2=CC=C(O)C=C2)C(O)C(O)C1O
INCHIKEY: HGUVPEBGCAVWID-UHFFFAOYNA-N
Ontology: Flavonoid-7-O-glycosides
COLLISIONENERGY: 10
FORMULA: C27H30O15
RETENTIONTIME: 3.531483
IONMODE: Negative
Comment: registered in RIKEN PlaSMA
Num Peaks: 25
269.0361	13
269.05249	5
281.04617	13
282.0527	57
283.05573	58
283.07413	7
284.05966	14
295.04834	6
297.03851	105
298.03815	13
310.05475	10
311.05414	290
312.04401	5
312.06113	33
313.0665	9
323.05579	9
341.05978	15
341.07513	20
353.065	5
383.06534	7
431.09943	66
473.10684	41
473.12003	17
474.1087	7
593.1507	1000

NAME: Quercetin-3-O-glucoside
PRECURSORMZ: 463.08819964783
PRECURSORTYPE: [M-H]-
INSTRUMENTTYPE: LC-ESI-QTOF
SMILES: OCC1OC(OC2=C(OC3=CC(O)=CC(O)=C3C2=O)C2=CC(O)=C(O)C=C2)C(O)C(O)C1O
INCHIKEY: OVSQVDMCBVZWGM-UHFFFAOYNA-N
Ontology: Flavonoid-3-O-glycosides
COLLISIONENERGY: 10
FORMULA: C21H20O12
RETENTIONTIME: 4.0272
IONMODE: Negative
Comment: registered in RIKEN PlaSMA
Num Peaks: 42
107.00861	8
149.01842	6
151.00351	67
151.01442	7
152.00793	6
163.00005	12
178.9951	54
187.04271	7
199.04378	5
211.03607	6
221.0415	6
227.02995	11
228.04182	13
241.01733	7
242.01492	21
242.0325	6
243.03023	57
244.02956	17
244.04106	7
254.01538	33
254.03047	10
255.02928	139
256.02939	33
256.03677	15
269.99612	7
270.01422	20
271.02249	286
272.02707	67
273.03223	25
283.02524	13
294.4024	6
299.01892	57
300.02792	816
301.03287	728
302.03891	107
302.06192	13
303.03622	12
313.02872	8
461.07288	15
462.07123	25
462.08932	14
463.08673	1000

NAME: Hesperetin-7-O-rutinoside
PRECURSORMZ: 609.18249394783
PRECURSORTYPE: [M-H]-
INSTRUMENTTYPE: LC-ESI-QTOF
SMILES: COC1=C(O)C=C(C=C1)C1CC(=O)C2=C(O)C=C(OC3OC(COC4OC(C)C(O)C(O)C4O)C(O)C(O)C3O)C=C2O1
INCHIKEY: QUQPHWDTPGMPEX-UHFFFAOYNA-N
Ontology: Flavonoid-7-O-glycosides
COLLISIONENERGY: 10
FORMULA: C28H34O15
RETENTIONTIME: 4.49465
IONMODE: Negative
Comment: registered in RIKEN PlaSMA
Num Peaks: 25
125.01958	6
151.00648	13
164.0052	12
165.01349	6
174.034	10
201.01942	7
215.03511	10
241.04439	5
242.05391	14
257.07703	10
257.08731	5
258.05255	7
286.04416	43
287.05005	13
301.0712	1000
302.07373	218
303.07108	11
303.08212	9
315.08276	8
325.06866	19
325.08295	6
326.06467	5
328.05789	7
343.08112	9
609.18188	357

NAME: Quercetin
PRECURSORMZ: 301.03537624783
PRECURSORTYPE: [M-H]-
INSTRUMENTTYPE: LC-ESI-QTOF
SMILES: OC1=CC(O)=C2C(OC(=C(O)C2=O)C2=CC(O)=C(O)C=C2)=C1
INCHIKEY: REFJWTPEDVJJIY-UHFFFAOYSA-N
Ontology: Flavonols
COLLISIONENERGY: 10
FORMULA: C15H10O7
RETENTIONTIME: 5.374467
IONMODE: Negative
Comment: registered in RIKEN PlaSMA
Num Peaks: 69
63.02351	7
65.00185	23
93.03394	10
94.00624	6
96.02361	5
107.01186	126
108.01735	28
109.02395	8
115.05283	5
121.02749	154
122.03072	18
123.00977	6
124.01675	6
125.01988	14
125.03136	6
134.03244	7
135.04539	6
143.04945	7
149.02609	32
151.00275	749
152.00793	34
153.00769	12
158.04135	5
160.01915	6
161.02359	8
161.0657	7
163.97859	5
164.00957	37
165.0179	9
172.04922	13
175.04399	8
178.99632	345
179.99881	27
185.01949	9
187.04115	8
193.00914	5
198.02896	9
199.03682	34
200.03506	12
201.02122	5
201.05054	7
203.03171	10
204.03618	7
205.04913	10
211.03348	9
226.02571	5
227.03342	25
228.00279	5
229.04959	24
233.04437	6
241.8311	6
245.04807	16
255.0321	18
257.04037	8
258.04651	9
269.17587	6
271.02148	49
271.03976	8
272.01367	8
272.02267	17
272.0336	15
273.03482	54
283.02112	5
299.00293	6
299.02029	38
300.00946	21
300.02081	85
301.03287	1000
301.06741	6

NAME: Formononetin
PRECURSORMZ: 267.06628244783
PRECURSORTYPE: [M-H]-
INSTRUMENTTYPE: LC-ESI-QTOF
SMILES: COC1=CC=C(C=C1)C1=COC2=C(C=CC(O)=C2)C1=O
INCHIKEY: HKQYGTCOTHHOMP-UHFFFAOYSA-N
Ontology: 4'-O-methylisoflavones
COLLISIONENERGY: 10
FORMULA: C16H12O4
RETENTIONTIME: 6.672383
IONMODE: Negative
Comment: registered in RIKEN PlaSMA
Num Peaks: 22
91.01849	16
104.02427	9
132.01985	81
133.01936	8
133.02684	6
135.00792	57
136.0112	7
167.04855	31
168.05244	14
180.05504	9
195.04291	181
196.04977	39
208.05275	58
223.03955	239
224.04428	92
225.04773	7
251.03497	153
252.04108	970
253.04459	166
254.04659	25
267.06512	1000
267.11017	12

NAME: Quercetin-3-O-glucoside
PRECURSORMZ: 463.08819964783
PRECURSORTYPE: [M-H]-
INSTRUMENTTYPE: LC-ESI-QTOF
SMILES: OCC1OC(OC2=C(OC3=CC(O)=CC(O)=C3C2=O)C2=CC(O)=C(O)C=C2)C(O)C(O)C1O
INCHIKEY: OVSQVDMCBVZWGM-UHFFFAOYNA-N
Ontology: Flavonoid-3-O-glycosides
COLLISIONENERGY: 10
FORMULA: C21H20O12
RETENTIONTIME: 4.0272
IONMODE: Negative
Comment: registered in RIKEN PlaSMA
Num Peaks: 9
299.02518	5
300.02551	97
301.03305	161
302.03302	27
303.03198	5
461.06226	15
461.07916	17
462.07477	47
463.08511	1000

NAME: Hesperetin-7-O-rutinoside
PRECURSORMZ: 609.18249394783
PRECURSORTYPE: [M-H]-
INSTRUMENTTYPE: LC-ESI-QTOF
SMILES: COC1=C(O)C=C(C=C1)C1CC(=O)C2=C(O)C=C(OC3OC(COC4OC(C)C(O)C(O)C4O)C(O)C(O)C3O)C=C2O1
INCHIKEY: QUQPHWDTPGMPEX-UHFFFAOYNA-N
Ontology: Flavonoid-7-O-glycosides
COLLISIONENERGY: 10
FORMULA: C28H34O15
RETENTIONTIME: 4.49465
IONMODE: Negative
Comment: registered in RIKEN PlaSMA
Num Peaks: 5
301.07028	467
302.07455	106
303.07327	16
609.18439	1000
609.22784	8

NAME: Quercetin
PRECURSORMZ: 301.03537624783
PRECURSORTYPE: [M-H]-
INSTRUMENTTYPE: LC-ESI-QTOF
SMILES: OC1=CC(O)=C2C(OC(=C(O)C2=O)C2=CC(O)=C(O)C=C2)=C1
INCHIKEY: REFJWTPEDVJJIY-UHFFFAOYSA-N
Ontology: Flavonols
COLLISIONENERGY: 10
FORMULA: C15H10O7
RETENTIONTIME: 5.374467
IONMODE: Negative
Comment: registered in RIKEN PlaSMA
Num Peaks: 12
121.02669	9
151.00203	107
152.00568	10
178.99747	111
179.996	6
229.04697	8
271.01773	17
272.02792	16
273.03592	11
299.01849	43
300.02365	49
301.03427	1000

NAME: Formononetin
PRECURSORMZ: 267.06628244783
PRECURSORTYPE: [M-H]-
INSTRUMENTTYPE: LC-ESI-QTOF
SMILES: COC1=CC=C(C=C1)C1=COC2=C(C=CC(O)=C2)C1=O
INCHIKEY: HKQYGTCOTHHOMP-UHFFFAOYSA-N
Ontology: 4'-O-methylisoflavones
COLLISIONENERGY: 10
FORMULA: C16H12O4
RETENTIONTIME: 6.672383
IONMODE: Negative
Comment: registered in RIKEN PlaSMA
Num Peaks: 4
252.04195	203
253.0452	39
267.06476	1000
267.11139	15

NAME: Apigenin-6-C-glucoside-7-O-glucoside
PRECURSORMZ: 593.15119384783
PRECURSORTYPE: [M-H]-
INSTRUMENTTYPE: LC-ESI-QTOF
SMILES: OCC1OC(OC2=C(C3OC(CO)C(O)C(O)C3O)C(O)=C3C(=O)C=C(OC3=C2)C2=CC=C(O)C=C2)C(O)C(O)C1O
INCHIKEY: HGUVPEBGCAVWID-UHFFFAOYNA-N
Ontology: Flavonoid-7-O-glycosides
COLLISIONENERGY: 30
FORMULA: C27H30O15
RETENTIONTIME: 3.531483
IONMODE: Negative
Comment: registered in RIKEN PlaSMA
Num Peaks: 42
191.03654	12
259.01575	6
268.03656	10
269.04337	35
270.04828	6
281.03934	6
281.05124	6
282.05145	87
283.05652	67
283.0679	19
284.05536	15
293.03967	12
296.03387	5
297.03979	350
298.04218	63
299.05075	18
309.03302	5
310.04266	9
311.0549	1000
312.05887	132
313.05911	34
323.04666	23
325.07523	12
335.0546	6
339.04227	7
340.05981	6
341.06479	112
342.06155	11
353.05997	18
353.0752	11
365.06921	6
395.08398	6
413.10211	6
414.08426	7
430.08051	10
431.09924	136
432.10352	34
433.10406	5
473.08713	10
473.11292	99
474.10977	19
593.15204	316

NAME: Quercetin-3-O-glucoside
PRECURSORMZ: 463.08819964783
PRECURSORTYPE: [M-H]-
INSTRUMENTTYPE: LC-ESI-QTOF
SMILES: OCC1OC(OC2=C(OC3=CC(O)=CC(O)=C3C2=O)C2=CC(O)=C(O)C=C2)C(O)C(O)C1O
INCHIKEY: OVSQVDMCBVZWGM-UHFFFAOYNA-N
Ontology: Flavonoid-3-O-glycosides
COLLISIONENERGY: 30
FORMULA: C21H20O12
RETENTIONTIME: 4.0272
IONMODE: Negative
Comment: registered in RIKEN PlaSMA
Num Peaks: 36
109.02802	8
135.00423	13
136.01259	10
149.02365	7
151.00256	105
162.99994	19
178.98997	15
179.00047	31
187.34404	5
191.03415	5
212.04211	5
216.04408	6
227.03223	15
229.05138	13
242.02609	11
243.0298	60
254.01773	20
255.02937	233
256.0224	7
256.03827	18
257.03055	9
257.03995	13
270.00497	8
271.02411	518
272.02548	64
273.02313	11
273.03397	26
283.02444	17
299.02408	9
300.02597	1000
301.03159	350
302.03293	44
302.05045	9
303.04544	6
354.85184	5
434.07651	6

NAME: Hesperetin-7-O-rutinoside
PRECURSORMZ: 609.18249394783
PRECURSORTYPE: [M-H]-
INSTRUMENTTYPE: LC-ESI-QTOF
SMILES: COC1=C(O)C=C(C=C1)C1CC(=O)C2=C(O)C=C(OC3OC(COC4OC(C)C(O)C(O)C4O)C(O)C(O)C3O)C=C2O1
INCHIKEY: QUQPHWDTPGMPEX-UHFFFAOYNA-N
Ontology: Flavonoid-7-O-glycosides
COLLISIONENERGY: 30
FORMULA: C28H34O15
RETENTIONTIME: 4.49465
IONMODE: Negative
Comment: registered in RIKEN PlaSMA
Num Peaks: 25
125.0234	15
151.0042	14
164.01093	9
199.0369	10
200.05016	6
201.01773	7
217.04962	6
242.05949	19
257.082	34
258.05121	8
258.08414	7
282.05206	6
283.05124	5
283.061	14
286.04718	62
287.05887	6
301.07156	1000
302.07523	166
303.07919	23
307.06262	5
310.05362	8
325.07407	35
326.07428	8
328.05841	6
343.08527	16

NAME: Quercetin
PRECURSORMZ: 301.03537624783
PRECURSORTYPE: [M-H]-
INSTRUMENTTYPE: LC-ESI-QTOF
SMILES: OC1=CC(O)=C2C(OC(=C(O)C2=O)C2=CC(O)=C(O)C=C2)=C1
INCHIKEY: REFJWTPEDVJJIY-UHFFFAOYSA-N
Ontology: Flavonols
COLLISIONENERGY: 30
FORMULA: C15H10O7
RETENTIONTIME: 5.374467
IONMODE: Negative
Comment: registered in RIKEN PlaSMA
Num Peaks: 132
63.02086	43
63.02547	35
64.99998	43
65.00535	47
68.88597	11
83.01318	222
91.01718	12
93.03353	139
94.0379	12
94.65656	11
96.01688	34
97.02395	16
107.01097	536
108.01104	22
108.01557	65
108.79501	9
109.02768	101
109.03506	17
110.02958	10
115.65936	12
117.03477	11
121.02769	667
122.00135	11
122.02457	26
122.03288	11
124.01862	10
125.03561	26
128.15402	10
129.03186	12
129.04109	14
129.06335	24
131.04582	10
131.05055	25
133.03307	44
135.00945	23
135.04793	15
136.01091	11
137.02446	10
138.02	14
141.03322	18
143.05124	24
144.05737	10
145.03091	39
146.03979	22
147.00967	29
148.01279	20
149.02237	55
149.02798	120
150.02026	12
151.00154	1000
152.00032	59
152.00526	37
155.04486	10
155.05154	14
156.05382	12
157.01601	14
157.06374	10
157.16702	9
158.02115	10
158.02953	9
158.03952	24
158.40144	10
159.04114	54
159.04837	36
161.01781	35
161.0262	27
161.05476	26
163.00548	57
163.03366	18
163.9989	17
164.01523	40
164.04625	17
165.01169	12
167.05122	14
169.02461	13
171.04007	55
171.0455	27
172.04518	43
173.01343	14
173.02737	9
174.02783	22
175.04214	19
176.03723	12
176.04387	9
177.05833	9
178.99786	76
179.01068	10
183.04431	8
183.05196	30
187.032	23
187.04503	10
188.0432	10
189.01414	38
191.02455	10
197.02286	39
197.71492	10
198.03783	29
199.03526	58
200.04253	49
201.01329	10
201.05	44
201.05919	33
202.01291	11
203.03717	24
205.05844	15
211.04451	14
212.0325	9
213.00995	13
214.02432	12
215.02988	12
217.03674	11
217.04572	14
221.02692	16
227.03262	44
228.02942	28
228.03864	12
229.0587	12
230.01799	42
237.01985	10
238.02959	10
242.98193	15
243.02832	25
244.0305	25
245.04285	22
256.03864	27
271.01074	22
271.03281	17
272.02771	36
273.04074	12
284.02515	9
284.03802	12
301.02124	11

NAME: Formononetin
PRECURSORMZ: 267.06628244783
PRECURSORTYPE: [M-H]-
INSTRUMENTTYPE: LC-ESI-QTOF
SMILES: COC1=CC=C(C=C1)C1=COC2=C(C=CC(O)=C2)C1=O
INCHIKEY: HKQYGTCOTHHOMP-UHFFFAOYSA-N
Ontology: 4'-O-methylisoflavones
COLLISIONENERGY: 30
FORMULA: C16H12O4
RETENTIONTIME: 6.672383
IONMODE: Negative
Comment: registered in RIKEN PlaSMA
Num Peaks: 24
91.0175	97
104.02494	66
132.01981	365
133.02362	31
135.00713	212
136.01134	5
167.04718	38
167.05595	15
168.05426	24
180.05592	46
195.04413	592
196.04865	108
196.06364	6
197.04854	16
197.06236	6
208.05061	138
209.05359	32
223.039	1000
224.0446	293
225.04874	19
251.03444	508
252.04166	491
253.04303	82
254.04887	5

NAME: Apigenin-6-C-glucoside-7-O-glucoside
PRECURSORMZ: 593.15119384783
PRECURSORTYPE: [M-H]-
INSTRUMENTTYPE: LC-ESI-QTOF
SMILES: OCC1OC(OC2=C(C3OC(CO)C(O)C(O)C3O)C(O)=C3C(=O)C=C(OC3=C2)C2=CC=C(O)C=C2)C(O)C(O)C1O
INCHIKEY: HGUVPEBGCAVWID-UHFFFAOYNA-N
Ontology: Flavonoid-7-O-glycosides
COLLISIONENERGY: 50
FORMULA: C27H30O15
RETENTIONTIME: 3.531483
IONMODE: Negative
Comment: registered in RIKEN PlaSMA
Num Peaks: 164
68.99693	8
77.04267	7
92.02505	23
93.03156	17
93.03718	8
99.0077	9
105.03329	13
117.03297	53
117.90029	5
118.03576	7
119.04824	12
121.02721	37
124.72482	8
134.04108	14
135.04529	6
137.27969	8
145.02415	6
148.04854	8
149.0195	21
149.03015	6
151.00348	20
152.03775	7
155.16602	9
156.05273	6
156.58307	7
157.02768	9
159.03792	12
159.0479	6
161.02267	103
162.01971	9
163.00113	35
163.03717	91
164.0047	7
165.02461	16
167.04024	8
168.01567	7
170.07277	8
173.02013	7
174.99312	5
175.00388	41
177.01639	67
178.02408	6
178.99536	61
179.0265	24
179.05133	8
181.06416	5
182.0329	17
183.0451	24
183.08052	10
184.03928	6
185.01651	15
185.05521	7
186.02397	11
186.07103	11
189.01431	19
190.022	21
191.03127	6
191.03783	9
191.76927	6
192.03542	5
193.01033	6
193.02046	13
194.07666	9
195.04219	8
196.05428	21
198.33815	6
200.05443	7
201.05257	6
203.03365	12
203.04102	13
208.16692	7
209.05934	14
211.06871	22
212.04416	8
213.04674	6
214.0887	7
215.02319	6
215.06494	12
217.01698	6
221.0528	11
224.0596	15
225.05414	10
225.0659	20
226.05991	13
227.03946	6
229.00912	9
229.05077	6
238.05939	6
239.03345	7
239.06631	30
241.04671	5
241.05855	8
243.06143	8
245.03749	9
251.02309	9
253.05046	38
254.04904	20
254.06314	24
266.01462	6
266.05444	9
266.06308	9
267.06772	9
267.09702	5
268.03186	87
269.04337	207
270.04376	26
270.05594	7
273.69998	9
278.50772	6
281.04349	200
282.05164	516
283.05878	1000
284.06323	156
284.11182	7
285.06183	27
285.1011	5
286.06259	7
286.0762	7
292.26901	7
293.04706	89
294.04373	6
295.02493	232
295.052	24
295.06812	32
296.01535	19
296.03033	35
296.0621	21
296.96844	11
297.03857	828
297.06799	7
298.03311	46
298.04324	158
298.07672	5
298.42407	6
299.03769	13
305.05936	9
306.05896	9
307.05362	9
307.06635	10
308.05209	6
308.07101	7
309.03705	47
309.04608	15
310.04263	33
311.052	329
312.0582	44
313.04813	8
319.03909	12
319.33569	11
321.03497	13
321.05362	5
323.05182	72
324.06458	7
325.07001	7
325.08481	10
327.06351	17
339.05048	5
341.05515	13
342.06815	6
347.05316	12
359.99582	7
369.06516	8
460.28027	8
549.4931	5

NAME: Quercetin-3-O-glucoside
PRECURSORMZ: 463.08819964783
PRECURSORTYPE: [M-H]-
INSTRUMENTTYPE: LC-ESI-QTOF
SMILES: OCC1OC(OC2=C(OC3=CC(O)=CC(O)=C3C2=O)C2=CC(O)=C(O)C=C2)C(O)C(O)C1O
INCHIKEY: OVSQVDMCBVZWGM-UHFFFAOYNA-N
Ontology: Flavonoid-3-O-glycosides
COLLISIONENERGY: 50
FORMULA: C21H20O12
RETENTIONTIME: 4.0272
IONMODE: Negative
Comment: registered in RIKEN PlaSMA
Num Peaks: 146
65.00397	25
83.00962	5
91.01865	7
101.03674	6
107.01121	61
107.01949	5
108.01834	70
108.99536	11
109.02735	20
110.02565	9
119.00954	26
120.01266	6
120.02078	32
121.02525	28
122.0287	10
124.01331	14
127.05377	8
130.03293	6
131.04419	7
131.05	14
133.02921	7
135.00017	13
135.00746	20
135.03926	9
137.01143	7
138.04765	6
143.04826	37
143.05965	6
145.024	8
145.03146	7
146.03474	20
146.03973	6
147.00388	19
148.01567	84
149.01788	21
149.02296	7
151.00211	111
153.01234	15
154.0426	6
155.04204	8
155.04858	7
155.05682	5
156.2471	6
157.02844	32
157.06718	6
158.03905	6
159.04152	21
161.01967	6
162.02507	5
162.99709	18
163.00671	20
164.00839	34
167.0443	12
171.03453	13
171.04396	34
171.05145	24
172.03969	5
173.01801	14
173.05353	6
174.03525	27
175.02734	9
175.04039	12
176.04041	6
178.99582	13
180.00285	7
182.03085	7
182.04579	16
183.04208	28
183.0493	10
184.00841	12
186.02864	7
187.03296	21
187.04465	27
188.03479	6
192.00673	24
196.70221	7
197.02281	17
198.02878	41
199.04045	94
199.05057	31
200.01115	12
200.03575	6
200.04704	15
201.013	23
201.0228	37
201.05673	6
203.03137	17
204.02873	8
204.04076	14
208.04849	7
210.01758	6
211.0434	83
211.10861	6
211.26781	5
212.01973	6
212.03822	5
213.01128	25
213.02292	12
214.02599	23
214.03702	9
215.03206	87
216.04059	17
217.00856	11
217.0397	9
225.01901	6
226.02084	60
227.03191	181
227.16336	10
228.00861	6
228.03177	10
228.04436	32
229.00493	9
229.01498	25
229.03281	5
237.01758	6
239.03038	17
241.00076	22
241.01469	72
242.01335	23
242.0307	27
242.77142	5
243.02852	478
243.34074	6
244.03592	67
245.02951	7
245.04903	14
246.03668	7
246.05537	17
251.03386	11
253.00804	6
254.02043	30
255.02919	331
256.03305	75
257.02618	6
258.05042	6
265.83374	6
269.00262	8
270.022	11
270.94534	8
271.02341	1000
271.04636	14
272.02579	207
273.02762	33
299.01266	13
300.02438	6
355.79407	5

NAME: Hesperetin-7-O-rutinoside
PRECURSORMZ: 609.18249394783
PRECURSORTYPE: [M-H]-
INSTRUMENTTYPE: LC-ESI-QTOF
SMILES: COC1=C(O)C=C(C=C1)C1CC(=O)C2=C(O)C=C(OC3OC(COC4OC(C)C(O)C(O)C4O)C(O)C(O)C3O)C=C2O1
INCHIKEY: QUQPHWDTPGMPEX-UHFFFAOYNA-N
Ontology: Flavonoid-7-O-glycosides
COLLISIONENERGY: 50
FORMULA: C28H34O15
RETENTIONTIME: 4.49465
IONMODE: Negative
Comment: registered in RIKEN PlaSMA
Num Peaks: 177
59.01278	8
83.01262	40
94.21344	6
106.40421	9
107.01206	44
108.01939	43
121.01905	7
123.04116	7
125.01067	7
125.02299	50
125.03248	7
126.02808	20
131.03516	10
134.03531	192
134.04083	83
134.25714	6
135.03203	6
135.04335	67
136.01373	106
136.05876	8
137.01668	16
137.09802	11
138.17943	10
144.21715	8
146.03035	7
148.05318	10
149.02489	8
149.05972	56
149.992	8
150.062	13
151.00179	398
152.00867	51
153.00549	17
155.04218	7
158.03667	55
159.03601	14
160.01628	13
162.02873	21
163.00403	12
163.06198	13
164.00923	1000
164.02858	14
164.18248	7
165.00829	39
165.02362	32
166.0168	7
167.05237	6
169.66315	7
172.05095	23
173.01839	14
173.05536	60
174.02963	147
174.05589	8
174.33101	6
175.00467	54
175.0358	26
175.04781	7
176.00456	8
176.05046	7
177.02411	33
178.01488	8
178.02451	6
180.0502	8
182.03384	13
185.01369	8
187.03632	10
188.0153	6
188.04318	7
188.05753	14
189.05356	7
191.07288	22
192.00687	9
192.68449	6
193.00571	7
196.05173	8
198.01727	6
198.02879	23
198.06958	9
199.037	264
199.05981	9
200.00821	26
200.01964	8
200.04648	114
200.19725	12
201.01646	165
201.03136	19
201.04874	8
202.01816	42
202.02939	7
203.02423	7
203.11458	6
206.02167	15
213.05844	20
214.02863	15
214.05823	89
215.0325	111
215.04454	17
215.06696	50
216.03793	65
217.02882	6
217.0489	26
217.05977	8
219.02371	16
221.88272	7
222.03951	8
223.04503	15
224.04716	35
224.05792	9
226.06433	14
227.02835	83
227.03992	34
230.05502	31
230.14928	7
231.06236	11
231.07632	9
233.06717	8
233.07951	18
234.08049	6
237.04256	6
238.06102	8
239.05508	8
240.03726	47
240.06116	7
240.9791	8
241.0304	6
241.04645	99
241.05644	72
242.04875	98
242.06076	134
243.03171	17
243.05191	13
243.06038	43
244.0265	10
244.03867	19
244.05646	8
249.26932	6
257.04431	7
257.07651	96
257.08585	36
257.69205	8
258.03204	7
258.05026	82
258.06668	11
258.0863	22
259.04794	9
259.08453	7
260.06238	8
264.03741	18
264.04398	7
265.04639	6
265.45978	12
268.03867	69
269.03116	12
269.05811	8
269.0798	7
271.02029	7
277.02975	7
281.05197	18
282.37375	7
283.06998	10
283.07999	8
284.05136	8
285.03668	80
285.98492	6
286.04767	170
286.06583	8
287.04568	13
287.0589	10
293.03986	22
299.06024	24
301.03879	7
301.07324	261
302.07288	66
309.03091	8
312.07025	6
328.065	9
334.04276	10

NAME: Quercetin
PRECURSORMZ: 301.03537624783
PRECURSORTYPE: [M-H]-
INSTRUMENTTYPE: LC-ESI-QTOF
SMILES: OC1=CC(O)=C2C(OC(=C(O)C2=O)C2=CC(O)=C(O)C=C2)=C1
INCHIKEY: REFJWTPEDVJJIY-UHFFFAOYSA-N
Ontology: Flavonols
COLLISIONENERGY: 50
FORMULA: C15H10O7
RETENTIONTIME: 5.374467
IONMODE: Negative
Comment: registered in RIKEN PlaSMA
Num Peaks: 41
65.00337	1000
65.00745	244
83.01114	191
89.04307	282
93.03402	687
94.92756	137
96.01778	359
103.01958	145
105.03074	176
107.01156	641
108.01649	634
109.02802	519
116.02995	168
117.04041	229
119.01597	214
120.021	221
121.02743	473
126.03764	168
129.02899	229
130.04156	366
132.02403	321
134.03331	153
135.04651	160
139.05092	267
141.03409	267
143.05084	137
145.02855	328
153.02954	206
157.02835	252
158.03111	290
161.02487	290
167.04538	153
170.03316	183
171.05324	153
182.03917	137
185.01968	191
185.04739	237
188.05501	160
191.0043	153
198.0303	153
203.04807	229

NAME: Formononetin
PRECURSORMZ: 267.06628244783
PRECURSORTYPE: [M-H]-
INSTRUMENTTYPE: LC-ESI-QTOF
SMILES: COC1=CC=C(C=C1)C1=COC2=C(C=CC(O)=C2)C1=O
INCHIKEY: HKQYGTCOTHHOMP-UHFFFAOYSA-N
Ontology: 4'-O-methylisoflavones
COLLISIONENERGY: 50
FORMULA: C16H12O4
RETENTIONTIME: 6.672383
IONMODE: Negative
Comment: registered in RIKEN PlaSMA
Num Peaks: 45
63.02045	15
75.96864	10
91.01756	482
92.02448	10
100.82703	10
104.02185	37
104.02837	26
105.02898	11
107.00803	10
115.8233	10
130.03455	14
132.02026	170
133.02133	12
135.00491	127
138.04568	16
139.04852	16
139.05708	21
140.01714	12
141.03191	12
141.03856	11
142.0354	16
151.0524	13
151.05876	14
152.02577	11
153.03488	23
166.75636	12
167.04953	600
168.05402	48
169.04738	15
178.0434	25
178.81622	15
178.96542	14
179.03438	13
179.05583	14
180.05199	13
194.91626	18
195.04335	1000
196.04474	134
206.03506	33
210.03368	17
223.03465	130
224.04295	14
224.05652	35
251.02177	10
251.0338	53

NAME: Apigenin-6-C-glucoside-7-O-glucoside
PRECURSORMZ: 593.15119384783
PRECURSORTYPE: [M-H]-
INSTRUMENTTYPE: LC-ESI-QTOF
SMILES: OCC1OC(OC2=C(C3OC(CO)C(O)C(O)C3O)C(O)=C3C(=O)C=C(OC3=C2)C2=CC=C(O)C=C2)C(O)C(O)C1O
INCHIKEY: HGUVPEBGCAVWID-UHFFFAOYNA-N
Ontology: Flavonoid-7-O-glycosides
COLLISIONENERGY: 10
FORMULA: C27H30O15
RETENTIONTIME: 3.531483
IONMODE: Negative
Comment: registered in RIKEN PlaSMA
Num Peaks: 25
268.03992	7
269.04636	12
281.04303	9
282.04572	16
282.05557	31
283.05194	30
283.06445	53
284.06229	7
297.03958	121
298.04425	18
310.04901	6
311.05576	271
312.04178	8
312.06171	58
313.04895	6
313.06369	7
324.04538	6
341.06897	17
342.07379	7
353.06757	9
431.09787	76
473.11096	27
474.10736	9
593.15143	1000
593.20856	10

NAME: Quercetin-3-O-glucoside
PRECURSORMZ: 463.08819964783
PRECURSORTYPE: [M-H]-
INSTRUMENTTYPE: LC-ESI-QTOF
SMILES: OCC1OC(OC2=C(OC3=CC(O)=CC(O)=C3C2=O)C2=CC(O)=C(O)C=C2)C(O)C(O)C1O
INCHIKEY: OVSQVDMCBVZWGM-UHFFFAOYNA-N
Ontology: Flavonoid-3-O-glycosides
COLLISIONENERGY: 10
FORMULA: C21H20O12
RETENTIONTIME: 4.0272
IONMODE: Negative
Comment: registered in RIKEN PlaSMA
Num Peaks: 51
150.99995	57
151.00995	9
152.00919	9
158.04573	8
163.00267	13
178.99548	42
189.01857	7
190.02469	6
192.00577	12
211.03616	7
212.0367	6
214.02695	8
215.03036	15
215.13506	6
226.02573	6
227.02191	17
227.03494	28
228.03743	8
229.04662	8
241.01025	8
242.01607	18
243.01591	12
243.02716	53
244.02951	15
254.02109	14
255.02667	124
256.03503	12
270.01532	8
271.02335	331
272.02487	97
272.56897	5
273.02133	13
273.03363	11
273.21848	6
298.00461	7
299.01587	39
299.02707	12
300.02597	834
301.03168	698
302.03427	97
303.04123	15
313.52567	6
314.03293	5
343.04562	12
402.03406	5
432.08063	6
461.06476	21
461.07898	18
462.07367	50
463.08563	1000
463.13193	8

NAME: Hesperetin-7-O-rutinoside
PRECURSORMZ: 609.18249394783
PRECURSORTYPE: [M-H]-
INSTRUMENTTYPE: LC-ESI-QTOF
SMILES: COC1=C(O)C=C(C=C1)C1CC(=O)C2=C(O)C=C(OC3OC(COC4OC(C)C(O)C(O)C4O)C(O)C(O)C3O)C=C2O1
INCHIKEY: QUQPHWDTPGMPEX-UHFFFAOYNA-N
Ontology: Flavonoid-7-O-glycosides
COLLISIONENERGY: 10
FORMULA: C28H34O15
RETENTIONTIME: 4.49465
IONMODE: Negative
Comment: registered in RIKEN PlaSMA
Num Peaks: 21
125.02372	7
151.00075	5
151.00748	13
164.01164	25
185.01994	6
199.0423	12
201.01529	8
215.04082	6
242.05493	37
257.08456	17
258.04468	7
258.06079	7
283.06271	10
286.04681	43
301.06982	1000
302.07285	143
303.07584	30
325.07269	40
326.07407	5
343.08075	7
609.18152	330

NAME: Quercetin
PRECURSORMZ: 301.03537624783
PRECURSORTYPE: [M-H]-
INSTRUMENTTYPE: LC-ESI-QTOF
SMILES: OC1=CC(O)=C2C(OC(=C(O)C2=O)C2=CC(O)=C(O)C=C2)=C1
INCHIKEY: REFJWTPEDVJJIY-UHFFFAOYSA-N
Ontology: Flavonols
COLLISIONENERGY: 10
FORMULA: C15H10O7
RETENTIONTIME: 5.374467
IONMODE: Negative
Comment: registered in RIKEN PlaSMA
Num Peaks: 73
63.02358	9
64.02328	5
65.00179	21
83.01266	28
94.0343	6
100.96834	6
107.01313	108
108.01303	6
108.01862	8
109.02897	31
117.034	6
120.02022	6
121.02825	147
122.03985	6
125.01891	6
145.02708	10
145.78719	6
149.0226	24
151.00304	665
152.00815	57
158.51534	5
159.04546	11
160.0578	5
161.02068	15
162.99712	10
163.03772	10
164.01022	25
170.04494	7
171.04108	11
171.04842	7
176.04959	5
178.9982	314
179.99922	40
180.10307	6
181.00259	8
183.04359	5
187.03584	31
190.0361	6
191.00031	7
191.99803	5
192.00533	11
193.00406	10
193.01556	22
199.03625	9
201.05069	11
202.02579	10
205.05113	6
211.04749	7
214.02635	5
217.04092	6
217.92294	6
227.03589	9
229.04504	8
229.05423	9
230.05646	5
243.03171	18
244.03053	5
244.04124	5
245.043	13
245.47968	5
248.72411	6
255.02466	7
255.03825	12
257.03973	19
271.02371	91
272.01373	8
272.02643	10
273.03403	17
273.04593	12
299.01428	31
299.03046	7
300.02188	87
301.03433	1000

NAME: Formononetin
PRECURSORMZ: 267.06628244783
PRECURSORTYPE: [M-H]-
INSTRUMENTTYPE: LC-ESI-QTOF
SMILES: COC1=CC=C(C=C1)C1=COC2=C(C=CC(O)=C2)C1=O
INCHIKEY: HKQYGTCOTHHOMP-UHFFFAOYSA-N
Ontology: 4'-O-methylisoflavones
COLLISIONENERGY: 10
FORMULA: C16H12O4
RETENTIONTIME: 6.672383
IONMODE: Negative
Comment: registered in RIKEN PlaSMA
Num Peaks: 21
91.01916	18
104.02541	11
132.02011	67
135.00777	40
167.047	19
168.05463	5
180.05608	8
195.0442	148
196.0468	38
208.05132	41
209.05772	7
223.03899	258
224.04485	83
225.04988	21
251.03447	135
252.0407	876
252.08388	6
253.04425	197
254.0462	15
267.06439	1000
267.11127	12

NAME: Quercetin-3-O-glucoside
PRECURSORMZ: 463.08819964783
PRECURSORTYPE: [M-H]-
INSTRUMENTTYPE: LC-ESI-QTOF
SMILES: OCC1OC(OC2=C(OC3=CC(O)=CC(O)=C3C2=O)C2=CC(O)=C(O)C=C2)C(O)C(O)C1O
INCHIKEY: OVSQVDMCBVZWGM-UHFFFAOYNA-N
Ontology: Flavonoid-3-O-glycosides
COLLISIONENERGY: 10
FORMULA: C21H20O12
RETENTIONTIME: 4.0272
IONMODE: Negative
Comment: registered in RIKEN PlaSMA
Num Peaks: 7
299.01138	7
300.02533	81
301.03308	161
302.03543	21
461.07379	24
462.07516	47
463.08627	1000

NAME: Hesperetin-7-O-rutinoside
PRECURSORMZ: 609.18249394783
PRECURSORTYPE: [M-H]-
INSTRUMENTTYPE: LC-ESI-QTOF
SMILES: COC1=C(O)C=C(C=C1)C1CC(=O)C2=C(O)C=C(OC3OC(COC4OC(C)C(O)C(O)C4O)C(O)C(O)C3O)C=C2O1
INCHIKEY: QUQPHWDTPGMPEX-UHFFFAOYNA-N
Ontology: Flavonoid-7-O-glycosides
COLLISIONENERGY: 10
FORMULA: C28H34O15
RETENTIONTIME: 4.49465
IONMODE: Negative
Comment: registered in RIKEN PlaSMA
Num Peaks: 5
301.0701	567
302.07602	92
303.07632	23
609.18323	1000
609.25305	6

NAME: Quercetin
PRECURSORMZ: 301.03537624783
PRECURSORTYPE: [M-H]-
INSTRUMENTTYPE: LC-ESI-QTOF
SMILES: OC1=CC(O)=C2C(OC(=C(O)C2=O)C2=CC(O)=C(O)C=C2)=C1
INCHIKEY: REFJWTPEDVJJIY-UHFFFAOYSA-N
Ontology: Flavonols
COLLISIONENERGY: 10
FORMULA: C15H10O7
RETENTIONTIME: 5.374467
IONMODE: Negative
Comment: registered in RIKEN PlaSMA
Num Peaks: 12
121.02811	9
151.00195	124
152.00557	9
178.99628	115
180.00078	7
257.03973	9
271.02173	16
272.02405	10
273.03824	8
299.01602	40
300.02182	72
301.03403	1000

NAME: Formononetin
PRECURSORMZ: 267.06628244783
PRECURSORTYPE: [M-H]-
INSTRUMENTTYPE: LC-ESI-QTOF
SMILES: COC1=CC=C(C=C1)C1=COC2=C(C=CC(O)=C2)C1=O
INCHIKEY: HKQYGTCOTHHOMP-UHFFFAOYSA-N
Ontology: 4'-O-methylisoflavones
COLLISIONENERGY: 10
FORMULA: C16H12O4
RETENTIONTIME: 6.672383
IONMODE: Negative
Comment: registered in RIKEN PlaSMA
Num Peaks: 5
252.04222	194
253.04434	36
254.04797	6
267.06528	1000
267.11145	18

NAME: Apigenin-6-C-glucoside-7-O-glucoside
PRECURSORMZ: 593.15119384783
PRECURSORTYPE: [M-H]-
INSTRUMENTTYPE: LC-ESI-QTOF
SMILES: OCC1OC(OC2=C(C3OC(CO)C(O)C(O)C3O)C(O)=C3C(=O)C=C(OC3=C2)C2=CC=C(O)C=C2)C(O)C(O)C1O
INCHIKEY: HGUVPEBGCAVWID-UHFFFAOYNA-N
Ontology: Flavonoid-7-O-glycosides
COLLISIONENERGY: 30
FORMULA: C27H30O15
RETENTIONTIME: 3.531483
IONMODE: Negative
Comment: registered in RIKEN PlaSMA
Num Peaks: 49
217.01051	5
249.37004	5
268.03165	7
269.04651	18
281.04483	9
282.04443	42
282.05667	74
283.06018	73
284.03445	5
284.06409	5
293.04391	9
296.0618	5
297.03891	294
298.04425	72
299.0441	8
309.04419	9
310.05081	12
311.05515	1000
311.08759	7
312.05847	196
313.05328	7
313.06976	13
323.05627	13
335.05292	5
341.06061	98
341.0723	47
342.05762	5
342.08289	7
343.07709	7
353.06024	15
353.07184	12
355.04529	9
365.07507	9
383.06628	6
383.08652	9
384.0824	9
413.08084	14
430.08954	35
431.09528	165
431.12256	6
432.08786	9
432.10767	5
432.11954	6
433.10757	9
473.10806	95
474.11102	32
475.11261	6
503.12329	15
593.14868	270

NAME: Quercetin-3-O-glucoside
PRECURSORMZ: 463.08819964783
PRECURSORTYPE: [M-H]-
INSTRUMENTTYPE: LC-ESI-QTOF
SMILES: OCC1OC(OC2=C(OC3=CC(O)=CC(O)=C3C2=O)C2=CC(O)=C(O)C=C2)C(O)C(O)C1O
INCHIKEY: OVSQVDMCBVZWGM-UHFFFAOYNA-N
Ontology: Flavonoid-3-O-glycosides
COLLISIONENERGY: 30
FORMULA: C21H20O12
RETENTIONTIME: 4.0272
IONMODE: Negative
Comment: registered in RIKEN PlaSMA
Num Peaks: 43
107.01054	8
109.02798	5
120.01962	8
121.02961	10
135.0079	8
151.00066	98
151.99919	7
152.01213	7
162.9946	9
163.0013	22
173.05591	6
178.99489	71
189.05057	6
190.99973	10
193.00648	6
211.03635	8
215.03456	11
227.03206	9
228.03204	5
228.05182	5
240.04419	6
242.01479	19
242.02505	6
243.02687	57
245.04347	14
254.01843	11
255.02899	198
256.02884	30
270.01364	24
270.0235	7
271.02347	450
272.01788	35
272.02774	70
272.04834	7
273.03058	22
274.05203	5
283.03165	7
299.01935	18
300.02533	1000
300.06836	6
301.03131	387
302.0249	19
302.0383	42

NAME: Hesperetin-7-O-rutinoside
PRECURSORMZ: 609.18249394783
PRECURSORTYPE: [M-H]-
INSTRUMENTTYPE: LC-ESI-QTOF
SMILES: COC1=C(O)C=C(C=C1)C1CC(=O)C2=C(O)C=C(OC3OC(COC4OC(C)C(O)C(O)C4O)C(O)C(O)C3O)C=C2O1
INCHIKEY: QUQPHWDTPGMPEX-UHFFFAOYNA-N
Ontology: Flavonoid-7-O-glycosides
COLLISIONENERGY: 30
FORMULA: C28H34O15
RETENTIONTIME: 4.49465
IONMODE: Negative
Comment: registered in RIKEN PlaSMA
Num Peaks: 17
125.02454	25
151.00304	5
164.01019	12
199.03223	9
242.05621	19
257.08005	15
258.05002	9
283.06125	6
286.04761	57
287.05411	5
301.06992	1000
302.07346	168
303.07629	26
315.08975	5
325.06775	56
326.07162	19
343.08252	21

NAME: Quercetin
PRECURSORMZ: 301.03537624783
PRECURSORTYPE: [M-H]-
INSTRUMENTTYPE: LC-ESI-QTOF
SMILES: OC1=CC(O)=C2C(OC(=C(O)C2=O)C2=CC(O)=C(O)C=C2)=C1
INCHIKEY: REFJWTPEDVJJIY-UHFFFAOYSA-N
Ontology: Flavonols
COLLISIONENERGY: 30
FORMULA: C15H10O7
RETENTIONTIME: 5.374467
IONMODE: Negative
Comment: registered in RIKEN PlaSMA
Num Peaks: 137
60.18378	11
63.02283	35
65.00118	88
70.13764	9
83.01222	174
84.02055	9
84.99045	10
93.03126	51
93.03874	26
94.03983	11
95.01215	37
96.02058	20
104.02625	10
107.0118	567
107.46201	9
107.88513	11
108.01411	27
108.01963	20
108.02581	23
109.02593	100
115.01293	12
116.05275	9
117.02978	22
119.05241	9
120.02252	23
121.02694	551
121.57562	8
121.86597	8
121.99889	13
122.02361	9
122.0326	28
123.04012	9
124.00501	9
125.01975	10
125.02717	14
128.06276	12
131.04521	9
133.02002	17
134.02675	33
135.00203	11
135.04686	8
137.01949	26
141.04001	12
143.04695	8
145.02122	9
145.02663	24
146.03581	17
147.00128	9
147.04895	35
148.0179	10
149.01247	8
149.02322	91
151.00117	1000
152.00537	83
153.00668	14
155.04448	11
155.04999	11
158.03464	9
159.03732	10
159.05673	10
160.04362	9
160.05206	15
161.01485	9
161.02313	25
161.05736	8
162.02499	13
163.00259	12
163.04002	46
164.00159	14
164.01028	35
165.01425	9
165.02148	9
168.0619	10
169.02792	26
170.0275	10
170.03653	16
170.04332	8
171.04167	9
171.05045	26
172.04691	26
172.0555	11
173.024	11
173.06194	32
174.01723	14
174.0621	8
175.03864	17
176.03979	23
178.02249	13
178.06349	9
178.99522	32
179.99965	14
182.03157	9
183.0403	34
183.04712	9
184.02118	8
185.02457	9
185.05212	7
185.05783	15
186.02513	29
187.04044	44
193.00449	12
195.04077	16
196.0636	13
198.02425	25
199.03773	22
200.04234	39
200.05101	12
201.01727	12
201.05374	29
203.03378	24
205.04053	15
206.05701	14
211.03673	60
212.02776	10
212.05096	9
213.01572	10
214.0213	12
215.02927	16
216.03162	12
218.04265	20
227.02827	36
229.03375	8
229.04239	9
230.02332	10
231.0213	9
240.04538	9
243.01466	9
245.04726	17
245.05672	14
255.02927	44
256.02716	21
256.04782	26
271.01529	20
272.02594	19
274.03351	15
299.01395	9
301.03458	9

NAME: Formononetin
PRECURSORMZ: 267.06628244783
PRECURSORTYPE: [M-H]-
INSTRUMENTTYPE: LC-ESI-QTOF
SMILES: COC1=CC=C(C=C1)C1=COC2=C(C=CC(O)=C2)C1=O
INCHIKEY: HKQYGTCOTHHOMP-UHFFFAOYSA-N
Ontology: 4'-O-methylisoflavones
COLLISIONENERGY: 30
FORMULA: C16H12O4
RETENTIONTIME: 6.672383
IONMODE: Negative
Comment: registered in RIKEN PlaSMA
Num Peaks: 36
91.01511	20
91.01907	50
92.02024	7
104.02553	40
104.03072	18
105.02785	7
132.02078	359
133.02602	25
134.02376	8
135.00746	194
136.00787	19
136.01424	5
142.04553	5
151.05	9
167.05165	52
168.05475	28
180.0479	7
180.05769	19
180.06625	7
181.05672	6
195.04332	622
196.0481	112
197.05423	16
208.05164	133
209.05681	21
223.03969	1000
224.04544	311
225.04272	9
225.05243	24
226.05089	8
251.03291	543
252.04118	483
253.03738	29
253.0461	56
254.03606	5
254.05029	9

NAME: Apigenin-6-C-glucoside-7-O-glucoside
PRECURSORMZ: 593.15119384783
PRECURSORTYPE: [M-H]-
INSTRUMENTTYPE: LC-ESI-QTOF
SMILES: OCC1OC(OC2=C(C3OC(CO)C(O)C(O)C3O)C(O)=C3C(=O)C=C(OC3=C2)C2=CC=C(O)C=C2)C(O)C(O)C1O
INCHIKEY: HGUVPEBGCAVWID-UHFFFAOYNA-N
Ontology: Flavonoid-7-O-glycosides
COLLISIONENERGY: 50
FORMULA: C27H30O15
RETENTIONTIME: 3.531483
IONMODE: Negative
Comment: registered in RIKEN PlaSMA
Num Peaks: 156
77.03699	7
79.0173	7
90.66931	6
93.03105	17
103.0212	8
103.05289	7
105.03106	7
117.02853	19
117.03466	20
120.01705	5
121.02506	8
121.03171	7
123.04575	8
125.01969	5
133.02692	11
135.00272	13
135.04456	15
137.02484	7
145.02707	6
145.51099	8
147.0433	27
148.01711	10
148.02377	13
149.02115	18
151.00745	6
159.04228	55
161.02069	27
161.02954	25
162.02055	7
163.03413	23
163.04279	44
164.00505	8
165.00568	6
165.01917	34
175.00394	15
176.01865	15
177.01776	67
178.01418	20
178.98743	6
178.99706	34
180.03595	7
180.05293	10
181.00549	7
181.04178	7
181.07434	8
183.04366	7
185.01431	8
185.0233	5
185.05196	7
186.02696	6
189.0172	15
191.03319	30
191.7748	5
193.02144	7
194.07509	14
195.04562	6
196.04813	6
197.05331	6
198.06082	7
199.02995	8
202.0181	6
203.0347	24
204.03499	6
205.06322	6
209.0614	16
209.07132	7
211.07199	5
213.05557	8
214.045	8
221.07149	7
225.05005	23
226.05728	10
229.0152	7
229.03871	6
231.15802	7
232.31491	6
237.05147	7
237.27371	12
239.02573	8
239.07237	34
240.06757	7
240.07759	8
241.04533	13
241.10997	7
243.06407	10
243.69594	7
251.06076	10
251.07378	8
251.08362	6
252.72873	6
253.0401	13
253.04869	19
253.05862	12
265.04791	7
266.01575	5
267.02435	6
267.05823	21
268.0304	46
268.04376	50
269.0433	139
269.06711	18
269.08057	7
270.03778	17
270.04858	5
275.72864	8
278.06503	7
281.03372	42
281.04358	148
282.05283	446
282.09363	5
282.98904	10
283.05869	1000
283.09122	6
284.052	21
284.06369	82
284.48624	5
285.06207	27
289.07816	6
293.03812	39
293.05139	46
294.01871	6
294.0444	13
295.0202	146
295.03024	42
295.05563	57
295.06732	15
295.13446	6
296.03525	12
297.03876	778
297.19879	5
298.03323	62
298.04474	90
299.04605	13
309.03812	31
309.08197	6
310.04572	21
311.05399	270
311.12286	5
311.87671	5
312.03445	6
312.05914	45
321.0451	7
323.02924	5
323.04648	18
323.06073	45
324.04971	7
324.06036	16
325.08023	7
335.05441	13
337.03363	6
341.06595	15
342.07608	7
348.06689	6
355.03925	7
381.05383	13
431.7962	9

NAME: Quercetin-3-O-glucoside
PRECURSORMZ: 463.08819964783
PRECURSORTYPE: [M-H]-
INSTRUMENTTYPE: LC-ESI-QTOF
SMILES: OCC1OC(OC2=C(OC3=CC(O)=CC(O)=C3C2=O)C2=CC(O)=C(O)C=C2)C(O)C(O)C1O
INCHIKEY: OVSQVDMCBVZWGM-UHFFFAOYNA-N
Ontology: Flavonoid-3-O-glycosides
COLLISIONENERGY: 50
FORMULA: C21H20O12
RETENTIONTIME: 4.0272
IONMODE: Negative
Comment: registered in RIKEN PlaSMA
Num Peaks: 122
63.0251	7
83.01309	15
107.00739	10
107.01334	23
108.02022	46
109.0297	16
112.80923	12
114.03747	6
115.06329	7
119.01413	11
120.01823	24
127.04871	10
133.02489	12
135.0081	13
136.01007	25
140.06531	5
145.02933	8
146.03331	11
147.01016	10
148.00845	28
148.01521	43
149.02039	11
149.0311	5
150.02548	11
151.00072	96
154.04272	5
155.0359	5
155.05113	10
156.05968	10
158.03563	44
159.04401	13
161.01442	6
161.02611	7
162.99748	14
164.00854	61
169.03401	9
171.04021	23
171.04955	22
173.02527	22
173.05234	7
174.03358	10
175.02748	9
175.0416	17
178.02766	7
178.99956	6
181.02626	8
182.03615	12
183.04016	21
183.05017	21
184.04839	6
185.01808	6
186.01872	7
187.03432	34
188.04416	19
191.00101	9
195.03873	7
197.02632	31
198.02335	9
198.0332	7
199.03426	79
199.04138	33
199.05603	10
199.3614	6
200.03513	5
200.04681	11
201.01387	54
201.02921	11
201.05705	21
202.02229	20
202.02959	6
203.03233	24
210.03667	14
211.03857	23
212.03416	11
213.01967	19
214.02107	10
214.03339	8
215.03221	58
215.04034	26
216.03815	10
225.00706	7
226.02469	63
227.03378	164
228.02872	12
228.65858	6
228.99481	5
229.01068	29
229.02434	8
229.04063	8
230.13876	6
240.04167	10
241.00703	41
241.017	41
242.01138	14
242.02402	42
243.0276	420
244.03494	73
244.23524	7
245.04869	21
251.98642	6
253.01454	6
255.02959	231
255.30478	9
256.03125	29
256.04068	13
257.04068	9
258.64059	9
259.02039	7
266.01746	9
270.0105	5
270.02588	7
271.02338	1000
272.01434	16
272.03064	109
273.02264	25
273.03796	8
283.01755	6
299.01379	17
300.01559	5
300.03046	21
302.01053	9
463.07953	5

NAME: Hesperetin-7-O-rutinoside
PRECURSORMZ: 609.18249394783
PRECURSORTYPE: [M-H]-
INSTRUMENTTYPE: LC-ESI-QTOF
SMILES: COC1=C(O)C=C(C=C1)C1CC(=O)C2=C(O)C=C(OC3OC(COC4OC(C)C(O)C(O)C4O)C(O)C(O)C3O)C=C2O1
INCHIKEY: QUQPHWDTPGMPEX-UHFFFAOYNA-N
Ontology: Flavonoid-7-O-glycosides
COLLISIONENERGY: 50
FORMULA: C28H34O15
RETENTIONTIME: 4.49465
IONMODE: Negative
Comment: registered in RIKEN PlaSMA
Num Peaks: 203
57.0321	10
64.87124	6
64.99923	8
65.00436	7
81.02993	7
83.0118	13
93.81087	7
94.00459	22
107.00912	48
108.01788	39
108.02267	16
109.02112	7
110.03438	11
120.01736	6
121.02496	6
124.01353	26
125.02271	81
130.0378	7
133.02678	14
134.03738	160
135.00598	9
135.03198	6
135.04192	50
136.01477	122
136.02882	6
137.01363	17
137.02388	6
138.02495	7
140.03699	6
140.29173	14
144.05063	6
148.05678	15
149.05777	29
150.02211	8
151.0029	417
152.00024	14
152.00592	49
158.03532	79
159.05035	7
160.02148	9
160.0423	9
161.02408	6
162.03235	10
162.99232	8
163.01302	9
164.01004	1000
165.01085	69
166.01433	6
166.02203	18
170.81599	8
171.04811	18
172.04787	6
172.05347	12
173.01662	9
173.06177	51
174.03157	284
175.00169	81
175.01752	17
175.03391	12
175.04105	6
176.0071	8
176.01955	10
176.03575	35
176.04778	19
177.01437	22
177.02466	14
178.01857	9
179.03514	9
181.21645	10
181.86581	6
185.01802	15
185.02733	24
186.06923	17
187.03954	19
188.00967	6
188.04131	43
188.05348	18
190.02643	15
190.05859	6
191.06674	30
192.00426	7
192.08023	6
193.01106	9
193.01968	6
194.01941	8
196.06226	12
197.05296	7
198.03041	38
198.46452	13
199.02655	35
199.03961	155
199.07001	6
200.00789	31
200.03406	27
200.04602	95
201.01649	178
201.03691	8
201.05032	11
202.01784	43
202.02707	25
203.03116	8
204.04321	6
205.0092	6
205.01814	7
206.01974	19
211.04135	8
213.05522	13
214.0289	9
214.06285	53
214.07948	8
215.03543	80
215.06754	5
215.07561	19
216.03714	24
216.04631	19
216.07323	8
216.0817	6
217.01184	6
217.04008	13
217.05389	21
218.05688	7
219.17227	6
224.05037	30
225.0488	8
225.06023	8
227.03528	88
227.08257	6
227.96002	6
229.01794	8
229.0417	16
229.44093	10
230.04492	10
230.0571	26
230.06949	6
233.07375	6
233.08702	20
239.04477	6
239.07182	7
240.026	7
240.0394	33
241.04701	64
241.05823	32
242.05653	309
242.06503	97
242.08932	13
243.05841	18
244.03209	12
244.05032	7
244.06343	8
245.74321	6
249.03275	6
249.06155	7
250.05588	8
253.04759	9
256.06946	7
257.04623	7
257.07843	105
258.05179	30
258.0611	36
258.07828	6
258.08743	6
259.04626	21
259.0704	6
260.10077	6
261.05316	6
264.0419	6
265.04227	12
267.03696	7
268.03812	80
269.02887	19
269.03986	28
269.06314	7
270.04889	10
271.03052	6
271.06366	14
278.0513	7
281.05402	8
282.04715	22
282.0611	22
283.05847	35
283.07089	6
285.04248	65
285.83368	7
286.04175	109
286.05219	183
287.0426	25
287.05505	42
290.43997	7
292.84381	7
299.05292	16
301.07077	354
301.09796	7
302.07101	50
302.0834	25
303.08163	6
303.0914	8
307.07175	6
309.04248	12
310.04382	6
315.10123	11
326.08264	6
343.09143	9
486.36703	6

NAME: Quercetin
PRECURSORMZ: 301.03537624783
PRECURSORTYPE: [M-H]-
INSTRUMENTTYPE: LC-ESI-QTOF
SMILES: OC1=CC(O)=C2C(OC(=C(O)C2=O)C2=CC(O)=C(O)C=C2)=C1
INCHIKEY: REFJWTPEDVJJIY-UHFFFAOYSA-N
Ontology: Flavonols
COLLISIONENERGY: 50
FORMULA: C15H10O7
RETENTIONTIME: 5.374467
IONMODE: Negative
Comment: registered in RIKEN PlaSMA
Num Peaks: 34
65.00153	706
65.00662	126
79.01608	103
83.01212	1000
91.01936	117
93.03289	762
96.0232	126
107.01093	98
108.02015	285
109.02306	140
109.02971	93
117.02912	280
117.03758	107
121.03014	210
122.02937	126
130.04401	154
133.03421	117
134.03242	154
141.02808	121
143.01794	210
143.04491	103
144.05591	168
145.02692	84
156.01367	140
157.02754	355
158.03885	93
159.04099	112
160.00739	103
161.01749	276
163.00807	168
171.05368	140
176.03662	98
182.0367	84
198.02135	93

NAME: Formononetin
PRECURSORMZ: 267.06628244783
PRECURSORTYPE: [M-H]-
INSTRUMENTTYPE: LC-ESI-QTOF
SMILES: COC1=CC=C(C=C1)C1=COC2=C(C=CC(O)=C2)C1=O
INCHIKEY: HKQYGTCOTHHOMP-UHFFFAOYSA-N
Ontology: 4'-O-methylisoflavones
COLLISIONENERGY: 50
FORMULA: C16H12O4
RETENTIONTIME: 6.672383
IONMODE: Negative
Comment: registered in RIKEN PlaSMA
Num Peaks: 57
65.00405	26
79.01473	12
91.01727	385
91.08623	13
104.02489	117
105.02417	10
105.02888	11
107.01249	14
116.02905	15
117.03584	12
125.03949	12
132.01929	140
133.02855	12
135.0071	91
139.05125	10
139.05928	18
140.06346	11
141.03157	23
142.03738	25
145.02385	17
150.04712	11
151.04997	25
151.05969	10
153.04123	11
166.03867	21
167.04335	179
167.04976	577
168.04819	130
169.05695	11
173.0251	13
178.04004	16
178.05084	10
180.05176	22
181.06041	11
192.06119	16
195.04436	1000
196.03185	11
196.05084	55
196.35667	10
197.04749	33
199.64973	10
203.34589	11
205.99464	13
206.03105	30
208.04762	15
221.74486	11
222.03412	11
223.03581	246
223.05017	24
224.03253	24
224.04942	21
225.03897	11
250.0294	12
251.01587	10
251.02602	30
251.0381	24
252.03877	17

NAME: Apigenin-6-C-glucoside-7-O-glucoside
PRECURSORMZ: 593.15119384783
PRECURSORTYPE: [M-H]-
INSTRUMENTTYPE: LC-ESI-QTOF
SMILES: OCC1OC(OC2=C(C3OC(CO)C(O)C(O)C3O)C(O)=C3C(=O)C=C(OC3=C2)C2=CC=C(O)C=C2)C(O)C(O)C1O
INCHIKEY: HGUVPEBGCAVWID-UHFFFAOYNA-N
Ontology: Flavonoid-7-O-glycosides
COLLISIONENERGY: 10
FORMULA: C27H30O15
RETENTIONTIME: 3.531483
IONMODE: Negative
Comment: registered in RIKEN PlaSMA
Num Peaks: 29
268.03156	8
269.05341	13
281.03696	7
282.05042	49
282.06082	17
283.05655	58
283.07361	6
284.05597	6
296.67715	6
297.04025	132
298.0419	35
311.05203	299
312.05887	49
313.05984	12
323.0545	14
324.05688	7
339.04623	6
341.06174	17
341.07251	23
342.06531	9
353.05493	8
430.08435	11
431.09644	59
432.10199	22
473.09921	22
473.11642	15
474.09531	5
474.11331	7
593.14868	1000

NAME: Quercetin-3-O-glucoside
PRECURSORMZ: 463.08819964783
PRECURSORTYPE: [M-H]-
INSTRUMENTTYPE: LC-ESI-QTOF
SMILES: OCC1OC(OC2=C(OC3=CC(O)=CC(O)=C3C2=O)C2=CC(O)=C(O)C=C2)C(O)C(O)C1O
INCHIKEY: OVSQVDMCBVZWGM-UHFFFAOYNA-N
Ontology: Flavonoid-3-O-glycosides
COLLISIONENERGY: 10
FORMULA: C21H20O12
RETENTIONTIME: 4.0272
IONMODE: Negative
Comment: registered in RIKEN PlaSMA
Num Peaks: 50
63.02499	5
108.01617	5
121.02249	8
135.00833	13
151.0007	50
151.01277	10
152.00478	9
153.02232	5
161.0282	6
163.00047	11
178.99893	61
189.02036	6
199.04218	9
200.0443	6
201.01277	10
207.99803	7
211.03511	10
211.04549	6
213.01337	8
226.03682	8
227.03204	20
227.04651	11
228.04131	14
229.01666	5
241.0153	6
243.02798	82
245.03792	14
250.30743	6
254.02208	6
255.01445	16
255.03207	143
256.03271	10
257.03085	7
270.01898	32
271.02322	325
272.0271	48
272.03653	26
273.02942	22
283.02658	6
299.01453	33
300.02609	833
300.95068	6
301.03354	695
302.0376	106
303.05072	6
316.71735	6
461.05466	5
461.07736	31
462.07556	52
463.08649	1000

NAME: Hesperetin-7-O-rutinoside
PRECURSORMZ: 609.18249394783
PRECURSORTYPE: [M-H]-
INSTRUMENTTYPE: LC-ESI-QTOF
SMILES: COC1=C(O)C=C(C=C1)C1CC(=O)C2=C(O)C=C(OC3OC(COC4OC(C)C(O)C(O)C4O)C(O)C(O)C3O)C=C2O1
INCHIKEY: QUQPHWDTPGMPEX-UHFFFAOYNA-N
Ontology: Flavonoid-7-O-glycosides
COLLISIONENERGY: 10
FORMULA: C28H34O15
RETENTIONTIME: 4.49465
IONMODE: Negative
Comment: registered in RIKEN PlaSMA
Num Peaks: 21
151.00369	6
164.00996	25
174.02881	6
199.03297	10
201.01538	10
241.05418	11
242.04947	9
242.06029	25
257.07541	12
257.08804	5
258.0668	9
283.05341	7
283.06485	6
286.04691	43
301.07141	1000
302.07452	188
303.07944	14
310.04633	9
325.06976	24
343.07373	8
609.18561	304

NAME: Quercetin
PRECURSORMZ: 301.03537624783
PRECURSORTYPE: [M-H]-
INSTRUMENTTYPE: LC-ESI-QTOF
SMILES: OC1=CC(O)=C2C(OC(=C(O)C2=O)C2=CC(O)=C(O)C=C2)=C1
INCHIKEY: REFJWTPEDVJJIY-UHFFFAOYSA-N
Ontology: Flavonols
COLLISIONENERGY: 10
FORMULA: C15H10O7
RETENTIONTIME: 5.374467
IONMODE: Negative
Comment: registered in RIKEN PlaSMA
Num Peaks: 71
63.02477	12
65.00137	12
83.01269	32
84.21424	7
93.03026	15
94.03749	5
107.0118	137
108.01504	7
109.02705	21
119.04764	5
121.02814	130
122.03746	9
125.0182	7
133.02617	9
134.03033	13
135.03952	6
136.21889	7
145.02702	9
149.01952	20
149.03006	7
151.00223	556
152.00716	60
158.03139	7
159.04044	13
161.02155	9
162.99629	11
163.00529	7
164.01053	21
165.0209	5
169.02699	6
172.0538	6
178.9971	311
179.99376	16
180.00221	26
183.04892	10
184.04211	5
185.0611	10
188.04327	6
189.02805	7
195.04683	5
199.03494	5
199.04681	7
200.04417	13
201.04942	21
203.03613	13
206.04944	5
210.12929	6
211.04028	19
212.03156	5
213.00803	9
226.03595	5
227.03436	30
229.04802	21
230.01901	8
242.01244	6
243.01968	7
243.0262	12
245.04323	11
245.05035	5
255.03052	9
271.02118	47
271.03455	15
272.02606	43
273.03119	41
274.02954	6
283.02127	6
299.01529	46
300.01144	20
300.02158	66
300.91431	5
301.034	1000

NAME: Formononetin
PRECURSORMZ: 267.06628244783
PRECURSORTYPE: [M-H]-
INSTRUMENTTYPE: LC-ESI-QTOF
SMILES: COC1=CC=C(C=C1)C1=COC2=C(C=CC(O)=C2)C1=O
INCHIKEY: HKQYGTCOTHHOMP-UHFFFAOYSA-N
Ontology: 4'-O-methylisoflavones
COLLISIONENERGY: 10
FORMULA: C16H12O4
RETENTIONTIME: 6.672383
IONMODE: Negative
Comment: registered in RIKEN PlaSMA
Num Peaks: 23
91.01771	17
104.02513	10
132.02	83
135.00797	46
167.04926	31
168.05	5
180.0533	8
195.04332	177
196.04822	45
208.0518	41
209.0533	6
223.03789	234
224.04509	81
225.04483	15
226.05324	8
251.03255	139
252.04068	912
252.0851	6
253.04393	167
254.04039	6
254.05162	15
267.06393	1000
267.11014	15

NAME: Apigenin-6-C-glucoside-7-O-glucoside
PRECURSORMZ: 593.15119384783
PRECURSORTYPE: [M-H]-
INSTRUMENTTYPE: LC-ESI-QTOF
SMILES: OCC1OC(OC2=C(C3OC(CO)C(O)C(O)C3O)C(O)=C3C(=O)C=C(OC3=C2)C2=CC=C(O)C=C2)C(O)C(O)C1O
INCHIKEY: HGUVPEBGCAVWID-UHFFFAOYNA-N
Ontology: Flavonoid-7-O-glycosides
COLLISIONENERGY: 10
FORMULA: C27H30O15
RETENTIONTIME: 3.531483
IONMODE: Negative
Comment: registered in RIKEN PlaSMA
Num Peaks: 2
431.09814	5
593.1496	1000

NAME: Quercetin-3-O-glucoside
PRECURSORMZ: 463.08819964783
PRECURSORTYPE: [M-H]-
INSTRUMENTTYPE: LC-ESI-QTOF
SMILES: OCC1OC(OC2=C(OC3=CC(O)=CC(O)=C3C2=O)C2=CC(O)=C(O)C=C2)C(O)C(O)C1O
INCHIKEY: OVSQVDMCBVZWGM-UHFFFAOYNA-N
Ontology: Flavonoid-3-O-glycosides
COLLISIONENERGY: 10
FORMULA: C21H20O12
RETENTIONTIME: 4.0272
IONMODE: Negative
Comment: registered in RIKEN PlaSMA
Num Peaks: 8
300.02502	74
301.03433	161
302.03275	13
302.04337	10
461.07047	14
462.05685	10
462.07742	50
463.08807	1000

NAME: Hesperetin-7-O-rutinoside
PRECURSORMZ: 609.18249394783
PRECURSORTYPE: [M-H]-
INSTRUMENTTYPE: LC-ESI-QTOF
SMILES: COC1=C(O)C=C(C=C1)C1CC(=O)C2=C(O)C=C(OC3OC(COC4OC(C)C(O)C(O)C4O)C(O)C(O)C3O)C=C2O1
INCHIKEY: QUQPHWDTPGMPEX-UHFFFAOYNA-N
Ontology: Flavonoid-7-O-glycosides
COLLISIONENERGY: 10
FORMULA: C28H34O15
RETENTIONTIME: 4.49465
IONMODE: Negative
Comment: registered in RIKEN PlaSMA
Num Peaks: 4
301.07022	501
302.07077	115
303.07407	14
609.18231	1000

NAME: Quercetin
PRECURSORMZ: 301.03537624783
PRECURSORTYPE: [M-H]-
INSTRUMENTTYPE: LC-ESI-QTOF
SMILES: OC1=CC(O)=C2C(OC(=C(O)C2=O)C2=CC(O)=C(O)C=C2)=C1
INCHIKEY: REFJWTPEDVJJIY-UHFFFAOYSA-N
Ontology: Flavonols
COLLISIONENERGY: 10
FORMULA: C15H10O7
RETENTIONTIME: 5.374467
IONMODE: Negative
Comment: registered in RIKEN PlaSMA
Num Peaks: 10
121.02784	13
151.00168	120
152.0076	9
178.99608	96
271.02432	24
272.02133	13
273.03281	7
299.01633	52
300.02008	64
301.03329	1000

NAME: Formononetin
PRECURSORMZ: 267.06628244783
PRECURSORTYPE: [M-H]-
INSTRUMENTTYPE: LC-ESI-QTOF
SMILES: COC1=CC=C(C=C1)C1=COC2=C(C=CC(O)=C2)C1=O
INCHIKEY: HKQYGTCOTHHOMP-UHFFFAOYSA-N
Ontology: 4'-O-methylisoflavones
COLLISIONENERGY: 10
FORMULA: C16H12O4
RETENTIONTIME: 6.672383
IONMODE: Negative
Comment: registered in RIKEN PlaSMA
Num Peaks: 4
252.04111	202
253.04381	33
267.06451	1000
267.11105	21

NAME: Apigenin-6-C-glucoside-7-O-glucoside
PRECURSORMZ: 593.15119384783
PRECURSORTYPE: [M-H]-
INSTRUMENTTYPE: LC-ESI-QTOF
SMILES: OCC1OC(OC2=C(C3OC(CO)C(O)C(O)C3O)C(O)=C3C(=O)C=C(OC3=C2)C2=CC=C(O)C=C2)C(O)C(O)C1O
INCHIKEY: HGUVPEBGCAVWID-UHFFFAOYNA-N
Ontology: Flavonoid-7-O-glycosides
COLLISIONENERGY: 30
FORMULA: C27H30O15
RETENTIONTIME: 3.531483
IONMODE: Negative
Comment: registered in RIKEN PlaSMA
Num Peaks: 38
269.03275	5
269.04651	29
282.05048	140
283.05719	97
284.06311	9
293.0322	6
293.04718	12
297.03873	295
298.04269	59
299.04605	7
309.03888	11
310.03378	8
310.04886	11
311.05435	1000
312.05917	211
313.05002	10
313.06213	35
321.04211	10
323.04245	7
323.05881	30
339.05823	6
341.06271	124
342.06079	14
342.08078	8
353.06213	30
354.06854	8
355.03433	12
365.05945	6
430.08368	10
431.07773	17
431.0997	120
432.09982	24
473.10532	110
474.10745	11
474.13062	5
475.10471	12
593.1402	142
593.15778	214

NAME: Quercetin-3-O-glucoside
PRECURSORMZ: 463.08819964783
PRECURSORTYPE: [M-H]-
INSTRUMENTTYPE: LC-ESI-QTOF
SMILES: OCC1OC(OC2=C(OC3=CC(O)=CC(O)=C3C2=O)C2=CC(O)=C(O)C=C2)C(O)C(O)C1O
INCHIKEY: OVSQVDMCBVZWGM-UHFFFAOYNA-N
Ontology: Flavonoid-3-O-glycosides
COLLISIONENERGY: 30
FORMULA: C21H20O12
RETENTIONTIME: 4.0272
IONMODE: Negative
Comment: registered in RIKEN PlaSMA
Num Peaks: 43
121.02797	14
148.01236	5
149.01547	5
150.0305	6
151.00179	121
151.0193	5
152.00298	14
152.00876	10
163.00333	20
178.99522	50
179.00253	24
180.00203	11
188.04053	6
190.98865	6
213.05142	8
215.03801	6
226.02562	14
229.04364	8
229.05132	11
241.00821	5
242.0188	15
243.02667	47
244.03561	7
246.04556	6
254.01868	10
254.02798	6
255.02812	224
256.03235	33
270.01382	23
271.02216	348
272.02765	61
273.0275	15
273.04239	28
274.0289	5
283.02219	11
298.01312	7
299.01282	18
299.02151	7
300.0257	1000
301.03128	380
302.01746	10
302.03296	58
303.03937	13

NAME: Hesperetin-7-O-rutinoside
PRECURSORMZ: 609.18249394783
PRECURSORTYPE: [M-H]-
INSTRUMENTTYPE: LC-ESI-QTOF
SMILES: COC1=C(O)C=C(C=C1)C1CC(=O)C2=C(O)C=C(OC3OC(COC4OC(C)C(O)C(O)C4O)C(O)C(O)C3O)C=C2O1
INCHIKEY: QUQPHWDTPGMPEX-UHFFFAOYNA-N
Ontology: Flavonoid-7-O-glycosides
COLLISIONENERGY: 30
FORMULA: C28H34O15
RETENTIONTIME: 4.49465
IONMODE: Negative
Comment: registered in RIKEN PlaSMA
Num Peaks: 22
125.01452	5
125.02495	13
149.06146	5
151.00488	6
164.01506	9
173.05995	6
174.03465	5
199.03679	7
242.05615	23
257.08252	12
258.04962	17
283.05954	14
286.04636	69
287.04608	15
301.06952	1000
302.07291	152
303.07681	37
310.04984	17
325.07004	40
326.08545	7
343.082	10
344.08203	8

NAME: Quercetin
PRECURSORMZ: 301.03537624783
PRECURSORTYPE: [M-H]-
INSTRUMENTTYPE: LC-ESI-QTOF
SMILES: OC1=CC(O)=C2C(OC(=C(O)C2=O)C2=CC(O)=C(O)C=C2)=C1
INCHIKEY: REFJWTPEDVJJIY-UHFFFAOYSA-N
Ontology: Flavonols
COLLISIONENERGY: 30
FORMULA: C15H10O7
RETENTIONTIME: 5.374467
IONMODE: Negative
Comment: registered in RIKEN PlaSMA
Num Peaks: 162
63.02256	73
65.00098	102
68.99493	7
83.01397	83
84.01497	14
91.01525	7
93.03374	100
94.03765	12
96.01704	38
96.02428	7
106.21169	7
107.01199	650
108.01923	57
108.29037	10
109.02864	40
110.0331	6
110.90323	7
113.03548	6
116.06335	11
117.03605	17
118.14885	9
119.04784	29
120.01804	12
120.99529	10
121.02744	434
121.03911	8
121.06422	10
122.02802	7
122.03316	6
123.01375	7
124.0109	20
124.01694	12
125.0218	18
127.04985	11
129.02809	7
130.03729	20
131.04671	18
132.02237	8
133.02852	90
133.06255	14
134.03021	7
135.00334	28
135.04384	58
136.01511	24
137.02333	8
139.03833	7
141.02948	8
141.03682	8
141.06381	7
142.03963	8
143.04109	7
143.04848	25
144.0524	22
144.78015	6
145.02805	24
145.03343	18
145.06451	9
146.02654	9
146.03571	7
148.01416	12
149.02078	94
149.03139	14
150.0256	9
151.0014	1000
151.0181	12
151.99628	14
152.00391	54
152.01234	15
153.03113	13
154.00293	8
154.03334	16
155.03426	9
155.05212	8
157.02444	18
157.03349	10
157.06194	20
158.03151	42
158.03957	12
159.03571	12
159.04465	66
160.04977	10
160.68132	7
161.02277	39
161.03323	8
162.02765	23
163.00134	15
163.0312	8
163.04115	20
164.00148	16
164.0116	24
165.01251	14
165.02037	18
167.04482	19
169.02104	8
169.03307	9
170.03531	6
171.04488	28
172.05772	12
173.024	28
173.05716	9
174.03395	15
174.998	6
175.03746	35
176.03526	9
178.05016	9
178.99628	24
179.00615	13
180.00589	10
182.03839	17
183.03998	36
184.04865	7
185.01692	8
185.0287	10
185.0567	14
187.03525	43
187.0417	24
188.03142	9
188.04147	27
189.01762	8
198.02681	7
198.03844	8
199.0352	47
199.04376	13
200.0414	9
201.05293	41
202.01456	8
202.04501	7
203.79216	6
205.95518	7
210.32652	10
211.04172	25
212.04422	9
213.01747	16
215.02763	10
215.03906	19
217.0051	9
217.04793	9
225.02113	7
226.0258	22
226.63896	8
227.02486	24
227.03293	46
228.03804	10
229.04611	41
231.02844	24
232.02119	11
239.03848	7
242.01256	7
243.017	9
243.02977	64
244.03636	11
245.04256	53
246.04744	6
255.02652	7
255.03592	17
256.02908	8
256.03946	18
257.03299	7
257.59769	7
271.01392	15
273.02356	7
284.03217	7

NAME: Formononetin
PRECURSORMZ: 267.06628244783
PRECURSORTYPE: [M-H]-
INSTRUMENTTYPE: LC-ESI-QTOF
SMILES: COC1=CC=C(C=C1)C1=COC2=C(C=CC(O)=C2)C1=O
INCHIKEY: HKQYGTCOTHHOMP-UHFFFAOYSA-N
Ontology: 4'-O-methylisoflavones
COLLISIONENERGY: 30
FORMULA: C16H12O4
RETENTIONTIME: 6.672383
IONMODE: Negative
Comment: registered in RIKEN PlaSMA
Num Peaks: 27
91.01769	58
104.02582	65
132.02022	371
133.02373	29
135.0074	187
136.00507	5
167.04967	74
168.04901	11
168.05742	20
179.05182	7
180.05611	62
195.04314	644
196.04814	119
197.04956	13
207.03677	8
208.05353	119
209.05582	14
223.03935	1000
223.47247	5
224.04359	307
225.04495	34
225.05891	7
226.05083	7
251.0334	518
252.041	455
253.04417	89
254.04184	5

NAME: Apigenin-6-C-glucoside-7-O-glucoside
PRECURSORMZ: 593.15119384783
PRECURSORTYPE: [M-H]-
INSTRUMENTTYPE: LC-ESI-QTOF
SMILES: OCC1OC(OC2=C(C3OC(CO)C(O)C(O)C3O)C(O)=C3C(=O)C=C(OC3=C2)C2=CC=C(O)C=C2)C(O)C(O)C1O
INCHIKEY: HGUVPEBGCAVWID-UHFFFAOYNA-N
Ontology: Flavonoid-7-O-glycosides
COLLISIONENERGY: 50
FORMULA: C27H30O15
RETENTIONTIME: 3.531483
IONMODE: Negative
Comment: registered in RIKEN PlaSMA
Num Peaks: 170
63.47873	5
77.04066	6
77.92815	5
93.03134	10
97.02664	6
97.50502	6
105.0377	8
107.01292	9
107.04872	8
117.02454	11
117.033	55
118.03571	14
121.02529	26
122.02885	16
123.00691	6
135.00847	8
135.04466	29
137.02576	31
145.03157	6
146.02998	6
147.03868	6
149.01939	12
149.02658	23
151.00229	6
151.04352	12
156.05949	8
159.04076	25
161.02426	50
161.73796	6
162.01935	6
163.00131	30
163.0388	48
164.00188	8
164.04132	5
169.0612	6
171.04169	6
173.02438	21
175.00026	20
176.0042	11
177.01656	66
178.99277	74
179.00275	12
179.03665	24
179.05066	11
180.03745	10
181.06047	10
183.00037	6
183.04083	6
184.04309	7
185.0155	9
185.02986	13
185.05444	6
186.03316	7
186.08296	9
189.02229	6
190.02109	6
190.03249	9
191.02556	12
191.03709	17
193.002	5
193.01114	19
193.01991	10
193.34717	9
197.05684	8
197.06413	25
203.04326	15
205.01477	7
208.04376	9
210.062	6
210.26085	8
211.03926	6
211.06075	6
211.06802	7
212.04012	6
213.0531	18
215.03725	6
215.06389	7
215.54283	5
217.00909	18
221.04672	7
223.02153	6
225.01404	6
225.05005	42
226.05237	6
227.03175	14
227.06848	5
228.06721	5
229.00768	7
229.01547	7
237.0556	6
238.06725	20
239.06812	36
239.08447	7
240.06448	5
240.08977	10
243.02423	8
243.06114	5
251.06944	5
253.00821	5
253.04852	26
254.04733	12
255.03447	10
255.05196	6
256.68466	5
265.0593	5
267.05984	16
268.03256	43
268.05133	7
269.04416	201
269.07037	5
270.04507	55
271.0528	14
279.33649	7
281.04349	200
282.04987	406
283.05875	1000
284.05823	92
284.07135	54
284.12689	5
285.06305	11
293.04272	34
293.40564	6
294.05374	20
295.02057	194
295.04016	28
295.06696	25
296.02557	22
296.07458	6
297.03934	877
298.03186	49
298.04556	83
299.03271	6
299.04922	15
300.04016	7
308.09409	7
309.02829	11
309.04956	9
309.0712	7
310.03976	19
310.05832	12
311.05338	309
311.08157	7
312.05536	36
312.06973	8
313.04688	6
313.06015	6
319.07043	5
323.05115	13
323.06345	50
324.04977	6
324.07059	8
325.30707	5
333.0546	8
334.03925	6
335.05847	7
337.05368	7
338.07953	6
339.04034	7
340.06534	15
341.03009	5
341.0546	6
341.07065	15
342.06033	7
347.0336	5
347.04904	6
354.06219	6
354.07455	9
363.33496	8
373.25876	6
474.72751	6

NAME: Quercetin-3-O-glucoside
PRECURSORMZ: 463.08819964783
PRECURSORTYPE: [M-H]-
INSTRUMENTTYPE: LC-ESI-QTOF
SMILES: OCC1OC(OC2=C(OC3=CC(O)=CC(O)=C3C2=O)C2=CC(O)=C(O)C=C2)C(O)C(O)C1O
INCHIKEY: OVSQVDMCBVZWGM-UHFFFAOYNA-N
Ontology: Flavonoid-3-O-glycosides
COLLISIONENERGY: 50
FORMULA: C21H20O12
RETENTIONTIME: 4.0272
IONMODE: Negative
Comment: registered in RIKEN PlaSMA
Num Peaks: 151
63.02293	6
74.82848	6
83.01075	13
83.01705	14
91.01513	9
91.05002	6
93.03633	7
96.02159	11
97.64209	25
107.01263	59
108.01969	96
109.0293	16
114.43442	10
115.05035	16
115.05623	12
119.0125	17
121.02969	27
127.05227	6
129.03107	6
129.06596	12
130.07555	5
133.02567	13
135.0029	17
135.00841	22
136.01721	13
141.06519	5
141.89879	7
143.04382	16
143.05728	12
146.03636	14
147.03998	11
148.01469	94
149.01382	11
150.99434	25
151.00029	81
152.01215	19
153.00974	10
155.04829	15
156.05287	14
157.03456	6
158.03903	12
160.01294	9
160.05406	5
161.06514	7
162.02408	5
163.00098	48
164.01306	19
164.01967	9
165.0293	5
167.02917	5
167.04904	19
170.0334	6
171.04364	29
172.01147	8
172.01875	12
172.04907	17
173.01653	6
173.0282	11
173.05708	9
175.04877	13
176.09047	11
178.98605	8
182.03687	12
183.04057	44
185.02232	14
185.05782	10
186.03394	6
187.03398	28
187.04407	21
188.03777	11
189.04799	15
190.99657	17
192.01726	7
195.04327	7
197.02003	16
197.02736	12
198.02675	20
198.03847	33
199.03651	157
199.09979	6
200.04102	29
201.01788	50
201.05865	9
202.02574	18
203.02341	5
203.03581	59
210.02988	15
210.03914	5
211.03757	94
212.01764	5
212.04697	10
213.01996	28
214.01109	5
214.02942	22
215.02322	33
215.03458	31
215.04315	26
215.99808	8
216.02539	8
216.03877	21
216.29922	8
218.04134	5
223.6644	5
225.01494	7
226.02353	28
226.04091	9
227.02667	96
227.03764	39
227.04996	10
228.04236	10
229.01428	42
231.04169	6
238.00291	6
238.02354	6
239.0351	5
240.04584	6
241.01372	68
242.01305	41
242.02583	30
243.02827	440
244.02859	42
244.03799	69
244.07399	6
245.02519	5
245.03725	16
254.01277	13
255.02763	346
255.12119	6
255.69838	6
256.00494	7
256.02896	64
256.04498	17
256.9924	5
257.02985	9
257.0416	11
260.03882	7
266.01141	7
267.16864	9
270.02234	8
270.03384	8
270.95856	7
271.02371	1000
272.0271	216
273.03329	14
273.04639	6
299.00845	13
299.01941	13
299.02847	9
300.0162	17
300.03937	5
366.30145	5

NAME: Hesperetin-7-O-rutinoside
PRECURSORMZ: 609.18249394783
PRECURSORTYPE: [M-H]-
INSTRUMENTTYPE: LC-ESI-QTOF
SMILES: COC1=C(O)C=C(C=C1)C1CC(=O)C2=C(O)C=C(OC3OC(COC4OC(C)C(O)C(O)C4O)C(O)C(O)C3O)C=C2O1
INCHIKEY: QUQPHWDTPGMPEX-UHFFFAOYNA-N
Ontology: Flavonoid-7-O-glycosides
COLLISIONENERGY: 50
FORMULA: C28H34O15
RETENTIONTIME: 4.49465
IONMODE: Negative
Comment: registered in RIKEN PlaSMA
Num Peaks: 207
63.02004	10
65.00129	10
72.11457	11
72.99554	6
80.02829	8
83.01199	66
87.04114	8
103.01752	14
104.69366	6
107.00183	17
107.01202	84
108.01772	88
108.02361	35
109.02947	18
114.28681	8
115.0387	6
120.01748	8
121.02817	14
121.99827	9
124.01609	24
125.02349	115
126.02685	16
126.03172	8
131.03726	10
132.04185	10
133.0218	9
134.03606	294
135.03999	93
135.04622	45
136.01413	241
136.0392	13
136.06306	6
137.01758	69
137.02747	19
138.02267	11
138.61583	7
139.03888	7
148.01425	13
148.05058	7
149.02425	14
149.05728	56
150.03351	7
150.05727	8
151.0023	730
151.62709	7
152.00256	73
152.0134	37
153.00188	7
153.01064	16
157.065	6
158.03372	68
158.71283	20
159.03743	9
161.01588	10
161.02437	16
164.01036	1000
165.0081	34
165.01697	110
165.62253	8
165.74821	6
166.03032	10
169.88824	6
171.04749	6
172.0497	45
173.05267	39
173.06378	46
174.03235	261
174.96005	8
174.99553	25
175.00529	28
175.01436	7
175.03848	40
176.00745	29
176.0204	8
176.04329	33
177.01669	35
177.02585	15
178.03682	12
182.03261	8
183.04453	20
184.95534	6
185.02113	42
185.05548	7
185.8089	7
186.07524	12
187.03249	21
187.04594	16
188.01462	24
188.04266	42
188.49074	9
189.02524	16
189.04701	7
191.06894	16
192.79289	6
193.01042	19
195.04242	6
197.06532	6
198.03152	15
198.03979	13
199.03905	221
200.00443	8
200.04599	166
201.01935	242
201.05423	8
202.02461	81
202.03754	13
203.01183	11
203.02972	51
204.00342	6
206.02481	8
207.02557	7
209.06128	8
211.0788	7
213.05157	38
214.02368	7
214.06137	27
214.63918	7
215.03474	174
215.06793	40
215.07886	33
216.02246	6
216.03535	48
216.04308	27
217.04535	36
217.05724	35
218.03607	11
218.04727	17
218.06427	11
219.02939	11
219.07759	10
223.03648	7
223.0443	7
223.05888	6
224.04237	44
225.05142	21
225.06305	6
225.96062	6
226.06323	7
227.03561	72
228.07877	7
230.05588	26
233.08537	22
236.12396	7
237.06041	12
239.07849	7
240.02542	7
240.04314	61
241.04103	13
241.05334	58
242.05865	420
243.03073	22
243.05078	19
243.06201	20
244.02139	10
244.03197	7
244.04442	10
244.06934	6
254.06659	7
256.08987	15
257.06915	6
257.08194	48
258.04749	50
258.0574	77
258.08344	6
259.05991	42
259.09311	8
259.95502	6
263.89017	8
264.14618	6
268.03375	34
268.06183	8
269.05246	12
270.05908	7
275.03641	8
281.03076	8
281.0831	8
282.04062	11
282.05786	17
283.05615	22
283.06625	14
283.08649	7
285.03857	122
286.04718	247
286.32025	8
287.04938	62
288.04056	7
288.05411	15
299.0528	10
300.01797	6
300.0592	7
300.07263	7
301.06952	298
302.06406	13
302.07285	35
303.04724	8
303.07431	16
309.04111	26
310.03555	11
310.04782	12
318.15997	8
321.07837	7
327.04547	7
328.0491	9
360.81656	7
488.29266	7
513.69299	6
519.06592	7

NAME: Quercetin
PRECURSORMZ: 301.03537624783
PRECURSORTYPE: [M-H]-
INSTRUMENTTYPE: LC-ESI-QTOF
SMILES: OC1=CC(O)=C2C(OC(=C(O)C2=O)C2=CC(O)=C(O)C=C2)=C1
INCHIKEY: REFJWTPEDVJJIY-UHFFFAOYSA-N
Ontology: Flavonols
COLLISIONENERGY: 50
FORMULA: C15H10O7
RETENTIONTIME: 5.374467
IONMODE: Negative
Comment: registered in RIKEN PlaSMA
Num Peaks: 36
63.02298	82
65.00182	1000
83.012	318
92.02016	90
93.03087	369
99.01411	71
101.03733	102
106.03671	169
107.01416	259
108.02254	110
109.02594	75
109.03218	129
113.03573	94
121.02856	573
122.03653	129
133.02554	180
134.03052	247
139.04036	78
141.03642	78
143.04881	200
147.03555	98
148.01715	86
149.02234	82
150.99768	78
157.03185	94
158.03845	110
160.0184	90
161.01671	141
169.01976	145
183.04361	161
186.0325	94
187.03122	110
199.03244	94
199.03966	90
201.021	71
282.0087	78

NAME: Formononetin
PRECURSORMZ: 267.06628244783
PRECURSORTYPE: [M-H]-
INSTRUMENTTYPE: LC-ESI-QTOF
SMILES: COC1=CC=C(C=C1)C1=COC2=C(C=CC(O)=C2)C1=O
INCHIKEY: HKQYGTCOTHHOMP-UHFFFAOYSA-N
Ontology: 4'-O-methylisoflavones
COLLISIONENERGY: 50
FORMULA: C16H12O4
RETENTIONTIME: 6.672383
IONMODE: Negative
Comment: registered in RIKEN PlaSMA
Num Peaks: 62
53.47155	14
65.00242	11
67.02036	19
75.02605	14
77.0379	12
91.01776	347
91.0346	9
92.02131	51
92.99714	16
101.03428	10
104.02587	136
107.01077	12
112.34451	11
113.03577	10
114.04556	11
117.03267	17
125.03378	12
129.0304	13
132.02016	103
135.00754	117
136.01089	8
138.05127	23
139.0464	11
139.05611	9
142.03503	11
145.03337	14
150.05768	22
151.0553	10
152.06172	9
153.03403	41
156.02222	10
166.03871	17
167.05003	564
168.04993	41
168.06059	10
168.53427	9
169.05074	11
170.03616	9
173.01929	38
178.04021	25
179.04819	10
179.05597	20
180.04842	9
180.06285	8
182.02946	13
184.02632	9
184.82207	9
194.03464	26
195.04475	1000
196.04776	97
206.03569	43
207.04234	8
208.04544	20
222.02919	20
223.03529	190
223.04675	75
224.03258	10
224.04579	41
251.02385	38
251.03194	45
252.05272	10
254.03267	9

NAME: Quercetin-4'-O-glucoside
PRECURSORMZ: 463.08819964783
PRECURSORTYPE: [M-H]-
INSTRUMENTTYPE: LC-ESI-QTOF
SMILES: OCC1OC(OC2=C(O)C=C(C=C2)C2=C(O)C(=O)C3=C(O)C=C(O)C=C3O2)C(O)C(O)C1O
INCHIKEY: OIUBYZLTFSLSBY-UHFFFAOYNA-N
Ontology: Flavonoid O-glycosides
COLLISIONENERGY: 10
FORMULA: C21H20O12
RETENTIONTIME: 4.482217
IONMODE: Negative
Comment: registered in RIKEN PlaSMA
Num Peaks: 47
83.00879	6
107.00819	15
107.01619	16
111.45216	7
122.03494	6
130.27135	7
136.01543	5
149.99438	7
151.00157	241
152.00453	13
161.02451	6
163.00745	6
163.03862	5
166.01785	6
178.99718	168
180.00394	6
197.963	5
200.04855	6
201.06523	8
205.05467	6
211.04169	6
227.0316	8
230.05173	6
232.03523	6
243.02548	6
255.021	6
255.04013	7
257.03827	8
271.01736	6
272.02661	11
273.02448	12
273.03711	7
283.03046	8
299.02219	6
300.02994	112
300.78561	6
300.94275	5
301.03448	1000
301.18723	11
302.03781	230
303.03574	14
307.79568	6
313.35434	7
373.056	6
381.63635	7
463.08429	198
463.20029	5

NAME: Kaempferol-3-O-glucoside-6''-p-coumaroyl
PRECURSORMZ: 593.13006444783
PRECURSORTYPE: [M-H]-
INSTRUMENTTYPE: LC-ESI-QTOF
SMILES: OC1C(COC(=O)C=CC2=CC=C(O)C=C2)OC(OC2=C(OC3=CC(O)=CC(O)=C3C2=O)C2=CC=C(O)C=C2)C(O)C1O
INCHIKEY: DVGGLGXQSFURLP-UHFFFAOYNA-N
Ontology: Flavonoid 3-O-p-coumaroyl glycosides
COLLISIONENERGY: 10
FORMULA: C30H26O13
RETENTIONTIME: 5.205966
IONMODE: Negative
Comment: registered in RIKEN PlaSMA
Num Peaks: 21
145.02734	42
150.99538	5
151.00435	7
211.03214	6
223.03836	5
227.02374	10
227.03546	20
229.04683	15
255.02951	116
256.03491	32
257.04401	25
267.02966	7
284.03079	388
285.03821	596
286.04321	107
287.0415	9
307.07959	25
327.04791	7
447.08676	15
447.10245	9
593.1286	1000

NAME: Biochanin-7-O-glucoside
PRECURSORMZ: 445.11402044783
PRECURSORTYPE: [M-H]-
INSTRUMENTTYPE: LC-ESI-QTOF
SMILES: COC1=CC=C(C=C1)C1=COC2=CC(OC3OC(CO)C(O)C(O)C3O)=CC(O)=C2C1=O
INCHIKEY: LFEUICHQZGNOHD-UHFFFAOYNA-N
Ontology: Isoflavonoid O-glycosides
COLLISIONENERGY: 10
FORMULA: C22H22O10
RETENTIONTIME: 5.755017
IONMODE: Negative
Comment: registered in RIKEN PlaSMA
Num Peaks: 32
89.02505	5
101.02332	8
150.99954	9
198.02731	8
200.04631	6
211.03683	6
223.04384	6
224.03476	7
226.06059	7
239.01933	12
239.04265	17
240.03497	11
240.04587	6
267.02768	19
267.06604	6
267.07623	9
268.00189	8
268.03491	336
269.02484	12
269.04233	34
270.0368	5
283.05923	1000
284.0618	117
285.05557	10
285.07333	28
287.06772	14
296.05972	7
307.05203	8
325.06802	8
325.08984	9
343.08118	7
368.08691	5

NAME: Biochanin-7-O-glucoside
PRECURSORMZ: 491.11949975183
PRECURSORTYPE: [M+FA-H]-
INSTRUMENTTYPE: LC-ESI-QTOF
SMILES: COC1=CC=C(C=C1)C1=COC2=CC(OC3OC(CO)C(O)C(O)C3O)=CC(O)=C2C1=O
INCHIKEY: LFEUICHQZGNOHD-UHFFFAOYNA-N
Ontology: Isoflavonoid O-glycosides
COLLISIONENERGY: 10
FORMULA: C22H22O10
RETENTIONTIME: 5.755017
IONMODE: Negative
Comment: registered in RIKEN PlaSMA
Num Peaks: 13
267.05621	7
268.03369	172
269.0397	24
283.05893	1000
284.06311	179
285.05563	9
285.07104	14
297.07898	8
325.06946	9
445.11002	36
446.12329	9
491.10574	28
491.12668	18

NAME: Aloe-emodin
PRECURSORMZ: 269.04554694783
PRECURSORTYPE: [M-H]-
INSTRUMENTTYPE: LC-ESI-QTOF
SMILES: OCC1=CC2=C(C(O)=C1)C(=O)C1=C(C=CC=C1O)C2=O
INCHIKEY: YDQWDHRMZQUTBA-UHFFFAOYSA-N
Ontology: Anthraquinones
COLLISIONENERGY: 10
FORMULA: C15H10O5
RETENTIONTIME: 5.8893
IONMODE: Negative
Comment: registered in RIKEN PlaSMA
Num Peaks: 20
105.03704	6
107.01327	43
108.01689	9
117.03353	174
118.03468	14
118.0406	10
121.02924	14
149.02309	71
150.02702	9
151.00229	103
158.03452	5
159.04303	14
183.04515	9
201.05232	28
213.05257	5
224.04504	8
225.05453	34
226.05922	9
227.03653	13
269.04419	1000

NAME: Hesperetin
PRECURSORMZ: 301.07176174783
PRECURSORTYPE: [M-H]-
INSTRUMENTTYPE: LC-ESI-QTOF
SMILES: COC1=C(O)C=C(C=C1)C1CC(=O)C2=C(O)C=C(O)C=C2O1
INCHIKEY: AIONOLUJZLIMTK-UHFFFAOYNA-N
Ontology: 4'-O-methylated flavonoids
COLLISIONENERGY: 10
FORMULA: C16H14O6
RETENTIONTIME: 6.167617
IONMODE: Negative
Comment: registered in RIKEN PlaSMA
Num Peaks: 74
83.00745	7
83.01257	20
107.01247	29
108.01944	47
125.0229	77
133.02692	6
134.03624	70
135.03716	7
135.04439	11
136.01575	119
137.01987	15
146.03363	6
149.05978	11
151.00237	127
152.00795	7
152.01376	6
153.00964	6
158.03691	28
161.03084	5
164.00919	274
165.01477	21
165.02167	8
172.04901	16
173.02109	15
173.05869	33
174.03009	80
175.03841	20
176.04301	6
185.02206	15
186.06387	9
187.03674	10
188.03706	6
188.04617	9
198.02995	7
199.03719	56
200.0098	8
200.04312	21
200.0533	7
201.0162	59
202.01964	7
202.03046	7
203.02576	8
213.05244	19
214.06445	12
215.03412	30
215.06001	9
215.07068	6
216.04059	10
217.03641	9
217.04968	15
218.05061	11
224.05109	8
226.06499	6
227.03291	21
227.04626	12
233.08284	11
239.06871	6
240.03749	17
241.05298	40
242.05408	115
243.03357	16
243.05518	19
257.08139	48
258.05093	45
258.07578	6
259.05402	11
267.03189	10
268.03421	10
283.05881	54
285.04367	18
286.03906	43
286.04816	119
287.05048	36
301.07095	1000

NAME: Quercetin-4'-O-glucoside
PRECURSORMZ: 463.08819964783
PRECURSORTYPE: [M-H]-
INSTRUMENTTYPE: LC-ESI-QTOF
SMILES: OCC1OC(OC2=C(O)C=C(C=C2)C2=C(O)C(=O)C3=C(O)C=C(O)C=C3O2)C(O)C(O)C1O
INCHIKEY: OIUBYZLTFSLSBY-UHFFFAOYNA-N
Ontology: Flavonoid O-glycosides
COLLISIONENERGY: 10
FORMULA: C21H20O12
RETENTIONTIME: 4.482217
IONMODE: Negative
Comment: registered in RIKEN PlaSMA
Num Peaks: 12
217.26993	7
243.53365	6
272.4122	7
301.03473	1000
302.0358	222
302.05539	26
302.53076	5
303.03906	35
304.04114	6
463.08798	726
463.13223	5
463.15143	5

NAME: Kaempferol-3-O-glucoside-6''-p-coumaroyl
PRECURSORMZ: 593.13006444783
PRECURSORTYPE: [M-H]-
INSTRUMENTTYPE: LC-ESI-QTOF
SMILES: OC1C(COC(=O)C=CC2=CC=C(O)C=C2)OC(OC2=C(OC3=CC(O)=CC(O)=C3C2=O)C2=CC=C(O)C=C2)C(O)C1O
INCHIKEY: DVGGLGXQSFURLP-UHFFFAOYNA-N
Ontology: Flavonoid 3-O-p-coumaroyl glycosides
COLLISIONENERGY: 10
FORMULA: C30H26O13
RETENTIONTIME: 5.205966
IONMODE: Negative
Comment: registered in RIKEN PlaSMA
Num Peaks: 4
284.02734	6
285.03983	35
307.08029	5
593.12769	1000

NAME: Biochanin-7-O-glucoside
PRECURSORMZ: 445.11402044783
PRECURSORTYPE: [M-H]-
INSTRUMENTTYPE: LC-ESI-QTOF
SMILES: COC1=CC=C(C=C1)C1=COC2=CC(OC3OC(CO)C(O)C(O)C3O)=CC(O)=C2C1=O
INCHIKEY: LFEUICHQZGNOHD-UHFFFAOYNA-N
Ontology: Isoflavonoid O-glycosides
COLLISIONENERGY: 10
FORMULA: C22H22O10
RETENTIONTIME: 5.755017
IONMODE: Negative
Comment: registered in RIKEN PlaSMA
Num Peaks: 9
283.05829	1000
284.06158	192
285.05939	12
285.07434	10
305.07599	7
325.07693	15
349.08527	6
367.07333	8
399.93433	6

NAME: Biochanin-7-O-glucoside
PRECURSORMZ: 491.11949975183
PRECURSORTYPE: [M+FA-H]-
INSTRUMENTTYPE: LC-ESI-QTOF
SMILES: COC1=CC=C(C=C1)C1=COC2=CC(OC3OC(CO)C(O)C(O)C3O)=CC(O)=C2C1=O
INCHIKEY: LFEUICHQZGNOHD-UHFFFAOYNA-N
Ontology: Isoflavonoid O-glycosides
COLLISIONENERGY: 10
FORMULA: C22H22O10
RETENTIONTIME: 5.755017
IONMODE: Negative
Comment: registered in RIKEN PlaSMA
Num Peaks: 8
283.05957	1000
284.06442	184
285.06662	34
325.06168	10
445.11179	206
446.11755	56
447.12201	7
491.11853	243

NAME: Aloe-emodin
PRECURSORMZ: 269.04554694783
PRECURSORTYPE: [M-H]-
INSTRUMENTTYPE: LC-ESI-QTOF
SMILES: OCC1=CC2=C(C(O)=C1)C(=O)C1=C(C=CC=C1O)C2=O
INCHIKEY: YDQWDHRMZQUTBA-UHFFFAOYSA-N
Ontology: Anthraquinones
COLLISIONENERGY: 10
FORMULA: C15H10O5
RETENTIONTIME: 5.8893
IONMODE: Negative
Comment: registered in RIKEN PlaSMA
Num Peaks: 4
149.02493	6
151.00575	5
225.0533	7
269.04352	1000

NAME: Hesperetin
PRECURSORMZ: 301.07176174783
PRECURSORTYPE: [M-H]-
INSTRUMENTTYPE: LC-ESI-QTOF
SMILES: COC1=C(O)C=C(C=C1)C1CC(=O)C2=C(O)C=C(O)C=C2O1
INCHIKEY: AIONOLUJZLIMTK-UHFFFAOYNA-N
Ontology: 4'-O-methylated flavonoids
COLLISIONENERGY: 10
FORMULA: C16H14O6
RETENTIONTIME: 6.167617
IONMODE: Negative
Comment: registered in RIKEN PlaSMA
Num Peaks: 14
125.02185	25
151.0031	11
164.01099	16
199.0381	11
201.01642	6
215.02927	6
242.05751	34
243.06174	7
257.08066	19
258.04965	10
283.05807	18
286.0462	60
287.05435	8
301.0697	1000

NAME: Quercetin-4'-O-glucoside
PRECURSORMZ: 463.08819964783
PRECURSORTYPE: [M-H]-
INSTRUMENTTYPE: LC-ESI-QTOF
SMILES: OCC1OC(OC2=C(O)C=C(C=C2)C2=C(O)C(=O)C3=C(O)C=C(O)C=C3O2)C(O)C(O)C1O
INCHIKEY: OIUBYZLTFSLSBY-UHFFFAOYNA-N
Ontology: Flavonoid O-glycosides
COLLISIONENERGY: 30
FORMULA: C21H20O12
RETENTIONTIME: 4.482217
IONMODE: Negative
Comment: registered in RIKEN PlaSMA
Num Peaks: 48
63.02024	14
83.01182	16
107.00526	17
107.01576	59
108.0143	14
108.03212	14
121.02969	39
121.97327	14
122.03187	20
125.02209	18
149.02573	10
151.00185	1000
152.00766	101
153.01616	16
159.03879	18
163.00778	11
164.00717	14
174.99924	28
175.0901	12
178.99669	542
179.99854	28
181.00584	13
186.03766	14
186.05594	14
187.03915	20
192.00066	24
193.01315	13
200.16623	13
201.05426	14
203.03101	18
204.03267	10
228.04344	13
229.05074	30
231.03033	14
243.02391	12
247.05133	13
251.01604	16
254.02132	12
255.02304	16
273.02991	72
273.04126	32
283.0177	12
284.0285	17
299.0134	10
300.02271	418
301.03305	824
302.03659	91
303.03885	24

NAME: Kaempferol-3-O-glucoside-6''-p-coumaroyl
PRECURSORMZ: 593.13006444783
PRECURSORTYPE: [M-H]-
INSTRUMENTTYPE: LC-ESI-QTOF
SMILES: OC1C(COC(=O)C=CC2=CC=C(O)C=C2)OC(OC2=C(OC3=CC(O)=CC(O)=C3C2=O)C2=CC=C(O)C=C2)C(O)C1O
INCHIKEY: DVGGLGXQSFURLP-UHFFFAOYNA-N
Ontology: Flavonoid 3-O-p-coumaroyl glycosides
COLLISIONENERGY: 30
FORMULA: C30H26O13
RETENTIONTIME: 5.205966
IONMODE: Negative
Comment: registered in RIKEN PlaSMA
Num Peaks: 26
119.04609	7
145.02634	49
146.03354	11
151.00252	20
163.00284	7
163.03748	26
187.03708	11
227.03801	14
229.0488	17
241.04317	5
255.02927	97
256.03284	51
257.04349	21
258.03882	6
268.03638	6
284.03094	731
285.03851	1000
286.04285	152
287.03864	12
287.05426	11
307.06418	5
307.08383	24
308.08276	13
327.05798	7
447.08649	26
593.12335	25

NAME: Biochanin-7-O-glucoside
PRECURSORMZ: 445.11402044783
PRECURSORTYPE: [M-H]-
INSTRUMENTTYPE: LC-ESI-QTOF
SMILES: COC1=CC=C(C=C1)C1=COC2=CC(OC3OC(CO)C(O)C(O)C3O)=CC(O)=C2C1=O
INCHIKEY: LFEUICHQZGNOHD-UHFFFAOYNA-N
Ontology: Isoflavonoid O-glycosides
COLLISIONENERGY: 30
FORMULA: C22H22O10
RETENTIONTIME: 5.755017
IONMODE: Negative
Comment: registered in RIKEN PlaSMA
Num Peaks: 31
130.27731	9
132.02251	8
189.02394	10
195.08479	14
212.04237	23
215.07933	9
224.04292	9
226.03127	9
226.03998	7
238.061	7
239.02953	7
249.05702	9
252.03333	11
254.05362	8
267.02631	40
267.03769	17
267.06729	10
268.03607	1000
269.03143	45
269.04495	94
270.04492	26
271.05789	17
279.05783	9
282.87289	10
283.06061	739
284.05872	111
284.06897	97
285.06067	29
290.05518	15
295.06512	7
297.08054	6

NAME: Biochanin-7-O-glucoside
PRECURSORMZ: 491.11949975183
PRECURSORTYPE: [M+FA-H]-
INSTRUMENTTYPE: LC-ESI-QTOF
SMILES: COC1=CC=C(C=C1)C1=COC2=CC(OC3OC(CO)C(O)C(O)C3O)=CC(O)=C2C1=O
INCHIKEY: LFEUICHQZGNOHD-UHFFFAOYNA-N
Ontology: Isoflavonoid O-glycosides
COLLISIONENERGY: 30
FORMULA: C22H22O10
RETENTIONTIME: 5.755017
IONMODE: Negative
Comment: registered in RIKEN PlaSMA
Num Peaks: 12
253.04852	5
267.06723	11
268.03586	220
269.03842	23
270.04703	8
283.05966	1000
284.06287	203
285.06497	18
285.0744	6
297.07059	6
305.07785	5
321.07458	5

NAME: Aloe-emodin
PRECURSORMZ: 269.04554694783
PRECURSORTYPE: [M-H]-
INSTRUMENTTYPE: LC-ESI-QTOF
SMILES: OCC1=CC2=C(C(O)=C1)C(=O)C1=C(C=CC=C1O)C2=O
INCHIKEY: YDQWDHRMZQUTBA-UHFFFAOYSA-N
Ontology: Anthraquinones
COLLISIONENERGY: 30
FORMULA: C15H10O5
RETENTIONTIME: 5.8893
IONMODE: Negative
Comment: registered in RIKEN PlaSMA
Num Peaks: 56
63.02151	6
65.00291	30
66.00582	7
79.01921	7
81.03267	9
83.00853	16
83.01254	39
89.00123	7
93.03605	7
105.0327	16
107.01346	201
108.01849	7
117.03307	1000
118.02892	11
118.03857	75
119.04251	7
121.02776	75
122.02839	12
122.03685	6
130.04083	13
131.04965	16
141.03079	13
141.04062	6
149.02267	157
150.02301	7
151.00085	155
152.00461	24
155.04726	16
156.04999	10
156.05988	8
159.04198	61
161.02191	8
168.06049	8
169.06796	29
180.05559	7
181.06476	14
182.03613	10
182.06718	7
183.03461	8
183.04146	32
183.05223	17
185.02122	11
195.043	9
196.04918	6
197.06161	13
199.03667	18
201.05058	12
201.06027	18
225.04796	11
225.05731	6
226.06538	10
227.01997	6
227.03328	45
228.03627	7
269.03754	22
269.04758	7

NAME: Hesperetin
PRECURSORMZ: 301.07176174783
PRECURSORTYPE: [M-H]-
INSTRUMENTTYPE: LC-ESI-QTOF
SMILES: COC1=C(O)C=C(C=C1)C1CC(=O)C2=C(O)C=C(O)C=C2O1
INCHIKEY: AIONOLUJZLIMTK-UHFFFAOYNA-N
Ontology: 4'-O-methylated flavonoids
COLLISIONENERGY: 30
FORMULA: C16H14O6
RETENTIONTIME: 6.167617
IONMODE: Negative
Comment: registered in RIKEN PlaSMA
Num Peaks: 178
65.00183	34
65.64533	6
74.64766	6
80.02272	29
80.02785	62
81.02919	15
81.33309	6
82.03023	7
83.01199	78
84.01218	6
84.07275	5
84.99638	12
85.86755	8
95.98637	9
96.01877	37
96.0304	8
102.13087	9
106.03975	6
107.01282	309
108.02012	767
108.99856	7
109.02102	26
109.02674	10
110.02377	15
115.30294	8
118.03938	6
119.01134	18
119.30554	6
120.01919	8
121.79967	8
121.99378	8
122.00116	6
123.00945	7
124.01196	57
124.01865	13
125.02222	95
127.03451	8
129.03369	16
129.34605	6
130.04004	8
132.02258	6
133.02455	17
133.03136	17
134.03589	475
134.12706	8
135.00903	6
135.04208	133
135.04686	52
136.01427	1000
136.03954	6
137.01866	58
137.02957	8
143.04724	32
143.0584	6
144.05432	7
145.02994	10
146.0405	6
148.01567	6
148.04997	20
149.06017	53
150.03151	7
151.00191	557
152.00618	55
152.01448	15
153.06546	10
154.01028	9
154.02071	6
154.04085	11
155.05197	6
155.21068	9
156.05115	6
157.02777	9
158.03369	164
159.03584	7
160.01448	23
160.05257	5
161.02167	22
162.03343	8
163.01004	8
164.00923	780
164.02667	9
165.00984	24
165.01651	67
166.01265	6
170.02937	7
171.04352	32
171.05412	14
172.05022	57
173.01808	30
173.05627	8
173.06433	6
174.02856	81
174.99423	5
175.02625	8
175.03822	56
175.04585	17
176.0471	64
177.01529	73
177.86394	7
182.03975	7
183.05038	9
184.05495	12
185.05597	21
186.03012	9
186.06877	12
186.30795	5
187.03058	6
187.04124	11
187.07288	13
188.03349	8
188.04558	15
188.05617	8
191.06206	6
197.05464	7
197.06398	8
198.03036	28
199.03314	59
199.04138	86
200.00505	12
200.03773	22
200.04895	50
201.01544	85
201.02402	69
201.04344	14
202.0202	19
202.03642	6
202.54276	5
203.02904	17
203.31538	6
204.35339	6
211.03653	6
213.05418	76
214.06071	73
214.07355	14
215.03413	44
215.045	12
215.06473	7
216.03821	22
217.03743	12
217.0463	8
217.0582	8
218.05869	6
219.06395	6
222.0257	15
223.04085	6
225.05856	9
227.02705	7
227.03397	16
230.0213	5
230.05449	6
232.82883	6
233.08299	11
237.02637	5
239.02379	8
239.03542	6
240.03635	5
240.04552	15
241.05064	97
242.0517	40
242.06151	35
243.0269	22
243.05499	7
244.02654	6
244.03731	6
244.89151	7
251.0253	5
251.03741	7
251.96254	6
257.04135	21
258.05194	6
268.03748	23
269.03476	11
269.04965	9
283.05386	8
285.0376	119
286.02603	11
286.04407	50
301.07675	6

NAME: Quercetin-4'-O-glucoside
PRECURSORMZ: 463.08819964783
PRECURSORTYPE: [M-H]-
INSTRUMENTTYPE: LC-ESI-QTOF
SMILES: OCC1OC(OC2=C(O)C=C(C=C2)C2=C(O)C(=O)C3=C(O)C=C(O)C=C3O2)C(O)C(O)C1O
INCHIKEY: OIUBYZLTFSLSBY-UHFFFAOYNA-N
Ontology: Flavonoid O-glycosides
COLLISIONENERGY: 50
FORMULA: C21H20O12
RETENTIONTIME: 4.482217
IONMODE: Negative
Comment: registered in RIKEN PlaSMA
Num Peaks: 46
63.02422	63
64.9988	26
65.00362	96
83.01142	77
91.00677	24
93.03272	91
96.01654	37
107.01167	439
108.99419	39
109.03008	21
121.02737	281
121.9973	76
122.03081	46
135.00812	24
136.01285	27
146.03073	24
148.01369	36
148.01901	59
149.02396	80
151.00276	1000
151.99414	30
152.00446	68
153.00349	23
158.03036	24
159.04597	27
163.00046	44
163.00995	31
163.03355	23
164.00705	37
164.01375	27
171.03252	21
175.0497	75
178.99979	147
189.01556	29
202.05731	30
226.02994	21
227.02853	63
229.07115	42
230.01448	26
240.03825	21
243.03503	64
255.02792	51
271.0166	21
271.03674	21
299.02258	42
300.0224	39

NAME: Kaempferol-3-O-glucoside-6''-p-coumaroyl
PRECURSORMZ: 593.13006444783
PRECURSORTYPE: [M-H]-
INSTRUMENTTYPE: LC-ESI-QTOF
SMILES: OC1C(COC(=O)C=CC2=CC=C(O)C=C2)OC(OC2=C(OC3=CC(O)=CC(O)=C3C2=O)C2=CC=C(O)C=C2)C(O)C1O
INCHIKEY: DVGGLGXQSFURLP-UHFFFAOYNA-N
Ontology: Flavonoid 3-O-p-coumaroyl glycosides
COLLISIONENERGY: 50
FORMULA: C30H26O13
RETENTIONTIME: 5.205966
IONMODE: Negative
Comment: registered in RIKEN PlaSMA
Num Peaks: 73
63.0218	5
83.01553	6
93.03143	7
107.00886	14
107.01453	12
109.03967	6
117.03198	16
119.0511	11
132.01492	7
135.01065	29
136.01744	7
143.05096	15
145.02773	82
146.0273	15
151.00107	42
151.00752	19
154.04254	8
159.04326	25
160.05159	10
162.99237	7
163.00328	32
163.03886	24
164.00899	21
165.0182	12
169.06696	24
171.04524	12
173.02348	8
173.05629	9
175.00647	6
183.03976	7
183.05096	10
184.04425	9
185.06131	70
186.0309	5
186.06479	7
187.03241	24
187.04227	29
188.0421	19
189.0524	14
195.0451	12
197.06009	27
199.03578	7
200.05284	8
201.05374	9
211.03464	44
211.04735	9
212.04678	16
213.05138	34
214.06996	8
215.02692	8
215.03506	8
223.04483	10
226.77621	6
227.03271	587
228.03905	92
229.04918	126
230.05389	19
230.06088	7
239.03365	40
240.03107	14
240.04192	7
255.02939	1000
256.03421	242
257.03006	14
257.04672	91
258.04282	18
267.03311	20
284.03156	213
285.03485	107
285.04526	82
286.04254	20
325.06952	5
363.78375	5

NAME: Biochanin-7-O-glucoside
PRECURSORMZ: 445.11402044783
PRECURSORTYPE: [M-H]-
INSTRUMENTTYPE: LC-ESI-QTOF
SMILES: COC1=CC=C(C=C1)C1=COC2=CC(OC3OC(CO)C(O)C(O)C3O)=CC(O)=C2C1=O
INCHIKEY: LFEUICHQZGNOHD-UHFFFAOYNA-N
Ontology: Isoflavonoid O-glycosides
COLLISIONENERGY: 50
FORMULA: C22H22O10
RETENTIONTIME: 5.755017
IONMODE: Negative
Comment: registered in RIKEN PlaSMA
Num Peaks: 44
107.01048	38
112.34513	23
117.03327	33
132.02049	213
133.02261	31
135.00958	52
143.04399	22
151.00299	147
166.04364	25
167.04785	59
176.00482	69
176.58534	26
179.04561	26
180.05809	54
183.05008	26
184.05135	39
195.04431	77
196.05051	208
199.03868	26
210.02646	25
211.03761	314
212.03952	37
212.04707	27
222.03923	42
223.04089	53
224.04063	22
224.05211	26
225.0435	58
226.04024	36
227.25833	28
228.03629	26
233.05823	25
239.0202	117
239.036	392
239.41808	37
240.03354	144
240.04723	124
241.04153	23
250.76071	25
267.02841	310
268.03528	1000
269.03592	133
269.04453	135
270.03757	37

NAME: Biochanin-7-O-glucoside
PRECURSORMZ: 491.11949975183
PRECURSORTYPE: [M+FA-H]-
INSTRUMENTTYPE: LC-ESI-QTOF
SMILES: COC1=CC=C(C=C1)C1=COC2=CC(OC3OC(CO)C(O)C(O)C3O)=CC(O)=C2C1=O
INCHIKEY: LFEUICHQZGNOHD-UHFFFAOYNA-N
Ontology: Isoflavonoid O-glycosides
COLLISIONENERGY: 50
FORMULA: C22H22O10
RETENTIONTIME: 5.755017
IONMODE: Negative
Comment: registered in RIKEN PlaSMA
Num Peaks: 49
63.02271	7
132.013	6
132.02164	19
135.00919	16
137.94707	5
151.04976	5
180.05112	19
183.03773	6
184.05122	9
195.03438	10
195.04552	16
195.05518	8
196.04688	8
198.0334	12
199.03333	5
200.03906	5
208.05098	15
211.03528	61
212.04576	30
223.04124	31
223.04785	8
224.04279	20
224.05473	12
226.02614	17
226.037	11
226.0506	6
227.02896	8
239.03441	178
240.04005	100
241.03732	13
241.23831	7
242.04713	8
250.03775	5
251.03233	12
255.06316	6
264.03778	5
267.02939	163
267.99936	9
268.03641	1000
269.04071	182
270.04541	25
280.03406	7
280.04407	13
282.0636	6
283.05905	104
284.05423	10
284.06271	5
285.62808	5
295.05966	8

NAME: Aloe-emodin
PRECURSORMZ: 269.04554694783
PRECURSORTYPE: [M-H]-
INSTRUMENTTYPE: LC-ESI-QTOF
SMILES: OCC1=CC2=C(C(O)=C1)C(=O)C1=C(C=CC=C1O)C2=O
INCHIKEY: YDQWDHRMZQUTBA-UHFFFAOYSA-N
Ontology: Anthraquinones
COLLISIONENERGY: 50
FORMULA: C15H10O5
RETENTIONTIME: 5.8893
IONMODE: Negative
Comment: registered in RIKEN PlaSMA
Num Peaks: 21
64.99902	19
65.0047	24
83.01196	18
89.00226	29
89.03721	24
89.04197	29
107.01084	21
108.01606	15
116.02428	16
116.02933	20
117.03276	1000
118.03589	74
119.04286	26
121.02372	27
129.03421	22
131.05806	21
152.06232	16
155.05066	16
171.91588	25
182.0345	16
202.06491	27

NAME: Hesperetin
PRECURSORMZ: 301.07176174783
PRECURSORTYPE: [M-H]-
INSTRUMENTTYPE: LC-ESI-QTOF
SMILES: COC1=C(O)C=C(C=C1)C1CC(=O)C2=C(O)C=C(O)C=C2O1
INCHIKEY: AIONOLUJZLIMTK-UHFFFAOYNA-N
Ontology: 4'-O-methylated flavonoids
COLLISIONENERGY: 50
FORMULA: C16H14O6
RETENTIONTIME: 6.167617
IONMODE: Negative
Comment: registered in RIKEN PlaSMA
Num Peaks: 63
65.00302	34
77.03943	48
80.02414	284
82.00622	43
83.00988	43
83.01464	43
89.00423	59
102.04424	78
105.03099	35
107.01136	80
107.04631	44
108.02014	1000
109.02327	43
115.05097	44
124.01866	39
129.03348	248
130.03763	80
131.01329	44
132.02042	179
132.25407	32
133.02853	351
134.03473	252
134.0403	76
135.03983	145
135.04518	76
136.01279	41
136.01888	140
136.04907	37
137.01971	43
137.04552	32
139.05061	44
141.03235	35
142.04585	108
143.04849	85
145.03273	34
146.03345	151
150.9996	67
156.05658	94
157.57112	46
158.03545	39
159.03745	57
163.01067	55
164.01343	60
170.04008	35
171.03566	55
171.04356	71
172.04694	55
173.02403	53
174.04068	32
178.04048	35
179.04196	44
182.03769	35
183.04852	39
187.03842	101
196.04759	69
197.02275	67
197.06766	51
211.03825	39
212.04286	41
213.04881	43
229.05186	37
286.03442	71
301.06604	55

NAME: Quercetin-4'-O-glucoside
PRECURSORMZ: 463.08819964783
PRECURSORTYPE: [M-H]-
INSTRUMENTTYPE: LC-ESI-QTOF
SMILES: OCC1OC(OC2=C(O)C=C(C=C2)C2=C(O)C(=O)C3=C(O)C=C(O)C=C3O2)C(O)C(O)C1O
INCHIKEY: OIUBYZLTFSLSBY-UHFFFAOYNA-N
Ontology: Flavonoid O-glycosides
COLLISIONENERGY: 10
FORMULA: C21H20O12
RETENTIONTIME: 4.482217
IONMODE: Negative
Comment: registered in RIKEN PlaSMA
Num Peaks: 43
59.38074	6
64.99975	7
107.0099	19
107.01564	17
108.01704	5
121.02515	14
136.01944	7
149.02029	6
150.99731	65
151.00415	118
152.00742	10
162.99722	17
165.02112	6
172.05692	5
178.99593	91
179.9953	14
186.44862	9
187.0423	8
187.05072	7
204.02579	5
216.04282	6
227.04192	7
229.04794	7
232.0368	6
243.02379	15
257.05008	7
258.05176	9
272.02521	7
283.02567	10
284.02954	5
300.00986	11
300.02579	125
301.03299	1000
301.91876	6
302.03323	109
302.04431	45
303.03564	16
303.05539	14
365.74777	5
366.22235	6
369.48587	10
463.00943	6
463.08487	188

NAME: Kaempferol-3-O-glucoside-6''-p-coumaroyl
PRECURSORMZ: 593.13006444783
PRECURSORTYPE: [M-H]-
INSTRUMENTTYPE: LC-ESI-QTOF
SMILES: OC1C(COC(=O)C=CC2=CC=C(O)C=C2)OC(OC2=C(OC3=CC(O)=CC(O)=C3C2=O)C2=CC=C(O)C=C2)C(O)C1O
INCHIKEY: DVGGLGXQSFURLP-UHFFFAOYNA-N
Ontology: Flavonoid 3-O-p-coumaroyl glycosides
COLLISIONENERGY: 10
FORMULA: C30H26O13
RETENTIONTIME: 5.205966
IONMODE: Negative
Comment: registered in RIKEN PlaSMA
Num Peaks: 22
119.04717	9
145.03082	37
146.03323	6
151.00238	18
162.9984	9
163.04344	9
223.03922	6
227.03052	31
228.03076	9
229.04796	12
255.02762	119
256.03442	37
257.04324	19
258.04819	8
284.03076	426
285.03854	646
286.03992	87
287.04874	13
307.08292	37
447.08841	23
448.09494	10
593.12994	1000

NAME: Biochanin-7-O-glucoside
PRECURSORMZ: 445.11402044783
PRECURSORTYPE: [M-H]-
INSTRUMENTTYPE: LC-ESI-QTOF
SMILES: COC1=CC=C(C=C1)C1=COC2=CC(OC3OC(CO)C(O)C(O)C3O)=CC(O)=C2C1=O
INCHIKEY: LFEUICHQZGNOHD-UHFFFAOYNA-N
Ontology: Isoflavonoid O-glycosides
COLLISIONENERGY: 10
FORMULA: C22H22O10
RETENTIONTIME: 5.755017
IONMODE: Negative
Comment: registered in RIKEN PlaSMA
Num Peaks: 31
132.02147	5
132.02834	6
211.03896	18
226.0244	10
238.05905	5
239.05249	6
240.03532	5
252.03442	7
261.04367	5
264.0426	5
267.02817	21
267.06537	15
267.87051	8
268.03677	230
268.06323	11
269.0387	68
270.04218	12
278.56635	7
281.07468	5
283.0596	1000
284.05933	153
284.07498	36
284.90732	10
285.05426	20
285.07953	12
296.07742	6
305.08414	7
309.08127	6
350.08063	8
368.08655	6
445.09259	6

NAME: Biochanin-7-O-glucoside
PRECURSORMZ: 491.11949975183
PRECURSORTYPE: [M+FA-H]-
INSTRUMENTTYPE: LC-ESI-QTOF
SMILES: COC1=CC=C(C=C1)C1=COC2=CC(OC3OC(CO)C(O)C(O)C3O)=CC(O)=C2C1=O
INCHIKEY: LFEUICHQZGNOHD-UHFFFAOYNA-N
Ontology: Isoflavonoid O-glycosides
COLLISIONENERGY: 10
FORMULA: C22H22O10
RETENTIONTIME: 5.755017
IONMODE: Negative
Comment: registered in RIKEN PlaSMA
Num Peaks: 12
268.03647	172
269.02731	5
269.04153	10
283.05887	1000
284.06198	193
285.05472	6
285.07181	17
305.08179	5
325.07025	16
445.11124	57
446.11047	16
491.11682	59

NAME: Aloe-emodin
PRECURSORMZ: 269.04554694783
PRECURSORTYPE: [M-H]-
INSTRUMENTTYPE: LC-ESI-QTOF
SMILES: OCC1=CC2=C(C(O)=C1)C(=O)C1=C(C=CC=C1O)C2=O
INCHIKEY: YDQWDHRMZQUTBA-UHFFFAOYSA-N
Ontology: Anthraquinones
COLLISIONENERGY: 10
FORMULA: C15H10O5
RETENTIONTIME: 5.8893
IONMODE: Negative
Comment: registered in RIKEN PlaSMA
Num Peaks: 19
83.01456	7
107.0125	44
117.03235	143
118.03487	21
121.0263	17
149.02255	84
151.00212	91
152.00499	8
157.06581	6
159.04242	30
181.06364	12
183.04341	31
197.05934	7
201.05261	12
224.04721	12
225.05214	37
227.03088	18
269.04379	1000
269.09143	5

NAME: Hesperetin
PRECURSORMZ: 301.07176174783
PRECURSORTYPE: [M-H]-
INSTRUMENTTYPE: LC-ESI-QTOF
SMILES: COC1=C(O)C=C(C=C1)C1CC(=O)C2=C(O)C=C(O)C=C2O1
INCHIKEY: AIONOLUJZLIMTK-UHFFFAOYNA-N
Ontology: 4'-O-methylated flavonoids
COLLISIONENERGY: 10
FORMULA: C16H14O6
RETENTIONTIME: 6.167617
IONMODE: Negative
Comment: registered in RIKEN PlaSMA
Num Peaks: 56
80.02669	8
83.01196	13
107.01305	22
108.02069	83
120.0238	5
125.02309	59
126.02164	5
134.03461	52
135.04349	32
136.01486	125
137.0201	6
149.05894	12
151.00154	118
151.01227	7
152.00786	15
158.03471	24
164.00974	272
165.0143	27
173.061	9
174.03125	60
175.03484	13
176.04663	6
185.02179	7
188.05049	9
191.07118	9
197.06041	6
199.03825	55
200.04665	35
201.01804	60
202.02722	19
213.05659	7
214.06047	23
215.0316	27
215.06886	6
216.04123	19
217.05214	10
227.04102	10
233.08026	6
239.06891	7
240.03943	14
240.07747	6
241.04684	33
242.05719	102
243.03099	8
243.06326	6
244.05676	6
257.08011	44
258.05151	23
258.09259	6
259.06137	12
268.03555	11
283.05405	24
285.0387	17
286.04926	115
287.04724	33
301.0701	1000

NAME: Quercetin-4'-O-glucoside
PRECURSORMZ: 463.08819964783
PRECURSORTYPE: [M-H]-
INSTRUMENTTYPE: LC-ESI-QTOF
SMILES: OCC1OC(OC2=C(O)C=C(C=C2)C2=C(O)C(=O)C3=C(O)C=C(O)C=C3O2)C(O)C(O)C1O
INCHIKEY: OIUBYZLTFSLSBY-UHFFFAOYNA-N
Ontology: Flavonoid O-glycosides
COLLISIONENERGY: 10
FORMULA: C21H20O12
RETENTIONTIME: 4.482217
IONMODE: Negative
Comment: registered in RIKEN PlaSMA
Num Peaks: 14
178.99472	6
231.02251	6
231.99063	7
299.00848	6
300.03421	5
300.52914	6
301.03433	1000
301.06564	5
302.03491	176
303.03299	32
303.04831	10
316.7562	5
366.28082	7
463.08774	566

NAME: Kaempferol-3-O-glucoside-6''-p-coumaroyl
PRECURSORMZ: 593.13006444783
PRECURSORTYPE: [M-H]-
INSTRUMENTTYPE: LC-ESI-QTOF
SMILES: OC1C(COC(=O)C=CC2=CC=C(O)C=C2)OC(OC2=C(OC3=CC(O)=CC(O)=C3C2=O)C2=CC=C(O)C=C2)C(O)C1O
INCHIKEY: DVGGLGXQSFURLP-UHFFFAOYNA-N
Ontology: Flavonoid 3-O-p-coumaroyl glycosides
COLLISIONENERGY: 10
FORMULA: C30H26O13
RETENTIONTIME: 5.205966
IONMODE: Negative
Comment: registered in RIKEN PlaSMA
Num Peaks: 3
285.03662	32
286.04584	6
593.12958	1000

NAME: Biochanin-7-O-glucoside
PRECURSORMZ: 445.11402044783
PRECURSORTYPE: [M-H]-
INSTRUMENTTYPE: LC-ESI-QTOF
SMILES: COC1=CC=C(C=C1)C1=COC2=CC(OC3OC(CO)C(O)C(O)C3O)=CC(O)=C2C1=O
INCHIKEY: LFEUICHQZGNOHD-UHFFFAOYNA-N
Ontology: Isoflavonoid O-glycosides
COLLISIONENERGY: 10
FORMULA: C22H22O10
RETENTIONTIME: 5.755017
IONMODE: Negative
Comment: registered in RIKEN PlaSMA
Num Peaks: 10
267.06955	9
283.0596	1000
284.06363	193
285.05798	14
285.07349	13
285.08499	6
325.0593	14
325.06973	43
326.06461	5
445.10657	11

NAME: Biochanin-7-O-glucoside
PRECURSORMZ: 491.11949975183
PRECURSORTYPE: [M+FA-H]-
INSTRUMENTTYPE: LC-ESI-QTOF
SMILES: COC1=CC=C(C=C1)C1=COC2=CC(OC3OC(CO)C(O)C(O)C3O)=CC(O)=C2C1=O
INCHIKEY: LFEUICHQZGNOHD-UHFFFAOYNA-N
Ontology: Isoflavonoid O-glycosides
COLLISIONENERGY: 10
FORMULA: C22H22O10
RETENTIONTIME: 5.755017
IONMODE: Negative
Comment: registered in RIKEN PlaSMA
Num Peaks: 9
283.06021	1000
284.06512	186
285.06943	20
325.07272	20
367.078	6
445.11349	202
446.1199	53
447.11777	9
491.12161	204

NAME: Aloe-emodin
PRECURSORMZ: 269.04554694783
PRECURSORTYPE: [M-H]-
INSTRUMENTTYPE: LC-ESI-QTOF
SMILES: OCC1=CC2=C(C(O)=C1)C(=O)C1=C(C=CC=C1O)C2=O
INCHIKEY: YDQWDHRMZQUTBA-UHFFFAOYSA-N
Ontology: Anthraquinones
COLLISIONENERGY: 10
FORMULA: C15H10O5
RETENTIONTIME: 5.8893
IONMODE: Negative
Comment: registered in RIKEN PlaSMA
Num Peaks: 4
149.02139	11
151.00478	8
225.05632	10
269.04413	1000

NAME: Hesperetin
PRECURSORMZ: 301.07176174783
PRECURSORTYPE: [M-H]-
INSTRUMENTTYPE: LC-ESI-QTOF
SMILES: COC1=C(O)C=C(C=C1)C1CC(=O)C2=C(O)C=C(O)C=C2O1
INCHIKEY: AIONOLUJZLIMTK-UHFFFAOYNA-N
Ontology: 4'-O-methylated flavonoids
COLLISIONENERGY: 10
FORMULA: C16H14O6
RETENTIONTIME: 6.167617
IONMODE: Negative
Comment: registered in RIKEN PlaSMA
Num Peaks: 12
125.02278	19
151.00157	12
164.00813	15
174.02979	10
199.03783	13
242.05637	35
257.08099	25
258.05157	13
283.05847	11
286.04605	65
287.04401	7
301.06964	1000

NAME: Quercetin-4'-O-glucoside
PRECURSORMZ: 463.08819964783
PRECURSORTYPE: [M-H]-
INSTRUMENTTYPE: LC-ESI-QTOF
SMILES: OCC1OC(OC2=C(O)C=C(C=C2)C2=C(O)C(=O)C3=C(O)C=C(O)C=C3O2)C(O)C(O)C1O
INCHIKEY: OIUBYZLTFSLSBY-UHFFFAOYNA-N
Ontology: Flavonoid O-glycosides
COLLISIONENERGY: 30
FORMULA: C21H20O12
RETENTIONTIME: 4.482217
IONMODE: Negative
Comment: registered in RIKEN PlaSMA
Num Peaks: 48
84.99239	12
104.02462	13
107.01392	46
121.03059	164
122.02895	36
124.01341	11
125.01978	10
149.02115	11
149.02876	16
151.00264	957
152.00819	109
157.01042	14
158.74112	10
161.02248	16
163.04303	18
164.00806	22
169.0139	20
171.0379	19
178.99683	455
179.01871	11
179.99908	56
180.99292	13
188.03912	13
190.01927	15
192.03368	13
193.01259	16
194.02226	13
211.039	11
213.05023	13
215.03557	13
227.04062	18
228.03981	14
229.04095	10
231.02518	34
239.02299	13
245.04253	31
255.03226	15
257.04849	21
273.04004	75
274.04639	35
299.01233	11
300.01593	103
300.04004	72
301.03296	1000
302.03647	201
303.03146	11
304.04745	15
313.03522	10

NAME: Kaempferol-3-O-glucoside-6''-p-coumaroyl
PRECURSORMZ: 593.13006444783
PRECURSORTYPE: [M-H]-
INSTRUMENTTYPE: LC-ESI-QTOF
SMILES: OC1C(COC(=O)C=CC2=CC=C(O)C=C2)OC(OC2=C(OC3=CC(O)=CC(O)=C3C2=O)C2=CC=C(O)C=C2)C(O)C1O
INCHIKEY: DVGGLGXQSFURLP-UHFFFAOYNA-N
Ontology: Flavonoid 3-O-p-coumaroyl glycosides
COLLISIONENERGY: 30
FORMULA: C30H26O13
RETENTIONTIME: 5.205966
IONMODE: Negative
Comment: registered in RIKEN PlaSMA
Num Peaks: 31
145.02318	13
145.02966	41
150.99603	8
151.00444	27
161.05945	9
163.00008	7
163.03854	33
187.04346	7
197.05396	9
213.04955	11
227.03873	27
229.05292	12
240.03839	5
241.04494	10
255.02785	88
256.03561	37
256.04453	12
257.0386	18
257.04608	36
259.04974	6
284.03143	683
285.03879	1000
286.0419	144
287.04498	16
288.05096	10
307.08234	27
327.04181	5
327.05539	9
447.09024	30
593.11755	9
593.14081	21

NAME: Biochanin-7-O-glucoside
PRECURSORMZ: 445.11402044783
PRECURSORTYPE: [M-H]-
INSTRUMENTTYPE: LC-ESI-QTOF
SMILES: COC1=CC=C(C=C1)C1=COC2=CC(OC3OC(CO)C(O)C(O)C3O)=CC(O)=C2C1=O
INCHIKEY: LFEUICHQZGNOHD-UHFFFAOYNA-N
Ontology: Isoflavonoid O-glycosides
COLLISIONENERGY: 30
FORMULA: C22H22O10
RETENTIONTIME: 5.755017
IONMODE: Negative
Comment: registered in RIKEN PlaSMA
Num Peaks: 30
125.02467	8
135.00902	8
150.99858	8
213.46706	17
215.06789	7
226.02036	8
226.02751	9
234.06773	8
235.08345	10
239.03407	10
239.07433	9
240.03421	11
240.05925	12
246.07578	10
252.06577	12
253.04211	8
254.06633	7
267.01834	7
267.03116	32
267.06232	13
267.07248	7
268.03546	1000
268.7323	9
269.03964	134
282.04782	17
283.05597	762
284.05029	20
284.06635	185
285.06918	27
421.10733	8

NAME: Biochanin-7-O-glucoside
PRECURSORMZ: 491.11949975183
PRECURSORTYPE: [M+FA-H]-
INSTRUMENTTYPE: LC-ESI-QTOF
SMILES: COC1=CC=C(C=C1)C1=COC2=CC(OC3OC(CO)C(O)C(O)C3O)=CC(O)=C2C1=O
INCHIKEY: LFEUICHQZGNOHD-UHFFFAOYNA-N
Ontology: Isoflavonoid O-glycosides
COLLISIONENERGY: 30
FORMULA: C22H22O10
RETENTIONTIME: 5.755017
IONMODE: Negative
Comment: registered in RIKEN PlaSMA
Num Peaks: 10
267.05786	8
268.03592	179
269.03897	22
270.04315	6
283.05951	1000
284.06195	239
285.05362	10
285.06519	33
296.07306	8
325.06763	7

NAME: Aloe-emodin
PRECURSORMZ: 269.04554694783
PRECURSORTYPE: [M-H]-
INSTRUMENTTYPE: LC-ESI-QTOF
SMILES: OCC1=CC2=C(C(O)=C1)C(=O)C1=C(C=CC=C1O)C2=O
INCHIKEY: YDQWDHRMZQUTBA-UHFFFAOYSA-N
Ontology: Anthraquinones
COLLISIONENERGY: 30
FORMULA: C15H10O5
RETENTIONTIME: 5.8893
IONMODE: Negative
Comment: registered in RIKEN PlaSMA
Num Peaks: 45
63.02156	20
65.00062	25
65.00575	7
79.01694	8
81.03291	18
83.01196	14
93.03268	21
105.02991	13
105.03569	18
107.01112	149
108.01614	6
117.03271	1000
118.03516	76
121.02684	87
148.01279	6
149.02235	148
150.99989	169
152.00375	7
153.00662	7
155.04567	7
155.05142	11
156.05501	8
157.06499	14
158.03265	11
159.04161	66
169.05917	12
179.07751	7
180.0576	20
181.06767	5
183.04141	57
185.02634	13
197.06039	7
199.03561	10
199.04384	9
201.05344	17
209.02394	7
224.05063	12
225.04857	17
225.05756	10
226.05258	9
227.02333	9
227.03847	41
228.0331	8
241.04669	9
269.04172	37

NAME: Hesperetin
PRECURSORMZ: 301.07176174783
PRECURSORTYPE: [M-H]-
INSTRUMENTTYPE: LC-ESI-QTOF
SMILES: COC1=C(O)C=C(C=C1)C1CC(=O)C2=C(O)C=C(O)C=C2O1
INCHIKEY: AIONOLUJZLIMTK-UHFFFAOYNA-N
Ontology: 4'-O-methylated flavonoids
COLLISIONENERGY: 30
FORMULA: C16H14O6
RETENTIONTIME: 6.167617
IONMODE: Negative
Comment: registered in RIKEN PlaSMA
Num Peaks: 197
63.02005	15
65.00337	79
65.00751	28
80.02545	43
83.01202	64
93.03371	8
95.00941	7
95.01534	6
96.01988	16
102.04938	6
105.9523	7
107.0127	354
107.83123	5
108.01908	644
108.99184	6
109.02316	55
109.03421	6
114.25189	7
116.76648	6
117.03053	10
119.01116	16
119.01713	9
120.01688	21
120.02218	11
120.03024	10
121.0271	14
121.03243	10
124.0089	10
124.01766	45
125.02226	68
125.03083	9
127.04758	7
127.18616	6
129.02861	16
129.03683	5
130.04501	10
133.02754	38
133.03287	17
134.03613	475
135.02875	5
135.04388	223
136.01454	957
136.05191	20
136.5941	6
136.76604	10
137.01968	61
137.04776	6
138.01721	16
141.03067	9
142.03363	9
142.03813	18
143.04831	12
145.06714	19
146.03555	6
148.05171	19
149.02596	7
149.0578	34
149.99268	6
151.00252	619
151.95726	6
152.00301	69
152.00879	60
152.01782	19
153.00468	24
153.0162	14
153.83833	7
155.04463	13
156.01895	7
156.05498	15
157.02463	15
157.05933	6
158.036	83
158.34929	6
159.02924	7
159.03941	8
160.01158	25
160.04474	7
161.02045	8
162.02013	6
162.06195	6
163.00214	6
163.01755	8
163.54053	5
164.00986	1000
164.49875	13
165.01622	205
166.0127	6
166.02313	8
167.93039	7
168.05954	7
169.03758	17
169.06477	7
170.03946	7
171.04726	56
172.01479	7
172.05391	60
173.02318	92
173.05379	9
174.03082	146
174.06325	6
175.03703	135
175.16432	8
176.04628	68
176.84341	7
177.0179	84
177.04823	16
179.04868	8
183.03847	18
184.02409	8
184.05217	6
185.01694	15
185.033	11
185.04837	10
185.05786	32
186.07147	6
187.03473	11
187.04324	11
188.04738	51
189.03232	9
190.05562	7
194.72763	10
196.05481	6
197.01392	6
197.05067	14
197.05872	33
198.03	46
198.05888	9
199.03758	234
200.00351	6
200.04272	80
201.01535	120
201.02747	20
201.04179	10
201.0531	27
202.01949	18
202.0282	35
202.23149	6
203.03062	44
203.9451	6
204.03572	8
210.03821	8
211.04163	12
212.04198	5
212.0533	15
213.04182	9
213.05782	75
214.05914	96
214.07321	10
215.03296	58
215.0433	14
215.071	9
216.03673	56
216.05098	7
217.04185	32
217.05656	9
217.57495	9
218.04288	6
218.05408	18
218.06046	8
223.03732	17
223.047	8
224.04587	8
225.0154	14
226.02434	6
226.05797	7
227.02969	57
228.03387	22
231.0108	7
239.03319	9
240.03749	39
240.05649	8
241.03461	12
241.04865	77
241.06316	19
242.05363	67
242.06403	25
243.01311	9
243.02928	6
243.05267	36
244.0322	5
251.02594	6
257.04224	18
258.05359	7
258.06335	6
259.06607	8
268.03574	39
268.06345	6
269.05212	5
283.01132	7
283.58356	9
285.04044	142
286.01031	7
286.03461	17
286.0592	19
301.06854	39
301.07922	11
301.09695	9

NAME: Quercetin-4'-O-glucoside
PRECURSORMZ: 463.08819964783
PRECURSORTYPE: [M-H]-
INSTRUMENTTYPE: LC-ESI-QTOF
SMILES: OCC1OC(OC2=C(O)C=C(C=C2)C2=C(O)C(=O)C3=C(O)C=C(O)C=C3O2)C(O)C(O)C1O
INCHIKEY: OIUBYZLTFSLSBY-UHFFFAOYNA-N
Ontology: Flavonoid O-glycosides
COLLISIONENERGY: 50
FORMULA: C21H20O12
RETENTIONTIME: 4.482217
IONMODE: Negative
Comment: registered in RIKEN PlaSMA
Num Peaks: 46
63.01881	35
63.02549	85
65.00658	33
65.0124	23
83.01118	23
83.01991	46
93.03198	24
93.0397	27
107.0121	419
120.01206	35
120.01854	27
121.02493	67
121.02949	185
125.01347	30
125.02322	24
132.02426	30
135.00224	27
135.01251	31
143.05309	23
149.01688	31
149.02441	51
149.05455	38
151.00214	1000
152.0009	29
152.01082	23
155.05298	58
158.03606	52
162.99927	23
163.00851	55
175.03285	111
178.99483	24
179.99928	25
183.04311	23
187.04082	21
192.00301	65
193.01439	39
194.02255	42
200.03946	35
202.8799	40
214.01855	31
227.03296	32
243.03479	74
244.02412	24
255.03534	29
271.01498	48
271.02972	38

NAME: Kaempferol-3-O-glucoside-6''-p-coumaroyl
PRECURSORMZ: 593.13006444783
PRECURSORTYPE: [M-H]-
INSTRUMENTTYPE: LC-ESI-QTOF
SMILES: OC1C(COC(=O)C=CC2=CC=C(O)C=C2)OC(OC2=C(OC3=CC(O)=CC(O)=C3C2=O)C2=CC=C(O)C=C2)C(O)C1O
INCHIKEY: DVGGLGXQSFURLP-UHFFFAOYNA-N
Ontology: Flavonoid 3-O-p-coumaroyl glycosides
COLLISIONENERGY: 50
FORMULA: C30H26O13
RETENTIONTIME: 5.205966
IONMODE: Negative
Comment: registered in RIKEN PlaSMA
Num Peaks: 73
91.01385	7
93.03205	10
97.854	8
107.01437	24
108.01797	6
117.03689	8
119.04279	5
119.05363	14
132.02757	6
135.00381	14
135.01283	16
143.04936	15
145.02763	109
145.07005	7
146.02953	14
149.02307	8
151.00154	44
151.49753	7
154.04953	8
155.04924	15
157.06143	24
157.07024	6
158.99426	5
159.03946	15
163.00191	24
163.03343	7
163.04469	6
164.00847	8
166.01591	9
167.05304	6
169.06073	15
169.06989	13
171.04327	21
182.04393	11
183.04494	42
184.05116	10
185.05664	21
187.03963	82
188.0432	6
188.05199	6
189.05424	41
195.04224	8
195.05029	7
197.06059	6
199.04417	6
211.04088	74
212.04312	8
212.04926	21
213.01025	6
214.02779	15
215.03566	5
223.04807	7
224.04411	9
227.03419	499
228.03871	71
229.04901	153
230.05504	9
239.03339	10
240.03093	10
240.03941	14
241.0549	11
246.61366	8
255.02853	1000
256.03235	195
257.04303	69
257.05783	5
267.02661	10
267.0372	10
284.03073	255
285.03415	92
285.04553	40
286.04504	31
287.0473	18

NAME: Biochanin-7-O-glucoside
PRECURSORMZ: 445.11402044783
PRECURSORTYPE: [M-H]-
INSTRUMENTTYPE: LC-ESI-QTOF
SMILES: COC1=CC=C(C=C1)C1=COC2=CC(OC3OC(CO)C(O)C(O)C3O)=CC(O)=C2C1=O
INCHIKEY: LFEUICHQZGNOHD-UHFFFAOYNA-N
Ontology: Isoflavonoid O-glycosides
COLLISIONENERGY: 50
FORMULA: C22H22O10
RETENTIONTIME: 5.755017
IONMODE: Negative
Comment: registered in RIKEN PlaSMA
Num Peaks: 46
104.02103	51
132.01932	235
133.02739	106
135.00143	32
135.00697	59
148.07605	52
149.99573	39
155.04636	42
156.06015	30
167.04697	46
168.04666	64
184.04684	118
189.0132	37
195.03876	34
195.04944	76
196.05072	30
200.05753	35
203.00031	41
207.03842	39
211.03755	220
212.03615	57
212.04768	106
213.04939	128
222.03978	42
223.03851	176
224.02379	74
224.0472	115
225.01028	37
226.02713	41
227.02426	32
228.03123	32
236.05592	34
239.02397	181
239.03555	508
240.02153	98
240.03929	216
241.04207	32
241.04933	57
242.03513	32
242.05499	49
262.93253	35
267.02609	1000
268.03384	936
268.04556	444
269.03867	140
270.05157	46

NAME: Aloe-emodin
PRECURSORMZ: 269.04554694783
PRECURSORTYPE: [M-H]-
INSTRUMENTTYPE: LC-ESI-QTOF
SMILES: OCC1=CC2=C(C(O)=C1)C(=O)C1=C(C=CC=C1O)C2=O
INCHIKEY: YDQWDHRMZQUTBA-UHFFFAOYSA-N
Ontology: Anthraquinones
COLLISIONENERGY: 50
FORMULA: C15H10O5
RETENTIONTIME: 5.8893
IONMODE: Negative
Comment: registered in RIKEN PlaSMA
Num Peaks: 10
89.04153	24
90.03954	15
116.0224	18
117.03304	1000
118.03599	81
129.02776	18
141.0256	21
158.036	34
195.04552	17
200.00464	16

NAME: Hesperetin
PRECURSORMZ: 301.07176174783
PRECURSORTYPE: [M-H]-
INSTRUMENTTYPE: LC-ESI-QTOF
SMILES: COC1=C(O)C=C(C=C1)C1CC(=O)C2=C(O)C=C(O)C=C2O1
INCHIKEY: AIONOLUJZLIMTK-UHFFFAOYNA-N
Ontology: 4'-O-methylated flavonoids
COLLISIONENERGY: 50
FORMULA: C16H14O6
RETENTIONTIME: 6.167617
IONMODE: Negative
Comment: registered in RIKEN PlaSMA
Num Peaks: 53
66.00746	36
80.01967	62
80.02604	189
83.00842	80
83.01466	131
93.03026	32
93.03468	96
96.01492	48
107.00645	88
107.01539	301
108.0104	66
108.02029	1000
109.01818	42
109.02544	129
115.04768	42
119.0155	40
119.05116	40
124.01296	42
129.03468	38
130.04123	46
132.02119	44
133.02585	420
134.03635	528
134.29756	36
135.03728	267
135.04393	382
136.0162	147
136.04753	110
143.04982	44
144.04817	66
145.02347	44
151.00343	211
153.02843	94
158.03215	40
161.04501	60
170.03369	46
170.04552	52
171.0463	48
173.02513	62
174.02368	82
175.04007	62
176.03993	42
181.03532	92
183.03821	125
185.05771	46
188.05061	36
197.06174	36
198.02118	40
198.03677	76
200.04465	42
201.01422	44
215.01886	44
227.03212	40

NAME: Quercetin-4'-O-glucoside
PRECURSORMZ: 463.08819964783
PRECURSORTYPE: [M-H]-
INSTRUMENTTYPE: LC-ESI-QTOF
SMILES: OCC1OC(OC2=C(O)C=C(C=C2)C2=C(O)C(=O)C3=C(O)C=C(O)C=C3O2)C(O)C(O)C1O
INCHIKEY: OIUBYZLTFSLSBY-UHFFFAOYNA-N
Ontology: Flavonoid O-glycosides
COLLISIONENERGY: 10
FORMULA: C21H20O12
RETENTIONTIME: 4.482217
IONMODE: Negative
Comment: registered in RIKEN PlaSMA
Num Peaks: 37
83.00946	7
107.00503	13
107.01122	8
108.0195	11
109.03286	10
119.04797	8
121.02617	8
121.0336	9
125.01779	7
136.00723	10
151.00249	232
152.00404	18
158.69054	9
163.00853	8
164.00935	13
170.0367	8
171.045	8
178.99135	21
178.9998	37
191.99637	10
192.00829	14
193.01326	8
203.03159	10
214.79283	12
224.72542	7
229.0507	16
245.04163	8
257.04382	8
294.83829	7
300.0264	124
301.03314	1000
302.02441	39
302.03864	158
303.04099	27
303.06046	10
343.04681	18
463.08759	287

NAME: Kaempferol-3-O-glucoside-6''-p-coumaroyl
PRECURSORMZ: 593.13006444783
PRECURSORTYPE: [M-H]-
INSTRUMENTTYPE: LC-ESI-QTOF
SMILES: OC1C(COC(=O)C=CC2=CC=C(O)C=C2)OC(OC2=C(OC3=CC(O)=CC(O)=C3C2=O)C2=CC=C(O)C=C2)C(O)C1O
INCHIKEY: DVGGLGXQSFURLP-UHFFFAOYNA-N
Ontology: Flavonoid 3-O-p-coumaroyl glycosides
COLLISIONENERGY: 10
FORMULA: C30H26O13
RETENTIONTIME: 5.205966
IONMODE: Negative
Comment: registered in RIKEN PlaSMA
Num Peaks: 25
145.02971	41
151.0004	18
163.00078	8
163.03801	6
189.05428	7
211.04013	10
212.05028	7
217.05159	5
223.04248	8
227.0331	45
229.05046	15
255.02771	115
256.03638	41
257.04379	47
258.05338	5
267.03693	8
284.03214	433
285.03979	631
286.02139	5
286.04263	110
287.04297	10
307.08456	24
447.08545	32
447.10681	9
593.13153	1000

NAME: Biochanin-7-O-glucoside
PRECURSORMZ: 445.11402044783
PRECURSORTYPE: [M-H]-
INSTRUMENTTYPE: LC-ESI-QTOF
SMILES: COC1=CC=C(C=C1)C1=COC2=CC(OC3OC(CO)C(O)C(O)C3O)=CC(O)=C2C1=O
INCHIKEY: LFEUICHQZGNOHD-UHFFFAOYNA-N
Ontology: Isoflavonoid O-glycosides
COLLISIONENERGY: 10
FORMULA: C22H22O10
RETENTIONTIME: 5.755017
IONMODE: Negative
Comment: registered in RIKEN PlaSMA
Num Peaks: 35
132.01895	9
174.60571	6
180.06024	10
183.07684	6
207.02142	6
210.0676	5
212.03778	5
219.03204	7
226.02147	7
239.0154	6
239.02739	5
240.03435	16
246.46965	11
255.06145	7
264.03781	6
267.02097	11
267.03574	26
267.05545	9
267.06766	7
268.034	244
268.06552	6
269.02921	15
269.04431	35
282.05765	10
283.05942	1000
284.06265	197
285.0639	18
286.06238	7
297.07294	7
305.07892	13
306.08328	13
307.06027	5
325.06815	8
363.70917	7
399.09674	6

NAME: Aloe-emodin
PRECURSORMZ: 269.04554694783
PRECURSORTYPE: [M-H]-
INSTRUMENTTYPE: LC-ESI-QTOF
SMILES: OCC1=CC2=C(C(O)=C1)C(=O)C1=C(C=CC=C1O)C2=O
INCHIKEY: YDQWDHRMZQUTBA-UHFFFAOYSA-N
Ontology: Anthraquinones
COLLISIONENERGY: 10
FORMULA: C15H10O5
RETENTIONTIME: 5.8893
IONMODE: Negative
Comment: registered in RIKEN PlaSMA
Num Peaks: 23
65.00145	6
107.01218	31
117.03324	185
118.03693	16
121.02962	9
141.0313	7
149.02249	64
150.02367	6
151.00215	86
152.00632	6
159.04427	23
169.0676	6
180.05707	8
181.06226	13
181.0705	5
183.04214	11
185.02142	7
197.05881	5
201.04984	8
225.05357	30
227.02574	5
227.03838	7
269.04346	1000

NAME: Hesperetin
PRECURSORMZ: 301.07176174783
PRECURSORTYPE: [M-H]-
INSTRUMENTTYPE: LC-ESI-QTOF
SMILES: COC1=C(O)C=C(C=C1)C1CC(=O)C2=C(O)C=C(O)C=C2O1
INCHIKEY: AIONOLUJZLIMTK-UHFFFAOYNA-N
Ontology: 4'-O-methylated flavonoids
COLLISIONENERGY: 10
FORMULA: C16H14O6
RETENTIONTIME: 6.167617
IONMODE: Negative
Comment: registered in RIKEN PlaSMA
Num Peaks: 70
80.02541	10
83.01247	5
107.01311	16
108.01942	66
124.00935	5
125.02054	31
125.02614	40
126.0266	10
130.04184	7
134.03584	108
135.03644	6
135.0437	12
136.01518	127
137.01765	14
149.05984	11
151.00168	158
152.00839	24
158.03154	9
158.03845	20
159.0397	5
160.01576	7
160.02466	5
161.01624	5
164.00903	321
165.01352	21
171.03748	7
172.05411	12
173.06032	11
174.02898	56
175.03651	11
187.04282	14
188.04604	11
199.03984	80
200.04404	34
201.01996	71
201.04666	7
202.01822	11
202.02806	8
203.0322	6
213.05791	7
214.06363	21
215.03642	43
215.07219	13
216.04033	31
217.05119	31
224.04539	8
225.05217	10
227.0338	20
233.0809	7
240.03691	14
240.04875	9
241.04643	24
242.05769	123
243.05879	12
257.04602	9
257.07092	24
257.08313	32
258.05316	32
259.05353	6
268.02841	7
268.03772	6
269.03915	5
283.0611	30
284.0665	8
285.03207	12
285.04684	11
286.04822	140
287.04865	23
299.05023	6
301.06927	1000

NAME: Quercetin-4'-O-glucoside
PRECURSORMZ: 463.08819964783
PRECURSORTYPE: [M-H]-
INSTRUMENTTYPE: LC-ESI-QTOF
SMILES: OCC1OC(OC2=C(O)C=C(C=C2)C2=C(O)C(=O)C3=C(O)C=C(O)C=C3O2)C(O)C(O)C1O
INCHIKEY: OIUBYZLTFSLSBY-UHFFFAOYNA-N
Ontology: Flavonoid O-glycosides
COLLISIONENERGY: 10
FORMULA: C21H20O12
RETENTIONTIME: 4.482217
IONMODE: Negative
Comment: registered in RIKEN PlaSMA
Num Peaks: 14
178.99956	7
277.15591	8
300.02829	18
300.04025	6
301.0354	1000
301.12241	6
301.19803	5
302.03506	122
302.05417	12
303.0282	6
346.01108	6
380.83087	8
462.07861	6
463.08844	779

NAME: Kaempferol-3-O-glucoside-6''-p-coumaroyl
PRECURSORMZ: 593.13006444783
PRECURSORTYPE: [M-H]-
INSTRUMENTTYPE: LC-ESI-QTOF
SMILES: OC1C(COC(=O)C=CC2=CC=C(O)C=C2)OC(OC2=C(OC3=CC(O)=CC(O)=C3C2=O)C2=CC=C(O)C=C2)C(O)C1O
INCHIKEY: DVGGLGXQSFURLP-UHFFFAOYNA-N
Ontology: Flavonoid 3-O-p-coumaroyl glycosides
COLLISIONENERGY: 10
FORMULA: C30H26O13
RETENTIONTIME: 5.205966
IONMODE: Negative
Comment: registered in RIKEN PlaSMA
Num Peaks: 5
284.03079	6
285.03763	36
286.04221	8
307.08127	6
593.13129	1000

NAME: Biochanin-7-O-glucoside
PRECURSORMZ: 445.11402044783
PRECURSORTYPE: [M-H]-
INSTRUMENTTYPE: LC-ESI-QTOF
SMILES: COC1=CC=C(C=C1)C1=COC2=CC(OC3OC(CO)C(O)C(O)C3O)=CC(O)=C2C1=O
INCHIKEY: LFEUICHQZGNOHD-UHFFFAOYNA-N
Ontology: Isoflavonoid O-glycosides
COLLISIONENERGY: 10
FORMULA: C22H22O10
RETENTIONTIME: 5.755017
IONMODE: Negative
Comment: registered in RIKEN PlaSMA
Num Peaks: 12
155.60471	6
217.22646	5
220.79854	5
267.06393	11
283.06024	1000
284.06232	194
284.07275	50
285.07498	13
305.08572	6
325.07355	17
349.05887	9
445.12561	5

NAME: Biochanin-7-O-glucoside
PRECURSORMZ: 491.11949975183
PRECURSORTYPE: [M+FA-H]-
INSTRUMENTTYPE: LC-ESI-QTOF
SMILES: COC1=CC=C(C=C1)C1=COC2=CC(OC3OC(CO)C(O)C(O)C3O)=CC(O)=C2C1=O
INCHIKEY: LFEUICHQZGNOHD-UHFFFAOYNA-N
Ontology: Isoflavonoid O-glycosides
COLLISIONENERGY: 10
FORMULA: C22H22O10
RETENTIONTIME: 5.755017
IONMODE: Negative
Comment: registered in RIKEN PlaSMA
Num Peaks: 10
207.04729	6
283.0596	1000
284.06268	198
285.06699	20
325.06857	10
329.05392	5
445.11356	187
446.11581	48
447.11493	10
491.11844	232

NAME: Aloe-emodin
PRECURSORMZ: 269.04554694783
PRECURSORTYPE: [M-H]-
INSTRUMENTTYPE: LC-ESI-QTOF
SMILES: OCC1=CC2=C(C(O)=C1)C(=O)C1=C(C=CC=C1O)C2=O
INCHIKEY: YDQWDHRMZQUTBA-UHFFFAOYSA-N
Ontology: Anthraquinones
COLLISIONENERGY: 10
FORMULA: C15H10O5
RETENTIONTIME: 5.8893
IONMODE: Negative
Comment: registered in RIKEN PlaSMA
Num Peaks: 3
151.00171	10
225.05313	8
269.04352	1000

NAME: Hesperetin
PRECURSORMZ: 301.07176174783
PRECURSORTYPE: [M-H]-
INSTRUMENTTYPE: LC-ESI-QTOF
SMILES: COC1=C(O)C=C(C=C1)C1CC(=O)C2=C(O)C=C(O)C=C2O1
INCHIKEY: AIONOLUJZLIMTK-UHFFFAOYNA-N
Ontology: 4'-O-methylated flavonoids
COLLISIONENERGY: 10
FORMULA: C16H14O6
RETENTIONTIME: 6.167617
IONMODE: Negative
Comment: registered in RIKEN PlaSMA
Num Peaks: 15
125.02254	20
151.00073	14
164.00949	20
174.03279	6
199.03763	13
201.01651	10
242.05731	41
257.08026	29
258.05225	10
258.05933	5
283.05911	14
286.04642	71
287.04727	7
287.05692	5
301.07037	1000

NAME: Quercetin-4'-O-glucoside
PRECURSORMZ: 463.08819964783
PRECURSORTYPE: [M-H]-
INSTRUMENTTYPE: LC-ESI-QTOF
SMILES: OCC1OC(OC2=C(O)C=C(C=C2)C2=C(O)C(=O)C3=C(O)C=C(O)C=C3O2)C(O)C(O)C1O
INCHIKEY: OIUBYZLTFSLSBY-UHFFFAOYNA-N
Ontology: Flavonoid O-glycosides
COLLISIONENERGY: 30
FORMULA: C21H20O12
RETENTIONTIME: 4.482217
IONMODE: Negative
Comment: registered in RIKEN PlaSMA
Num Peaks: 42
107.00912	29
107.02063	12
108.01684	11
121.02898	89
124.01044	12
125.02572	13
149.02402	13
151.0024	1000
151.0174	17
152.00406	75
153.00246	11
162.99765	11
175.03966	15
178.58311	12
178.9986	400
179.99763	43
180.00871	17
180.80077	11
189.06271	16
192.00574	35
205.04666	13
212.03481	15
215.0298	17
227.03517	12
229.04218	14
229.04845	24
230.04985	12
230.06187	24
231.05884	12
233.03653	11
245.04376	32
255.02498	18
256.02988	11
271.02533	25
272.31339	13
273.03729	105
274.05084	13
299.01764	36
300.02188	379
301.03299	867
302.03967	163
302.06189	12

NAME: Kaempferol-3-O-glucoside-6''-p-coumaroyl
PRECURSORMZ: 593.13006444783
PRECURSORTYPE: [M-H]-
INSTRUMENTTYPE: LC-ESI-QTOF
SMILES: OC1C(COC(=O)C=CC2=CC=C(O)C=C2)OC(OC2=C(OC3=CC(O)=CC(O)=C3C2=O)C2=CC=C(O)C=C2)C(O)C1O
INCHIKEY: DVGGLGXQSFURLP-UHFFFAOYNA-N
Ontology: Flavonoid 3-O-p-coumaroyl glycosides
COLLISIONENERGY: 30
FORMULA: C30H26O13
RETENTIONTIME: 5.205966
IONMODE: Negative
Comment: registered in RIKEN PlaSMA
Num Peaks: 27
125.0237	6
145.02841	67
146.02724	11
151.0002	20
151.00716	19
163.0392	32
164.00533	6
175.07199	6
187.04253	6
227.0255	8
227.03656	23
229.04817	28
239.03546	8
241.0515	10
255.02878	99
256.03156	41
257.04221	43
283.01834	10
284.03137	749
285.03857	1000
286.04269	213
287.04041	24
287.05286	8
307.08038	27
307.09354	7
447.09192	16
593.12964	31

NAME: Biochanin-7-O-glucoside
PRECURSORMZ: 445.11402044783
PRECURSORTYPE: [M-H]-
INSTRUMENTTYPE: LC-ESI-QTOF
SMILES: COC1=CC=C(C=C1)C1=COC2=CC(OC3OC(CO)C(O)C(O)C3O)=CC(O)=C2C1=O
INCHIKEY: LFEUICHQZGNOHD-UHFFFAOYNA-N
Ontology: Isoflavonoid O-glycosides
COLLISIONENERGY: 30
FORMULA: C22H22O10
RETENTIONTIME: 5.755017
IONMODE: Negative
Comment: registered in RIKEN PlaSMA
Num Peaks: 36
149.024	14
154.04669	14
165.0145	9
176.04099	19
195.07014	9
215.06429	9
224.05235	24
239.02008	12
239.03311	25
239.04094	12
239.07773	9
240.05023	8
252.02368	17
252.04506	19
253.04871	18
254.05779	13
267.02017	11
267.03217	15
267.06097	21
267.0704	12
267.77707	8
268.03693	981
268.06195	17
268.55164	18
269.04123	149
281.05173	12
282.05002	9
283.06073	1000
284.06802	90
284.07727	30
285.06464	11
296.06323	13
306.0386	13
307.07236	11
335.06793	12
373.08209	12

NAME: Aloe-emodin
PRECURSORMZ: 269.04554694783
PRECURSORTYPE: [M-H]-
INSTRUMENTTYPE: LC-ESI-QTOF
SMILES: OCC1=CC2=C(C(O)=C1)C(=O)C1=C(C=CC=C1O)C2=O
INCHIKEY: YDQWDHRMZQUTBA-UHFFFAOYSA-N
Ontology: Anthraquinones
COLLISIONENERGY: 30
FORMULA: C15H10O5
RETENTIONTIME: 5.8893
IONMODE: Negative
Comment: registered in RIKEN PlaSMA
Num Peaks: 50
63.0214	7
64.9993	28
65.0572	5
77.03857	6
78.49508	5
81.0352	7
82.03549	6
83.01265	37
84.01385	7
105.03254	29
107.01279	184
108.01906	19
117.03319	1000
118.03699	74
118.04498	10
119.04465	9
121.02523	36
121.03069	89
122.03186	6
126.03077	7
129.03419	11
135.04137	8
141.03526	14
149.02232	153
150.02104	7
151.00294	121
152.00299	10
155.04753	10
158.04074	7
159.04288	54
160.04202	10
168.05972	14
169.0629	5
180.0517	8
181.06268	13
181.07028	9
183.03296	15
183.04521	32
186.03146	12
196.05087	11
197.0258	8
197.06409	10
198.03267	6
201.0563	37
209.01331	5
224.04254	6
225.05617	9
226.03043	6
227.03896	33
269.04611	26

NAME: Hesperetin
PRECURSORMZ: 301.07176174783
PRECURSORTYPE: [M-H]-
INSTRUMENTTYPE: LC-ESI-QTOF
SMILES: COC1=C(O)C=C(C=C1)C1CC(=O)C2=C(O)C=C(O)C=C2O1
INCHIKEY: AIONOLUJZLIMTK-UHFFFAOYNA-N
Ontology: 4'-O-methylated flavonoids
COLLISIONENERGY: 30
FORMULA: C16H14O6
RETENTIONTIME: 6.167617
IONMODE: Negative
Comment: registered in RIKEN PlaSMA
Num Peaks: 170
63.01948	8
65.00174	59
66.0058	9
80.02553	15
80.03146	20
83.01234	115
84.01505	8
90.04206	9
93.03305	8
93.99993	10
94.00631	9
96.01879	17
96.02448	7
97.02061	7
105.10536	8
107.01328	413
108.01995	577
108.43251	7
109.02222	55
109.02876	44
117.03458	10
119.01207	17
120.01946	23
122.0009	7
124.01399	42
125.02381	43
129.02988	21
129.0367	26
131.03992	10
131.56613	8
132.02089	18
132.02707	7
133.02545	28
134.03508	447
135.01143	9
135.04306	236
136.0014	18
136.01488	1000
136.04163	8
137.00835	13
137.0173	53
137.02388	59
138.00746	8
140.62151	6
140.88251	7
143.04652	37
144.04474	8
144.05714	6
145.02505	7
146.03564	7
149.02524	15
149.05891	13
149.99055	7
149.99873	9
150.06003	9
151.00159	634
151.04059	8
152.00589	94
153.01016	17
154.03604	8
155.0497	7
155.42976	6
157.02757	7
158.03445	185
160.00871	6
160.01659	17
161.02844	6
161.52338	7
162.02339	7
162.03615	10
163.58199	8
164.01073	808
165.00079	12
165.00951	30
165.01689	52
165.02722	6
166.02858	6
167.01797	6
169.06709	8
170.03098	7
171.03033	6
171.04582	46
172.04932	71
173.02408	45
173.04936	7
173.06024	7
174.02782	95
174.04289	11
174.06277	7
175.03633	65
176.03795	14
176.04704	60
177.02019	50
179.01982	7
179.60202	10
182.03424	18
183.04553	37
184.01617	7
184.022	13
185.02455	21
185.05368	73
185.06808	11
186.06609	37
187.03238	14
187.04338	9
188.04593	18
192.7446	10
196.05278	17
197.05344	8
198.02505	31
198.06607	7
198.78969	6
199.04161	176
200.04416	111
201.0132	68
201.02979	23
201.04953	8
202.01332	7
202.02672	25
203.02376	13
203.03502	25
204.74728	6
210.99925	7
211.03624	16
212.039	13
212.05367	6
213.05688	60
214.05548	40
214.06279	67
214.07471	7
215.02988	128
215.04222	24
215.06061	28
216.04628	17
217.03639	6
218.04614	7
223.03189	6
224.05215	21
226.01813	7
226.05257	7
227.0269	14
227.04388	16
228.03018	10
229.04213	7
230.02377	9
230.05104	11
233.08104	6
239.03169	13
240.04169	64
241.04655	57
242.04668	58
242.0649	15
243.0242	31
243.04137	6
243.06454	11
244.03333	8
252.04048	6
257.04141	10
257.05447	11
258.04376	7
267.01947	6
268.02557	8
268.03745	7
269.04437	7
271.02548	21
285.04105	146
286.03387	9
286.04901	20
292.54495	10
299.77557	11

NAME: Quercetin-4'-O-glucoside
PRECURSORMZ: 463.08819964783
PRECURSORTYPE: [M-H]-
INSTRUMENTTYPE: LC-ESI-QTOF
SMILES: OCC1OC(OC2=C(O)C=C(C=C2)C2=C(O)C(=O)C3=C(O)C=C(O)C=C3O2)C(O)C(O)C1O
INCHIKEY: OIUBYZLTFSLSBY-UHFFFAOYNA-N
Ontology: Flavonoid O-glycosides
COLLISIONENERGY: 50
FORMULA: C21H20O12
RETENTIONTIME: 4.482217
IONMODE: Negative
Comment: registered in RIKEN PlaSMA
Num Peaks: 46
65.0004	79
83.01257	139
93.03703	127
107.01498	491
108.01977	46
109.02806	52
120.02351	34
121.02394	90
121.0304	386
123.77386	31
124.01469	34
136.01807	69
143.03993	41
148.01083	40
148.0208	50
149.01715	34
149.02718	34
151.00285	1000
151.24107	33
151.36627	31
152.00385	207
152.01202	76
153.00522	31
154.02988	34
155.04616	57
158.03688	40
162.03137	46
163.0004	176
164.0108	77
165.0128	38
171.13699	36
172.043	33
175.04355	34
179.00121	53
183.04404	107
200.04932	38
201.05983	41
215.03909	36
216.03952	45
226.02756	77
227.02658	34
227.03418	36
229.04488	57
243.03175	34
256.03757	36
269.00681	36

NAME: Kaempferol-3-O-glucoside-6''-p-coumaroyl
PRECURSORMZ: 593.13006444783
PRECURSORTYPE: [M-H]-
INSTRUMENTTYPE: LC-ESI-QTOF
SMILES: OC1C(COC(=O)C=CC2=CC=C(O)C=C2)OC(OC2=C(OC3=CC(O)=CC(O)=C3C2=O)C2=CC=C(O)C=C2)C(O)C1O
INCHIKEY: DVGGLGXQSFURLP-UHFFFAOYNA-N
Ontology: Flavonoid 3-O-p-coumaroyl glycosides
COLLISIONENERGY: 50
FORMULA: C30H26O13
RETENTIONTIME: 5.205966
IONMODE: Negative
Comment: registered in RIKEN PlaSMA
Num Peaks: 70
91.01636	15
107.01196	18
109.03142	6
117.02766	7
119.04737	29
120.01637	8
122.70726	5
132.01799	6
135.00487	13
135.01108	19
143.04454	13
145.0269	72
147.03374	5
148.04285	5
151.00221	62
157.06587	18
158.03552	6
159.04268	5
162.99794	32
163.00652	13
167.04883	7
169.06905	9
169.11081	8
171.04483	11
173.02826	6
184.04816	7
185.05772	21
186.05838	12
187.03241	32
187.0417	54
188.04005	6
189.05228	18
195.04094	11
195.05386	8
196.03703	7
196.05238	7
198.03282	7
198.05742	7
199.03337	20
201.05197	28
209.00629	7
211.03876	31
212.04903	12
213.05325	27
214.02269	14
227.03323	498
228.03862	112
228.0593	6
229.04768	125
230.05223	19
238.02811	5
239.02138	11
239.03708	41
241.05376	16
242.05386	7
255.02812	1000
256.03458	181
257.03281	28
257.04739	41
257.13705	6
258.04285	6
258.05682	7
281.03091	6
283.02921	6
284.03085	195
285.0394	141
286.0322	21
286.04532	15
305.28955	5
308.45627	6

NAME: Biochanin-7-O-glucoside
PRECURSORMZ: 445.11402044783
PRECURSORTYPE: [M-H]-
INSTRUMENTTYPE: LC-ESI-QTOF
SMILES: COC1=CC=C(C=C1)C1=COC2=CC(OC3OC(CO)C(O)C(O)C3O)=CC(O)=C2C1=O
INCHIKEY: LFEUICHQZGNOHD-UHFFFAOYNA-N
Ontology: Isoflavonoid O-glycosides
COLLISIONENERGY: 50
FORMULA: C22H22O10
RETENTIONTIME: 5.755017
IONMODE: Negative
Comment: registered in RIKEN PlaSMA
Num Peaks: 46
118.02783	65
122.99969	39
130.03828	41
132.01794	288
132.02827	34
143.04309	29
151.00238	109
155.04384	66
167.04523	36
176.19814	34
180.05727	66
195.03987	266
195.05284	68
196.04163	37
196.05177	70
200.0437	45
201.14861	32
210.02844	29
211.04036	92
211.05885	94
212.04297	70
213.03734	29
213.05492	50
223.0365	162
224.0475	185
226.02368	105
237.05913	39
238.02492	68
238.05486	41
239.03261	332
239.03975	178
239.10681	31
240.02011	37
240.03758	292
240.52969	32
241.03682	39
241.04854	29
250.02312	39
264.88608	45
267.02982	650
267.0387	204
268.03784	1000
269.03174	160
269.04977	71
283.05087	45
296.06067	42

NAME: Aloe-emodin
PRECURSORMZ: 269.04554694783
PRECURSORTYPE: [M-H]-
INSTRUMENTTYPE: LC-ESI-QTOF
SMILES: OCC1=CC2=C(C(O)=C1)C(=O)C1=C(C=CC=C1O)C2=O
INCHIKEY: YDQWDHRMZQUTBA-UHFFFAOYSA-N
Ontology: Anthraquinones
COLLISIONENERGY: 50
FORMULA: C15H10O5
RETENTIONTIME: 5.8893
IONMODE: Negative
Comment: registered in RIKEN PlaSMA
Num Peaks: 12
63.0231	29
64.99976	12
65.00468	23
89.03572	13
89.03885	30
101.03349	16
117.03382	1000
118.03865	58
121.02289	16
122.03249	21
129.02829	13
239.05067	26

NAME: Hesperetin
PRECURSORMZ: 301.07176174783
PRECURSORTYPE: [M-H]-
INSTRUMENTTYPE: LC-ESI-QTOF
SMILES: COC1=C(O)C=C(C=C1)C1CC(=O)C2=C(O)C=C(O)C=C2O1
INCHIKEY: AIONOLUJZLIMTK-UHFFFAOYNA-N
Ontology: 4'-O-methylated flavonoids
COLLISIONENERGY: 50
FORMULA: C16H14O6
RETENTIONTIME: 6.167617
IONMODE: Negative
Comment: registered in RIKEN PlaSMA
Num Peaks: 59
65.00113	356
65.00757	48
80.02404	227
80.02826	158
81.02483	38
81.0293	37
83.1846	65
89.00115	38
94.0077	38
96.02034	38
103.04752	52
107.01227	227
107.04732	37
108.0201	1000
109.02728	96
117.02686	40
117.035	35
119.01208	52
119.04727	69
129.02995	140
130.03584	40
130.04688	46
133.0269	396
133.03491	98
134.03545	550
135.04234	754
136.01352	81
136.04524	44
137.01233	40
137.02724	81
139.04927	58
141.03323	50
145.02136	62
145.02684	121
145.03372	73
146.03644	98
152.01167	38
158.03455	90
159.04507	96
168.05872	40
169.02618	38
170.03105	44
171.04536	54
174.02933	52
175.03558	40
181.07472	79
183.0464	79
195.96042	38
197.0298	50
197.05583	42
198.02513	58
198.03195	56
199.03839	173
201.06059	35
209.01828	58
215.04311	54
226.03535	38
241.09496	35
243.02637	56

NAME: Kaempferol-3-O-rutinoside
PRECURSORMZ: 593.15119384783
PRECURSORTYPE: [M-H]-
INSTRUMENTTYPE: LC-ESI-QTOF
SMILES: CC1OC(OCC2OC(OC3=C(OC4=CC(O)=CC(O)=C4C3=O)C3=CC=C(O)C=C3)C(O)C(O)C2O)C(O)C(O)C1O
INCHIKEY: RTATXGUCZHCSNG-UHFFFAOYNA-N
Ontology: Flavonoid-3-O-glycosides
COLLISIONENERGY: 10
FORMULA: C27H30O15
RETENTIONTIME: 4.154
IONMODE: Negative
Comment: registered in RIKEN PlaSMA
Num Peaks: 17
151.00171	16
163.00232	7
199.04314	5
211.03738	7
227.03415	31
229.04564	19
255.03072	91
256.03116	18
257.0408	17
257.052	6
258.04663	9
284.03162	324
285.03864	713
286.0423	122
287.03876	9
327.05643	8
593.15082	1000

NAME: isorhamnetin-3-O-glucoside
PRECURSORMZ: 477.10384964783
PRECURSORTYPE: [M-H]-
INSTRUMENTTYPE: LC-ESI-QTOF
SMILES: COC1=C(O)C=CC(=C1)C1=C(OC2OC(CO)C(O)C(O)C2O)C(=O)C2=C(O)C=C(O)C=C2O1
INCHIKEY: CQLRUIIRRZYHHS-UHFFFAOYNA-N
Ontology: Flavonoid-3-O-glycosides
COLLISIONENERGY: 10
FORMULA: C22H22O12
RETENTIONTIME: 4.377133
IONMODE: Negative
Comment: registered in RIKEN PlaSMA
Num Peaks: 30
125.02319	6
151.00534	11
178.99699	8
199.03931	20
227.03654	8
227.04546	6
242.01801	9
243.02805	174
244.03262	29
257.04391	63
258.05399	11
270.01566	22
270.02835	12
271.01831	72
271.02737	160
272.03067	29
285.04068	125
286.03598	17
286.05084	35
299.00156	5
299.01868	66
300.01971	17
300.03085	16
314.0419	426
315.04947	173
316.05127	29
329.06561	9
357.06128	15
477.10507	1000
477.15134	6

NAME: Maritimetin-6-O-glucoside
PRECURSORMZ: 447.09328504783
PRECURSORTYPE: [M-H]-
INSTRUMENTTYPE: LC-ESI-QTOF
SMILES: OCC1OC(OC2=C(O)C3=C(C=C2)C(=O)C(O3)=CC2=CC(O)=C(O)C=C2)C(O)C(O)C1O
INCHIKEY: SYRURBPRFQUYQS-UHFFFAOYNA-N
Ontology: Aurone O-glycosides
COLLISIONENERGY: 10
FORMULA: C21H20O11
RETENTIONTIME: 3.996333
IONMODE: Negative
Comment: registered in RIKEN PlaSMA
Num Peaks: 48
95.01196	6
123.00774	9
125.02379	10
133.02521	54
133.03278	9
135.04042	41
135.04605	23
149.0224	15
150.9969	6
151.00421	11
161.02605	8
176.00717	11
177.01927	5
195.04501	6
196.04752	5
198.04126	6
201.05055	5
201.06483	7
211.03853	12
212.03992	10
213.05122	8
213.05975	8
218.71814	6
223.04085	8
226.02426	8
227.0323	5
228.02582	5
229.04567	13
236.56007	5
239.03639	12
255.0312	25
256.02606	11
257.05545	5
264.46313	8
267.01974	6
283.02985	49
284.01987	22
284.02942	68
285.0386	1000
286.04254	186
287.03867	22
287.05145	15
288.04956	6
339.92056	5
445.07254	9
446.08133	16
446.22165	5
447.09268	201

NAME: Dihydrohesperetin-7-O-neohesperidoside
PRECURSORMZ: 611.19814404783
PRECURSORTYPE: [M-H]-
INSTRUMENTTYPE: LC-ESI-QTOF
SMILES: COC1=C(O)C=C(CCC(=O)C2=C(O)C=C(OC3OC(CO)C(O)C(O)C3OC3OC(C)C(O)C(O)C3O)C=C2O)C=C1
INCHIKEY: ITVGXXMINPYUHD-UHFFFAOYNA-N
Ontology: Flavonoid O-glycosides
COLLISIONENERGY: 10
FORMULA: C28H36O15
RETENTIONTIME: 5.07335
IONMODE: Negative
Comment: registered in RIKEN PlaSMA
Num Peaks: 32
101.02076	6
125.02172	103
152.00958	13
166.02484	42
167.03252	12
179.03123	13
199.0759	6
217.08884	8
219.05928	7
219.07013	5
241.08231	8
244.0732	19
259.09576	7
285.07373	15
286.08194	7
288.06085	36
303.08609	391
304.08704	65
305.08521	5
305.0975	7
327.08334	45
327.09424	24
345.09647	19
345.11234	8
387.11258	14
405.12247	10
433.13141	9
491.13986	13
491.15631	32
492.16125	7
593.19818	6
611.19855	1000

NAME: Apigenin
PRECURSORMZ: 269.04554694783
PRECURSORTYPE: [M-H]-
INSTRUMENTTYPE: LC-ESI-QTOF
SMILES: OC1=CC=C(C=C1)C1=CC(=O)C2=C(O)C=C(O)C=C2O1
INCHIKEY: KZNIFHPLKGYRTM-UHFFFAOYSA-N
Ontology: Flavones
COLLISIONENERGY: 10
FORMULA: C15H10O5
RETENTIONTIME: 5.8902
IONMODE: Negative
Comment: registered in RIKEN PlaSMA
Num Peaks: 20
65.00369	5
77.04163	6
107.01163	35
117.03395	158
118.03574	24
121.0279	19
149.02225	92
151.00127	93
159.04366	27
169.0649	9
181.05994	10
183.04128	10
196.05461	6
201.04913	20
201.05597	12
225.05281	30
226.05534	5
227.03009	16
269.04428	1000
269.09048	6

NAME: Kaempferol-3-O-rutinoside
PRECURSORMZ: 593.15119384783
PRECURSORTYPE: [M-H]-
INSTRUMENTTYPE: LC-ESI-QTOF
SMILES: CC1OC(OCC2OC(OC3=C(OC4=CC(O)=CC(O)=C4C3=O)C3=CC=C(O)C=C3)C(O)C(O)C2O)C(O)C(O)C1O
INCHIKEY: RTATXGUCZHCSNG-UHFFFAOYNA-N
Ontology: Flavonoid-3-O-glycosides
COLLISIONENERGY: 10
FORMULA: C27H30O15
RETENTIONTIME: 4.154
IONMODE: Negative
Comment: registered in RIKEN PlaSMA
Num Peaks: 2
285.03958	37
593.15192	1000

NAME: isorhamnetin-3-O-glucoside
PRECURSORMZ: 477.10384964783
PRECURSORTYPE: [M-H]-
INSTRUMENTTYPE: LC-ESI-QTOF
SMILES: COC1=C(O)C=CC(=C1)C1=C(OC2OC(CO)C(O)C(O)C2O)C(=O)C2=C(O)C=C(O)C=C2O1
INCHIKEY: CQLRUIIRRZYHHS-UHFFFAOYNA-N
Ontology: Flavonoid-3-O-glycosides
COLLISIONENERGY: 10
FORMULA: C22H22O12
RETENTIONTIME: 4.377133
IONMODE: Negative
Comment: registered in RIKEN PlaSMA
Num Peaks: 4
314.02765	6
314.04388	7
315.04907	24
477.10193	1000

NAME: Maritimetin-6-O-glucoside
PRECURSORMZ: 447.09328504783
PRECURSORTYPE: [M-H]-
INSTRUMENTTYPE: LC-ESI-QTOF
SMILES: OCC1OC(OC2=C(O)C3=C(C=C2)C(=O)C(O3)=CC2=CC(O)=C(O)C=C2)C(O)C(O)C1O
INCHIKEY: SYRURBPRFQUYQS-UHFFFAOYNA-N
Ontology: Aurone O-glycosides
COLLISIONENERGY: 10
FORMULA: C21H20O11
RETENTIONTIME: 3.996333
IONMODE: Negative
Comment: registered in RIKEN PlaSMA
Num Peaks: 19
221.01389	7
222.16962	5
263.12027	6
283.02527	50
284.03009	51
285.03873	737
286.04391	200
287.02933	9
325.02869	8
326.91873	9
336.94037	6
353.75589	6
427.065	5
445.06143	23
445.07883	30
446.06467	29
446.08304	93
447.02112	5
447.09283	1000

NAME: Apigenin
PRECURSORMZ: 269.04554694783
PRECURSORTYPE: [M-H]-
INSTRUMENTTYPE: LC-ESI-QTOF
SMILES: OC1=CC=C(C=C1)C1=CC(=O)C2=C(O)C=C(O)C=C2O1
INCHIKEY: KZNIFHPLKGYRTM-UHFFFAOYSA-N
Ontology: Flavones
COLLISIONENERGY: 10
FORMULA: C15H10O5
RETENTIONTIME: 5.8902
IONMODE: Negative
Comment: registered in RIKEN PlaSMA
Num Peaks: 4
149.02086	8
151.00307	7
225.05327	10
269.04428	1000

NAME: Kaempferol-3-O-rutinoside
PRECURSORMZ: 593.15119384783
PRECURSORTYPE: [M-H]-
INSTRUMENTTYPE: LC-ESI-QTOF
SMILES: CC1OC(OCC2OC(OC3=C(OC4=CC(O)=CC(O)=C4C3=O)C3=CC=C(O)C=C3)C(O)C(O)C2O)C(O)C(O)C1O
INCHIKEY: RTATXGUCZHCSNG-UHFFFAOYNA-N
Ontology: Flavonoid-3-O-glycosides
COLLISIONENERGY: 30
FORMULA: C27H30O15
RETENTIONTIME: 4.154
IONMODE: Negative
Comment: registered in RIKEN PlaSMA
Num Peaks: 15
151.00142	29
227.02997	7
229.04625	18
239.04155	5
255.02884	80
256.03015	17
257.04156	33
258.04849	8
284.03113	586
285.03766	1000
286.04126	173
287.04672	17
327.04251	5
327.05624	10
593.15302	55

NAME: isorhamnetin-3-O-glucoside
PRECURSORMZ: 477.10384964783
PRECURSORTYPE: [M-H]-
INSTRUMENTTYPE: LC-ESI-QTOF
SMILES: COC1=C(O)C=CC(=C1)C1=C(OC2OC(CO)C(O)C(O)C2O)C(=O)C2=C(O)C=C(O)C=C2O1
INCHIKEY: CQLRUIIRRZYHHS-UHFFFAOYNA-N
Ontology: Flavonoid-3-O-glycosides
COLLISIONENERGY: 30
FORMULA: C22H22O12
RETENTIONTIME: 4.377133
IONMODE: Negative
Comment: registered in RIKEN PlaSMA
Num Peaks: 48
107.0141	5
151.00255	41
153.01701	7
163.00449	9
165.01967	6
177.05418	7
189.00955	6
199.04028	12
204.04472	14
205.05042	11
206.02133	5
215.03146	7
215.03961	9
227.03534	6
229.07385	5
242.01305	9
242.02524	14
243.02773	394
244.03442	39
245.03845	6
254.05023	5
255.02899	6
257.04266	138
258.04849	28
270.01465	32
270.02765	14
271.02335	510
271.05164	6
272.02579	43
273.0304	21
285.03833	389
285.0694	7
286.04468	275
287.04956	35
287.07123	9
294.05032	6
299.01706	181
300.0246	111
301.02692	6
301.03497	17
314.04153	1000
315.03787	104
315.04703	208
316.04926	53
317.0611	7
329.06964	6
357.06268	7
477.10641	42

NAME: Maritimetin-6-O-glucoside
PRECURSORMZ: 447.09328504783
PRECURSORTYPE: [M-H]-
INSTRUMENTTYPE: LC-ESI-QTOF
SMILES: OCC1OC(OC2=C(O)C3=C(C=C2)C(=O)C(O3)=CC2=CC(O)=C(O)C=C2)C(O)C(O)C1O
INCHIKEY: SYRURBPRFQUYQS-UHFFFAOYNA-N
Ontology: Aurone O-glycosides
COLLISIONENERGY: 30
FORMULA: C21H20O11
RETENTIONTIME: 3.996333
IONMODE: Negative
Comment: registered in RIKEN PlaSMA
Num Peaks: 57
109.02746	5
121.02576	5
123.00762	34
123.01563	6
125.01527	5
125.02437	7
132.01796	5
133.02599	47
133.03172	24
135.00697	5
135.04424	138
136.04588	15
138.35928	5
149.02458	22
149.9883	6
149.99527	13
150.9975	8
151.00591	38
152.00389	7
161.02158	14
171.04314	6
175.0388	9
176.00906	19
177.01617	25
183.03966	5
187.03918	6
191.03146	6
195.04353	9
211.03772	11
212.03943	15
212.04716	19
213.05074	10
215.0233	12
224.04391	10
226.02618	6
227.02669	9
228.04433	15
228.98653	6
229.05571	11
241.05096	11
241.06544	6
255.02748	66
255.0455	8
256.03186	51
257.03229	27
257.0499	18
262.0162	8
266.02063	8
268.0079	8
282.01245	10
283.02258	23
284.02765	34
285.03903	1000
286.04407	197
287.0325	14
288.04269	6
288.05154	5

NAME: Dihydrohesperetin-7-O-neohesperidoside
PRECURSORMZ: 611.19814404783
PRECURSORTYPE: [M-H]-
INSTRUMENTTYPE: LC-ESI-QTOF
SMILES: COC1=C(O)C=C(CCC(=O)C2=C(O)C=C(OC3OC(CO)C(O)C(O)C3OC3OC(C)C(O)C(O)C3O)C=C2O)C=C1
INCHIKEY: ITVGXXMINPYUHD-UHFFFAOYNA-N
Ontology: Flavonoid O-glycosides
COLLISIONENERGY: 30
FORMULA: C28H36O15
RETENTIONTIME: 5.07335
IONMODE: Negative
Comment: registered in RIKEN PlaSMA
Num Peaks: 51
125.02271	237
126.02549	8
126.03184	7
131.03548	5
149.02391	12
152.01276	5
166.02441	31
166.03429	7
167.03395	7
179.03482	12
204.04376	5
209.04823	10
219.0558	9
219.06967	24
241.08472	6
244.07217	7
285.07285	19
286.07404	11
288.0538	17
288.06641	37
289.07141	9
294.05533	6
303.08585	1000
304.08936	167
305.08606	34
305.09985	8
313.06992	7
313.10016	8
315.08261	5
317.10342	10
327.07047	15
327.08755	88
328.08734	24
342.07565	8
345.09143	29
345.10181	32
357.09595	19
369.08676	12
369.10028	18
372.08615	6
387.11044	18
388.10803	11
405.10934	6
406.12314	8
429.11032	8
433.15021	11
491.15973	60
492.15482	14
492.17038	6
493.15198	10
611.19641	124

NAME: Apigenin
PRECURSORMZ: 269.04554694783
PRECURSORTYPE: [M-H]-
INSTRUMENTTYPE: LC-ESI-QTOF
SMILES: OC1=CC=C(C=C1)C1=CC(=O)C2=C(O)C=C(O)C=C2O1
INCHIKEY: KZNIFHPLKGYRTM-UHFFFAOYSA-N
Ontology: Flavones
COLLISIONENERGY: 30
FORMULA: C15H10O5
RETENTIONTIME: 5.8902
IONMODE: Negative
Comment: registered in RIKEN PlaSMA
Num Peaks: 49
63.02258	5
64.99973	10
65.00385	14
79.01792	8
81.03192	6
83.01096	31
83.01672	17
93.03236	19
105.02735	8
105.0327	15
105.03965	13
106.03706	11
107.01327	206
108.01077	7
108.01859	13
109.01553	5
117.0331	1000
118.03668	55
121.0279	70
122.03281	6
123.03475	7
145.02733	6
149.02216	123
150.02863	6
151.00124	131
152.00133	9
154.03821	9
155.04657	17
157.06035	9
159.04269	59
169.0648	11
180.05353	15
180.06322	10
181.06586	21
182.03886	21
183.03915	30
184.04482	7
195.04364	7
197.04749	7
197.05957	10
199.0416	11
201.04399	9
224.04672	7
225.05281	14
227.03639	31
242.05557	8
253.04395	5
269.04111	31
269.05804	10

NAME: Kaempferol-3-O-rutinoside
PRECURSORMZ: 593.15119384783
PRECURSORTYPE: [M-H]-
INSTRUMENTTYPE: LC-ESI-QTOF
SMILES: CC1OC(OCC2OC(OC3=C(OC4=CC(O)=CC(O)=C4C3=O)C3=CC=C(O)C=C3)C(O)C(O)C2O)C(O)C(O)C1O
INCHIKEY: RTATXGUCZHCSNG-UHFFFAOYNA-N
Ontology: Flavonoid-3-O-glycosides
COLLISIONENERGY: 50
FORMULA: C27H30O15
RETENTIONTIME: 4.154
IONMODE: Negative
Comment: registered in RIKEN PlaSMA
Num Peaks: 76
68.02274	5
93.035	13
107.00714	6
107.01488	6
108.01874	6
109.02323	6
117.02937	9
120.02422	5
132.02713	14
135.0047	28
137.02316	10
143.04808	6
143.06067	6
145.06892	12
148.01411	6
151.00148	27
154.03603	6
155.0498	10
157.06099	14
159.04541	11
162.99997	25
163.00533	9
164.00421	7
166.0269	8
168.05167	6
169.06862	15
171.04593	10
171.05251	5
182.66447	7
183.0412	28
185.02287	10
185.04601	6
185.05894	24
186.03178	8
187.03642	55
189.05418	28
191.00136	13
195.04562	20
196.05173	6
197.05769	19
198.03268	6
199.03789	7
199.04832	9
200.03937	7
201.04753	5
211.04237	57
212.04555	13
213.04225	6
214.0246	11
223.03654	12
226.01076	5
227.03366	534
227.31129	8
228.03711	64
228.04865	11
229.03638	28
229.0518	173
230.05469	22
239.03285	46
240.03816	17
241.04463	22
241.06203	19
243.02954	23
255.02863	1000
256.03125	164
256.0824	5
257.04242	118
258.04568	28
267.03027	18
283.02036	5
284.02969	245
285.03726	202
286.02328	6
286.04089	52
286.05295	10
287.03552	10

NAME: isorhamnetin-3-O-glucoside
PRECURSORMZ: 477.10384964783
PRECURSORTYPE: [M-H]-
INSTRUMENTTYPE: LC-ESI-QTOF
SMILES: COC1=C(O)C=CC(=C1)C1=C(OC2OC(CO)C(O)C(O)C2O)C(=O)C2=C(O)C=C(O)C=C2O1
INCHIKEY: CQLRUIIRRZYHHS-UHFFFAOYNA-N
Ontology: Flavonoid-3-O-glycosides
COLLISIONENERGY: 50
FORMULA: C22H22O12
RETENTIONTIME: 4.377133
IONMODE: Negative
Comment: registered in RIKEN PlaSMA
Num Peaks: 147
63.02068	7
75.79998	7
79.01838	6
83.01051	6
107.0108	7
107.01768	9
108.02208	7
109.02229	5
120.01928	6
121.83493	6
123.00299	14
124.01648	7
127.04356	5
130.04456	6
131.04843	14
133.02545	31
135.00325	14
139.0515	7
143.04718	69
145.01672	7
145.0287	6
146.03276	6
147.00594	13
147.03073	8
147.04762	6
151.00131	103
153.03717	15
154.03568	5
155.04416	6
157.02577	50
157.12752	9
159.04926	12
161.99979	8
162.99336	7
163.00122	9
164.01192	11
167.0473	8
169.02393	8
169.02962	15
170.0367	17
171.04082	75
172.01633	6
172.0408	16
173.02426	44
175.00192	6
175.03404	24
175.04539	12
176.03497	12
178.99477	6
181.02251	14
182.04118	20
182.17152	7
182.29375	6
183.03833	5
183.04977	10
185.02196	35
187.01228	9
187.03012	6
187.04054	50
188.00423	7
188.04384	14
189.01532	17
197.01614	22
197.02626	59
198.03162	33
198.38007	5
199.01039	7
199.02161	6
199.0388	299
200.00603	7
200.04593	68
201.01132	42
201.02065	80
202.0192	32
202.0358	5
203.02023	10
203.03345	41
203.056	7
204.91281	5
208.05629	5
209.18634	5
210.6591	8
211.03424	13
213.01271	7
213.03465	7
214.01723	22
214.02473	47
214.0381	7
214.20618	6
215.03543	263
216.03821	22
216.30054	9
217.03946	6
225.00822	15
225.02231	27
226.02684	88
226.99701	7
227.03331	266
227.99677	12
228.03439	19
229.0132	48
230.05533	7
231.07394	6
232.03305	5
241.01233	5
242.02008	691
242.75082	6
243.02873	1000
244.01505	12
244.0314	30
244.03844	55
244.28081	6
245.02991	14
245.04131	6
255.02351	32
255.03093	15
256.02826	9
256.04297	6
257.03934	57
257.05161	50
258.04294	19
258.06097	6
258.33838	6
259.05591	6
260.0451	7
270.01657	356
270.23145	6
271.0235	760
272.0274	160
273.02725	6
273.03989	6
273.60172	6
276.13455	5
281.75275	6
282.00735	6
283.02975	13
285.03802	154
285.05756	17
286.04959	11
299.00095	12
299.02371	65
300.02271	51
300.04276	9
300.88062	7
301.01459	5
301.02359	5
334.82904	8

NAME: Maritimetin-6-O-glucoside
PRECURSORMZ: 447.09328504783
PRECURSORTYPE: [M-H]-
INSTRUMENTTYPE: LC-ESI-QTOF
SMILES: OCC1OC(OC2=C(O)C3=C(C=C2)C(=O)C(O3)=CC2=CC(O)=C(O)C=C2)C(O)C(O)C1O
INCHIKEY: SYRURBPRFQUYQS-UHFFFAOYNA-N
Ontology: Aurone O-glycosides
COLLISIONENERGY: 50
FORMULA: C21H20O11
RETENTIONTIME: 3.996333
IONMODE: Negative
Comment: registered in RIKEN PlaSMA
Num Peaks: 82
79.05495	28
92.01752	18
93.0323	38
95.00873	46
95.01645	18
104.02229	22
105.03255	87
106.00557	81
107.00988	86
107.04656	54
107.05147	28
119.01546	15
121.02769	74
121.99774	19
123.0079	150
125.02528	32
127.04897	17
128.13643	17
132.01457	24
132.02258	22
133.02776	1000
134.02988	124
134.04103	16
135.04385	348
136.0441	17
140.05731	32
142.04674	25
143.04834	21
144.05984	20
147.00084	28
147.0081	43
148.00801	42
148.01555	93
149.0248	142
149.99446	18
150.99976	142
155.04858	18
156.01649	30
156.05579	18
157.02753	20
158.07491	20
159.04222	96
163.00632	16
167.04707	63
172.05399	18
173.05504	16
176.00986	33
177.0114	18
183.03625	54
183.04691	33
184.04475	45
184.05649	17
186.00139	18
187.06712	22
195.0399	22
195.04701	26
196.05328	19
197.06152	22
199.03792	88
199.05138	45
200.04042	18
201.05275	85
202.05893	25
211.03864	151
212.04457	73
213.06526	33
215.02591	27
226.02817	20
227.03201	161
230.04971	18
238.01909	28
239.03462	32
239.04301	22
240.03661	19
241.04781	41
255.02901	61
256.03207	24
257.03366	20
257.05197	19
267.03693	24
283.02029	15
338.98651	21

NAME: Dihydrohesperetin-7-O-neohesperidoside
PRECURSORMZ: 611.19814404783
PRECURSORTYPE: [M-H]-
INSTRUMENTTYPE: LC-ESI-QTOF
SMILES: COC1=C(O)C=C(CCC(=O)C2=C(O)C=C(OC3OC(CO)C(O)C(O)C3OC3OC(C)C(O)C(O)C3O)C=C2O)C=C1
INCHIKEY: ITVGXXMINPYUHD-UHFFFAOYNA-N
Ontology: Flavonoid O-glycosides
COLLISIONENERGY: 50
FORMULA: C28H36O15
RETENTIONTIME: 5.07335
IONMODE: Negative
Comment: registered in RIKEN PlaSMA
Num Peaks: 153
68.99361	7
72.99149	12
83.01015	6
83.01656	8
89.02131	5
93.85645	5
95.00517	5
96.021	11
96.08975	7
101.0241	20
102.79773	7
105.78179	9
107.04794	5
108.01811	14
113.02116	6
117.03532	8
121.02618	10
122.03559	6
123.04121	18
124.01366	75
125.02284	646
126.01853	22
126.02701	69
134.03662	57
135.04016	28
135.04576	22
136.04625	6
137.02614	5
138.02789	20
145.03209	7
145.06313	8
147.04312	11
149.01776	13
149.02631	26
149.05667	20
149.06601	9
150.06644	10
151.00217	220
151.03421	6
152.00963	340
152.04755	5
153.01392	58
159.03664	8
159.04709	12
160.0459	12
161.01086	5
161.05788	6
162.02937	17
163.04202	6
165.01735	55
165.05405	6
166.02591	1000
167.01276	6
167.02579	46
167.03206	115
168.02158	5
168.03041	10
168.04024	32
172.08624	51
173.05382	19
173.06187	19
175.03375	9
175.07204	12
176.04259	7
176.07582	5
177.01614	10
177.05823	18
178.06168	10
179.03348	24
180.04338	5
185.06284	6
187.03812	13
187.04855	8
189.05002	7
190.02696	5
191.03206	12
192.00128	5
193.00867	12
194.01881	5
196.02721	10
199.07547	6
200.07996	121
201.04315	5
201.05431	45
201.08282	12
202.06265	115
202.0722	23
203.03285	6
203.0582	6
204.04155	82
205.01978	10
205.04173	5
205.04918	5
206.02243	5
206.39186	7
206.87318	5
214.06512	8
214.07661	6
216.06856	14
216.07697	7
217.0768	12
219.01555	5
219.0602	43
219.0715	17
220.06291	23
225.05359	5
226.05542	24
226.06686	6
228.06651	11
232.04195	6
235.0829	6
235.10074	5
240.08888	6
241.08272	31
242.04791	5
243.06364	12
244.07188	366
245.07504	33
245.09232	7
248.07549	5
252.66895	6
257.05164	5
259.08972	17
260.88995	6
261.08038	5
269.04132	13
269.05368	9
270.04605	14
270.05777	11
271.0527	16
273.07053	8
285.06699	16
285.08063	29
286.07654	6
286.21823	6
287.05276	13
287.08945	5
288.06259	175
289.0611	22
289.08215	17
290.07529	6
302.06357	7
303.07419	48
303.08603	124
304.0856	27
304.09717	22
305.07709	6
305.09311	5
312.06665	7
315.08911	8
327.08728	9
342.06979	5
342.09467	6

NAME: Apigenin
PRECURSORMZ: 269.04554694783
PRECURSORTYPE: [M-H]-
INSTRUMENTTYPE: LC-ESI-QTOF
SMILES: OC1=CC=C(C=C1)C1=CC(=O)C2=C(O)C=C(O)C=C2O1
INCHIKEY: KZNIFHPLKGYRTM-UHFFFAOYSA-N
Ontology: Flavones
COLLISIONENERGY: 50
FORMULA: C15H10O5
RETENTIONTIME: 5.8902
IONMODE: Negative
Comment: registered in RIKEN PlaSMA
Num Peaks: 17
63.01414	12
63.01894	27
65.00028	12
65.00672	19
79.01917	37
81.0361	39
93.03608	27
101.04248	11
105.03551	18
107.00872	21
116.0246	28
117.03318	1000
118.03849	64
131.04625	14
133.06573	16
141.03552	12
165.03667	26

NAME: Kaempferol-3-O-rutinoside
PRECURSORMZ: 593.15119384783
PRECURSORTYPE: [M-H]-
INSTRUMENTTYPE: LC-ESI-QTOF
SMILES: CC1OC(OCC2OC(OC3=C(OC4=CC(O)=CC(O)=C4C3=O)C3=CC=C(O)C=C3)C(O)C(O)C2O)C(O)C(O)C1O
INCHIKEY: RTATXGUCZHCSNG-UHFFFAOYNA-N
Ontology: Flavonoid-3-O-glycosides
COLLISIONENERGY: 10
FORMULA: C27H30O15
RETENTIONTIME: 4.154
IONMODE: Negative
Comment: registered in RIKEN PlaSMA
Num Peaks: 14
151.00165	7
227.035	21
229.04616	16
239.02361	5
255.02834	84
256.03348	19
257.03458	6
257.04828	18
284.03064	284
285.03864	599
286.04178	105
287.04865	11
327.05313	6
593.15021	1000

NAME: isorhamnetin-3-O-glucoside
PRECURSORMZ: 477.10384964783
PRECURSORTYPE: [M-H]-
INSTRUMENTTYPE: LC-ESI-QTOF
SMILES: COC1=C(O)C=CC(=C1)C1=C(OC2OC(CO)C(O)C(O)C2O)C(=O)C2=C(O)C=C(O)C=C2O1
INCHIKEY: CQLRUIIRRZYHHS-UHFFFAOYNA-N
Ontology: Flavonoid-3-O-glycosides
COLLISIONENERGY: 10
FORMULA: C22H22O12
RETENTIONTIME: 4.377133
IONMODE: Negative
Comment: registered in RIKEN PlaSMA
Num Peaks: 27
151.00148	17
178.99545	6
199.04202	7
215.03203	8
227.03119	16
242.01546	15
243.02737	169
244.02339	12
244.03577	19
257.04135	48
258.0495	14
270.01227	31
271.02188	164
272.02411	39
285.03787	127
286.04431	76
287.04428	8
299.01727	48
300.01447	12
300.02472	16
300.03619	7
314.04099	440
315.04724	149
316.04239	12
316.05139	23
357.06213	10
477.10107	1000

NAME: Maritimetin-6-O-glucoside
PRECURSORMZ: 447.09328504783
PRECURSORTYPE: [M-H]-
INSTRUMENTTYPE: LC-ESI-QTOF
SMILES: OCC1OC(OC2=C(O)C3=C(C=C2)C(=O)C(O3)=CC2=CC(O)=C(O)C=C2)C(O)C(O)C1O
INCHIKEY: SYRURBPRFQUYQS-UHFFFAOYNA-N
Ontology: Aurone O-glycosides
COLLISIONENERGY: 10
FORMULA: C21H20O11
RETENTIONTIME: 3.996333
IONMODE: Negative
Comment: registered in RIKEN PlaSMA
Num Peaks: 35
133.02956	16
134.02785	8
135.04285	63
136.04111	8
149.01697	14
151.00145	21
154.07518	5
159.00891	8
176.00771	12
177.01532	15
195.04039	11
213.06349	10
214.0181	7
227.02371	6
227.03497	29
243.04225	8
255.02879	21
256.03229	24
257.03894	9
281.0336	8
283.01501	23
283.03027	20
284.02594	58
284.0412	15
285.03906	1000
286.03113	41
286.04169	131
287.04593	9
287.05539	18
288.04385	5
298.04132	13
327.04175	5
374.45636	10
446.08801	26
447.09274	206

NAME: Dihydrohesperetin-7-O-neohesperidoside
PRECURSORMZ: 611.19814404783
PRECURSORTYPE: [M-H]-
INSTRUMENTTYPE: LC-ESI-QTOF
SMILES: COC1=C(O)C=C(CCC(=O)C2=C(O)C=C(OC3OC(CO)C(O)C(O)C3OC3OC(C)C(O)C(O)C3O)C=C2O)C=C1
INCHIKEY: ITVGXXMINPYUHD-UHFFFAOYNA-N
Ontology: Flavonoid O-glycosides
COLLISIONENERGY: 10
FORMULA: C28H36O15
RETENTIONTIME: 5.07335
IONMODE: Negative
Comment: registered in RIKEN PlaSMA
Num Peaks: 26
125.0226	92
152.00893	11
166.02708	27
167.03214	5
200.08318	7
202.05983	7
219.06725	14
241.08987	6
244.0761	26
285.07156	6
285.08054	14
288.05878	25
288.07144	23
289.06775	6
303.08673	372
304.09055	75
305.08774	10
327.08701	35
345.09891	12
369.09448	5
387.1044	12
405.11475	9
405.13318	8
431.13013	8
491.15253	17
611.19891	1000

NAME: Apigenin
PRECURSORMZ: 269.04554694783
PRECURSORTYPE: [M-H]-
INSTRUMENTTYPE: LC-ESI-QTOF
SMILES: OC1=CC=C(C=C1)C1=CC(=O)C2=C(O)C=C(O)C=C2O1
INCHIKEY: KZNIFHPLKGYRTM-UHFFFAOYSA-N
Ontology: Flavones
COLLISIONENERGY: 10
FORMULA: C15H10O5
RETENTIONTIME: 5.8902
IONMODE: Negative
Comment: registered in RIKEN PlaSMA
Num Peaks: 20
105.03443	7
107.01273	46
108.0156	7
117.03232	162
118.03574	21
121.02774	10
149.02351	60
150.02522	7
151.00172	88
159.0434	16
180.05779	8
181.063	16
183.04378	16
185.01849	6
201.05347	33
224.05574	6
225.05505	43
226.06029	8
227.03259	19
269.04413	1000

NAME: Kaempferol-3-O-rutinoside
PRECURSORMZ: 593.15119384783
PRECURSORTYPE: [M-H]-
INSTRUMENTTYPE: LC-ESI-QTOF
SMILES: CC1OC(OCC2OC(OC3=C(OC4=CC(O)=CC(O)=C4C3=O)C3=CC=C(O)C=C3)C(O)C(O)C2O)C(O)C(O)C1O
INCHIKEY: RTATXGUCZHCSNG-UHFFFAOYNA-N
Ontology: Flavonoid-3-O-glycosides
COLLISIONENERGY: 10
FORMULA: C27H30O15
RETENTIONTIME: 4.154
IONMODE: Negative
Comment: registered in RIKEN PlaSMA
Num Peaks: 3
285.03738	31
286.039	5
593.15161	1000

NAME: isorhamnetin-3-O-glucoside
PRECURSORMZ: 477.10384964783
PRECURSORTYPE: [M-H]-
INSTRUMENTTYPE: LC-ESI-QTOF
SMILES: COC1=C(O)C=CC(=C1)C1=C(OC2OC(CO)C(O)C(O)C2O)C(=O)C2=C(O)C=C(O)C=C2O1
INCHIKEY: CQLRUIIRRZYHHS-UHFFFAOYNA-N
Ontology: Flavonoid-3-O-glycosides
COLLISIONENERGY: 10
FORMULA: C22H22O12
RETENTIONTIME: 4.377133
IONMODE: Negative
Comment: registered in RIKEN PlaSMA
Num Peaks: 4
314.04001	14
315.05066	12
477.10306	1000
477.16345	5

NAME: Maritimetin-6-O-glucoside
PRECURSORMZ: 447.09328504783
PRECURSORTYPE: [M-H]-
INSTRUMENTTYPE: LC-ESI-QTOF
SMILES: OCC1OC(OC2=C(O)C3=C(C=C2)C(=O)C(O3)=CC2=CC(O)=C(O)C=C2)C(O)C(O)C1O
INCHIKEY: SYRURBPRFQUYQS-UHFFFAOYNA-N
Ontology: Aurone O-glycosides
COLLISIONENERGY: 10
FORMULA: C21H20O11
RETENTIONTIME: 3.996333
IONMODE: Negative
Comment: registered in RIKEN PlaSMA
Num Peaks: 18
62.29849	6
144.93655	6
265.17767	6
278.13315	10
283.02203	23
284.02267	46
284.0332	20
285.03995	1000
286.04202	143
287.05286	39
288.05478	5
300.00699	6
327.05515	9
334.64688	7
445.08548	71
446.07739	82
446.09479	40
447.09302	922

NAME: Dihydrohesperetin-7-O-neohesperidoside
PRECURSORMZ: 611.19814404783
PRECURSORTYPE: [M-H]-
INSTRUMENTTYPE: LC-ESI-QTOF
SMILES: COC1=C(O)C=C(CCC(=O)C2=C(O)C=C(OC3OC(CO)C(O)C(O)C3OC3OC(C)C(O)C(O)C3O)C=C2O)C=C1
INCHIKEY: ITVGXXMINPYUHD-UHFFFAOYNA-N
Ontology: Flavonoid O-glycosides
COLLISIONENERGY: 10
FORMULA: C28H36O15
RETENTIONTIME: 5.07335
IONMODE: Negative
Comment: registered in RIKEN PlaSMA
Num Peaks: 2
611.19727	1000
611.25311	6

NAME: Apigenin
PRECURSORMZ: 269.04554694783
PRECURSORTYPE: [M-H]-
INSTRUMENTTYPE: LC-ESI-QTOF
SMILES: OC1=CC=C(C=C1)C1=CC(=O)C2=C(O)C=C(O)C=C2O1
INCHIKEY: KZNIFHPLKGYRTM-UHFFFAOYSA-N
Ontology: Flavones
COLLISIONENERGY: 10
FORMULA: C15H10O5
RETENTIONTIME: 5.8902
IONMODE: Negative
Comment: registered in RIKEN PlaSMA
Num Peaks: 5
149.02585	11
151.00383	7
225.05312	9
269.04547	1000
269.09229	7

NAME: Kaempferol-3-O-rutinoside
PRECURSORMZ: 593.15119384783
PRECURSORTYPE: [M-H]-
INSTRUMENTTYPE: LC-ESI-QTOF
SMILES: CC1OC(OCC2OC(OC3=C(OC4=CC(O)=CC(O)=C4C3=O)C3=CC=C(O)C=C3)C(O)C(O)C2O)C(O)C(O)C1O
INCHIKEY: RTATXGUCZHCSNG-UHFFFAOYNA-N
Ontology: Flavonoid-3-O-glycosides
COLLISIONENERGY: 30
FORMULA: C27H30O15
RETENTIONTIME: 4.154
IONMODE: Negative
Comment: registered in RIKEN PlaSMA
Num Peaks: 17
151.00209	12
163.00223	7
199.03445	7
227.03148	7
255.02621	41
255.03404	17
256.03186	10
257.03394	10
257.04443	14
284.03094	511
285.0383	1000
286.04251	162
287.03772	12
287.04846	28
288.04733	5
327.0593	9
593.14709	54

NAME: isorhamnetin-3-O-glucoside
PRECURSORMZ: 477.10384964783
PRECURSORTYPE: [M-H]-
INSTRUMENTTYPE: LC-ESI-QTOF
SMILES: COC1=C(O)C=CC(=C1)C1=C(OC2OC(CO)C(O)C(O)C2O)C(=O)C2=C(O)C=C(O)C=C2O1
INCHIKEY: CQLRUIIRRZYHHS-UHFFFAOYNA-N
Ontology: Flavonoid-3-O-glycosides
COLLISIONENERGY: 30
FORMULA: C22H22O12
RETENTIONTIME: 4.377133
IONMODE: Negative
Comment: registered in RIKEN PlaSMA
Num Peaks: 36
107.01319	8
150.9982	5
151.00842	20
153.01945	7
165.01131	5
178.99777	18
189.01646	7
204.04164	8
242.02069	17
243.02858	435
244.03545	48
255.02081	10
257.04379	159
258.04645	32
259.05823	5
270.01678	31
271.02408	490
272.02887	90
273.02557	13
285.03961	446
286.04492	210
287.04523	28
287.05679	9
288.05273	10
299.01947	137
299.04807	19
300.02228	92
300.03668	28
301.02954	29
314.0419	1000
314.078	6
315.0473	352
316.04602	31
316.05701	13
357.05197	10
477.09784	37

NAME: Maritimetin-6-O-glucoside
PRECURSORMZ: 447.09328504783
PRECURSORTYPE: [M-H]-
INSTRUMENTTYPE: LC-ESI-QTOF
SMILES: OCC1OC(OC2=C(O)C3=C(C=C2)C(=O)C(O3)=CC2=CC(O)=C(O)C=C2)C(O)C(O)C1O
INCHIKEY: SYRURBPRFQUYQS-UHFFFAOYNA-N
Ontology: Aurone O-glycosides
COLLISIONENERGY: 30
FORMULA: C21H20O11
RETENTIONTIME: 3.996333
IONMODE: Negative
Comment: registered in RIKEN PlaSMA
Num Peaks: 52
105.03311	5
106.00815	5
123.00485	26
123.04408	8
132.01552	7
132.02267	8
133.02669	52
134.03186	17
135.04488	160
136.04646	23
149.01122	5
149.02403	26
149.99583	7
150.99304	9
151.00693	30
153.26918	10
159.04381	6
161.02597	15
162.57182	5
176.00781	18
177.01418	29
183.04222	5
185.05673	6
195.04274	15
197.05363	5
199.0312	14
201.05115	5
211.04033	8
212.96783	5
213.05785	16
214.02235	10
226.02649	7
227.04189	9
228.02832	5
229.0451	12
229.05855	5
239.02144	8
240.04504	9
241.05211	16
255.02875	72
256.03253	38
257.04196	36
258.57709	5
267.02844	16
268.03229	13
268.04474	8
270.00745	8
283.01791	19
284.03064	51
285.04007	1000
286.04034	183
287.04971	19

NAME: Dihydrohesperetin-7-O-neohesperidoside
PRECURSORMZ: 611.19814404783
PRECURSORTYPE: [M-H]-
INSTRUMENTTYPE: LC-ESI-QTOF
SMILES: COC1=C(O)C=C(CCC(=O)C2=C(O)C=C(OC3OC(CO)C(O)C(O)C3OC3OC(C)C(O)C(O)C3O)C=C2O)C=C1
INCHIKEY: ITVGXXMINPYUHD-UHFFFAOYNA-N
Ontology: Flavonoid O-glycosides
COLLISIONENERGY: 30
FORMULA: C28H36O15
RETENTIONTIME: 5.07335
IONMODE: Negative
Comment: registered in RIKEN PlaSMA
Num Peaks: 49
125.02253	184
126.02483	16
131.03427	6
149.02164	17
151.0036	9
152.01297	16
153.01593	10
166.02301	15
166.03183	7
167.03418	22
175.07776	5
180.04097	9
191.03362	5
200.07851	10
200.08952	7
209.04424	15
209.05391	7
217.08833	5
219.06381	23
241.08128	12
244.07161	16
245.0811	8
259.08801	12
259.10233	7
285.06519	13
285.08252	9
287.05392	6
288.06558	43
289.0726	18
303.08591	1000
304.09042	170
305.08551	13
305.10013	9
312.05896	8
313.08456	9
327.07758	36
327.09406	61
328.09741	21
345.09613	37
357.09659	13
369.09689	20
387.10983	14
405.1217	7
433.15125	6
486.66699	5
491.14404	30
491.1564	69
492.16696	15
611.19971	138

NAME: Apigenin
PRECURSORMZ: 269.04554694783
PRECURSORTYPE: [M-H]-
INSTRUMENTTYPE: LC-ESI-QTOF
SMILES: OC1=CC=C(C=C1)C1=CC(=O)C2=C(O)C=C(O)C=C2O1
INCHIKEY: KZNIFHPLKGYRTM-UHFFFAOYSA-N
Ontology: Flavones
COLLISIONENERGY: 30
FORMULA: C15H10O5
RETENTIONTIME: 5.8902
IONMODE: Negative
Comment: registered in RIKEN PlaSMA
Num Peaks: 58
63.02154	11
64.99835	6
65.00422	37
66.00578	8
77.0369	10
79.01596	15
83.01355	25
89.00028	12
93.03234	6
94.03738	7
101.03796	5
104.02515	9
105.03353	44
106.04259	6
107.01232	203
108.01477	9
108.01969	9
117.03348	1000
118.03715	88
121.02744	58
122.03363	13
142.04591	6
148.01241	11
149.02129	73
149.02676	40
150.02676	6
151.00301	139
152.00323	7
152.0103	5
154.04477	14
155.04398	7
156.05899	12
157.06512	16
159.04393	43
160.05026	7
171.04089	23
180.05388	20
181.06432	23
182.03496	7
183.04062	36
183.07704	6
184.04594	18
185.01807	10
186.02843	9
195.04077	7
196.05203	10
199.03658	8
199.0453	9
201.04878	14
210.02495	8
213.05472	8
213.06227	5
214.05428	6
224.04556	9
225.05424	17
227.02956	19
227.03918	19
269.04385	23

NAME: Kaempferol-3-O-rutinoside
PRECURSORMZ: 593.15119384783
PRECURSORTYPE: [M-H]-
INSTRUMENTTYPE: LC-ESI-QTOF
SMILES: CC1OC(OCC2OC(OC3=C(OC4=CC(O)=CC(O)=C4C3=O)C3=CC=C(O)C=C3)C(O)C(O)C2O)C(O)C(O)C1O
INCHIKEY: RTATXGUCZHCSNG-UHFFFAOYNA-N
Ontology: Flavonoid-3-O-glycosides
COLLISIONENERGY: 50
FORMULA: C27H30O15
RETENTIONTIME: 4.154
IONMODE: Negative
Comment: registered in RIKEN PlaSMA
Num Peaks: 84
65.00442	9
93.03271	21
107.00975	11
107.01689	7
109.02739	18
132.01239	10
132.02127	14
135.00734	30
136.01985	8
137.01883	6
143.04752	18
143.0565	5
145.06659	7
151.00171	15
154.04181	9
157.06105	7
159.04086	13
160.04533	6
163.00282	42
164.01041	11
165.01189	8
167.04646	6
169.05782	16
169.06793	13
170.03682	5
171.03935	6
171.04712	9
172.05609	6
176.7036	6
182.03444	7
183.04829	6
185.02615	11
185.05127	12
185.06038	41
186.06297	8
187.03531	28
188.04384	10
189.04787	11
189.05699	8
190.9921	9
195.03621	10
196.05365	7
197.05519	29
199.04269	7
200.04716	5
201.04535	10
201.05719	21
211.03149	15
211.03923	41
212.04042	12
213.05664	10
214.02991	9
214.05426	5
215.03125	8
223.03642	7
226.02568	13
227.03365	553
227.85524	7
228.03018	54
228.03902	55
229.04367	140
229.05193	111
230.05331	18
239.03152	36
240.04149	25
241.05113	28
243.01898	7
255.02779	1000
255.10587	7
256.03317	184
257.03134	38
257.04529	80
258.03479	10
258.05255	12
267.02222	9
277.08444	6
284.02194	82
284.03088	158
285.02954	64
285.03879	180
286.0296	13
286.04456	16
286.05444	11
287.03973	6

NAME: isorhamnetin-3-O-glucoside
PRECURSORMZ: 477.10384964783
PRECURSORTYPE: [M-H]-
INSTRUMENTTYPE: LC-ESI-QTOF
SMILES: COC1=C(O)C=CC(=C1)C1=C(OC2OC(CO)C(O)C(O)C2O)C(=O)C2=C(O)C=C(O)C=C2O1
INCHIKEY: CQLRUIIRRZYHHS-UHFFFAOYNA-N
Ontology: Flavonoid-3-O-glycosides
COLLISIONENERGY: 50
FORMULA: C22H22O12
RETENTIONTIME: 4.377133
IONMODE: Negative
Comment: registered in RIKEN PlaSMA
Num Peaks: 116
63.0285	8
68.99249	6
87.88036	6
104.87839	5
107.00693	11
107.01562	13
108.01649	12
115.06017	5
117.92137	6
119.04827	6
125.0217	12
127.05378	22
133.0282	32
136.01851	5
139.77324	5
141.42186	5
143.00955	6
143.04759	44
144.05084	9
144.21687	6
145.02719	34
147.00703	10
147.04042	46
148.02197	6
150.99396	13
151.00185	30
155.04941	50
157.02899	25
157.03526	7
159.04164	16
164.00858	9
167.95374	5
169.02847	10
170.03099	7
170.03758	6
171.03522	19
171.04475	76
172.04604	13
173.02333	39
174.0285	11
175.03418	67
175.04182	18
176.04344	6
176.06401	6
181.02901	5
181.47786	6
183.0349	13
183.04434	7
185.02507	12
186.02339	5
187.03696	59
187.04242	37
188.03929	5
191.4987	5
195.04228	10
197.01503	9
197.02681	45
198.03162	27
198.04158	9
199.03868	317
200.01476	12
200.04346	62
201.01805	149
201.0448	15
202.019	17
202.02866	17
203.02908	33
203.04341	6
211.0416	7
212.04289	8
213.01999	13
214.02602	55
214.05341	7
215.03534	237
216.05286	6
217.04239	18
225.02284	34
226.02647	73
227.03317	209
228.03616	6
228.04875	5
229.01556	62
229.0327	6
230.01459	15
230.19749	6
238.73659	6
239.28717	6
242.01868	755
243.02829	1000
244.0191	28
244.03133	124
245.03412	36
253.00221	9
255.03101	17
256.03473	5
257.02783	9
257.04333	79
258.04669	9
268.16327	10
270.01566	501
270.03787	9
271.02182	860
272.02307	134
272.0325	51
273.01523	7
273.03159	13
274.02829	6
280.99817	6
285.04056	172
286.043	35
299.01578	52
299.03223	11
300.02856	12
320.03055	7
477.09485	15
477.12097	5

NAME: Maritimetin-6-O-glucoside
PRECURSORMZ: 447.09328504783
PRECURSORTYPE: [M-H]-
INSTRUMENTTYPE: LC-ESI-QTOF
SMILES: OCC1OC(OC2=C(O)C3=C(C=C2)C(=O)C(O3)=CC2=CC(O)=C(O)C=C2)C(O)C(O)C1O
INCHIKEY: SYRURBPRFQUYQS-UHFFFAOYNA-N
Ontology: Aurone O-glycosides
COLLISIONENERGY: 50
FORMULA: C21H20O11
RETENTIONTIME: 3.996333
IONMODE: Negative
Comment: registered in RIKEN PlaSMA
Num Peaks: 70
78.04354	19
79.05776	73
92.0189	25
94.00729	41
94.92448	25
95.00772	17
105.0311	95
106.00415	38
107.04662	35
108.01513	22
109.02956	23
120.02083	25
121.0261	18
122.00083	16
123.00142	84
123.01005	52
127.04731	25
130.04185	20
131.04767	31
132.01878	75
133.02803	1000
134.03281	151
135.03343	35
135.04456	442
136.04324	18
139.04247	19
143.05388	27
147.00822	18
148.01816	53
149.02118	99
150.02679	52
150.99556	51
151.00633	52
153.03908	21
155.0473	18
156.01794	18
156.04901	20
157.0291	18
159.02948	18
161.01698	38
161.08417	16
165.36981	27
167.03835	54
167.05405	19
173.0592	40
174.02675	18
176.00679	44
176.02031	26
182.03471	25
183.03911	44
185.06145	18
186.06636	23
198.0266	56
199.03477	85
202.05348	38
211.0356	46
211.04434	17
212.04303	37
227.03204	38
230.04636	18
239.02945	57
240.0412	25
241.04114	21
242.01262	31
255.03215	66
256.03442	41
257.03702	36
268.03583	20
283.07935	19
285.02686	17

NAME: Dihydrohesperetin-7-O-neohesperidoside
PRECURSORMZ: 611.19814404783
PRECURSORTYPE: [M-H]-
INSTRUMENTTYPE: LC-ESI-QTOF
SMILES: COC1=C(O)C=C(CCC(=O)C2=C(O)C=C(OC3OC(CO)C(O)C(O)C3OC3OC(C)C(O)C(O)C3O)C=C2O)C=C1
INCHIKEY: ITVGXXMINPYUHD-UHFFFAOYNA-N
Ontology: Flavonoid O-glycosides
COLLISIONENERGY: 50
FORMULA: C28H36O15
RETENTIONTIME: 5.07335
IONMODE: Negative
Comment: registered in RIKEN PlaSMA
Num Peaks: 129
59.0115	8
83.01251	10
83.01803	6
96.01619	12
107.01073	11
107.04713	5
109.02921	7
113.01949	8
119.0516	7
121.02664	14
123.04443	33
124.00583	5
124.01495	57
124.03744	6
125.02219	930
126.02599	74
127.02656	15
134.0347	28
135.01514	5
135.04175	35
137.02461	14
138.02818	6
145.02249	11
149.01974	28
149.0273	15
149.05675	12
149.06517	21
150.01778	8
150.06499	6
150.81218	10
151.00264	219
151.03442	6
152.01024	234
153.00723	8
153.01607	41
153.99146	6
154.01566	6
159.04164	7
160.04684	7
161.02588	7
162.03375	9
165.01604	43
166.02565	1000
167.02	25
167.02994	116
167.0433	14
168.03343	18
168.04245	33
172.08885	71
172.10078	5
173.05791	24
173.09251	17
175.03784	9
175.06802	22
176.00885	6
176.04648	8
177.0768	5
179.03291	63
180.03783	7
181.04839	5
184.06133	5
185.10439	8
187.03937	23
188.05048	6
188.0826	11
193.08337	11
194.05537	6
198.07402	12
199.07693	42
200.07271	25
200.0815	23
200.09065	10
201.04132	8
201.0545	60
201.06786	13
201.08498	12
202.06171	100
203.06328	17
204.03772	72
204.04649	22
205.04233	11
206.01715	5
209.05095	5
214.02159	8
216.07098	9
216.08676	7
217.09549	5
219.06258	72
220.02454	9
220.06717	10
221.04472	6
224.08694	9
225.05101	15
226.0611	35
227.05577	5
229.05136	6
231.07047	7
239.07378	6
241.05061	13
241.08487	8
242.05521	5
244.07246	377
245.0787	42
246.08109	6
259.09195	17
259.1077	8
260.74704	7
270.03574	17
270.05099	77
285.06277	9
285.07343	17
285.08551	16
285.09732	7
286.00073	6
287.05493	10
287.0903	11
288.06229	137
289.0658	32
301.06461	6
303.07913	90
303.08963	163
304.09464	30
305.09601	8
312.0574	5
312.07581	5
315.06003	6
321.07352	8
345.09631	6
493.08502	7

NAME: Apigenin
PRECURSORMZ: 269.04554694783
PRECURSORTYPE: [M-H]-
INSTRUMENTTYPE: LC-ESI-QTOF
SMILES: OC1=CC=C(C=C1)C1=CC(=O)C2=C(O)C=C(O)C=C2O1
INCHIKEY: KZNIFHPLKGYRTM-UHFFFAOYSA-N
Ontology: Flavones
COLLISIONENERGY: 50
FORMULA: C15H10O5
RETENTIONTIME: 5.8902
IONMODE: Negative
Comment: registered in RIKEN PlaSMA
Num Peaks: 18
65.00045	31
89.03786	28
107.01321	11
116.02273	13
117.03333	1000
118.03561	60
119.03326	10
119.04554	12
121.02621	56
129.03497	37
130.04118	14
135.04115	17
148.01378	20
151.00465	17
152.02782	12
156.06001	11
167.04784	16
269.03922	25

NAME: Kaempferol-3-O-rutinoside
PRECURSORMZ: 593.15119384783
PRECURSORTYPE: [M-H]-
INSTRUMENTTYPE: LC-ESI-QTOF
SMILES: CC1OC(OCC2OC(OC3=C(OC4=CC(O)=CC(O)=C4C3=O)C3=CC=C(O)C=C3)C(O)C(O)C2O)C(O)C(O)C1O
INCHIKEY: RTATXGUCZHCSNG-UHFFFAOYNA-N
Ontology: Flavonoid-3-O-glycosides
COLLISIONENERGY: 10
FORMULA: C27H30O15
RETENTIONTIME: 4.154
IONMODE: Negative
Comment: registered in RIKEN PlaSMA
Num Peaks: 19
151.00035	7
151.00998	7
197.05621	6
227.03439	24
228.04149	7
229.05084	20
230.04921	6
241.0484	6
255.02946	87
256.03632	23
257.03973	22
257.05023	14
284.03195	309
285.03845	630
286.04227	85
287.04224	13
327.05176	13
593.15094	1000
593.19482	7

NAME: isorhamnetin-3-O-glucoside
PRECURSORMZ: 477.10384964783
PRECURSORTYPE: [M-H]-
INSTRUMENTTYPE: LC-ESI-QTOF
SMILES: COC1=C(O)C=CC(=C1)C1=C(OC2OC(CO)C(O)C(O)C2O)C(=O)C2=C(O)C=C(O)C=C2O1
INCHIKEY: CQLRUIIRRZYHHS-UHFFFAOYNA-N
Ontology: Flavonoid-3-O-glycosides
COLLISIONENERGY: 10
FORMULA: C22H22O12
RETENTIONTIME: 4.377133
IONMODE: Negative
Comment: registered in RIKEN PlaSMA
Num Peaks: 26
151.00099	19
199.04044	8
201.01913	6
215.03316	7
227.03296	9
242.01872	13
243.0276	155
244.03384	10
257.04205	37
257.05173	19
258.04764	8
270.01602	35
271.02173	175
272.03119	21
285.03745	130
286.02826	8
286.04538	44
287.05042	8
299.0123	28
300.01096	6
300.02518	24
314.04126	388
315.04651	139
316.04855	23
477.06973	7
477.10046	1000

NAME: Maritimetin-6-O-glucoside
PRECURSORMZ: 447.09328504783
PRECURSORTYPE: [M-H]-
INSTRUMENTTYPE: LC-ESI-QTOF
SMILES: OCC1OC(OC2=C(O)C3=C(C=C2)C(=O)C(O3)=CC2=CC(O)=C(O)C=C2)C(O)C(O)C1O
INCHIKEY: SYRURBPRFQUYQS-UHFFFAOYNA-N
Ontology: Aurone O-glycosides
COLLISIONENERGY: 10
FORMULA: C21H20O11
RETENTIONTIME: 3.996333
IONMODE: Negative
Comment: registered in RIKEN PlaSMA
Num Peaks: 42
106.26454	7
107.01831	7
123.00693	24
133.02289	8
133.03053	37
135.03802	9
135.04562	17
136.0417	8
136.0509	10
147.0144	6
149.02225	12
149.99022	6
149.99777	5
151.00258	9
161.02745	6
175.0013	14
177.01613	6
201.05008	10
211.0287	5
223.03055	6
232.28162	10
238.02226	10
240.04007	7
255.032	49
257.02991	12
257.04468	14
257.05679	5
258.04834	7
267.02634	7
283.01178	7
283.02521	33
283.04822	7
284.02777	87
285.03891	1000
286.04388	192
287.03806	14
287.05661	6
297.04953	7
445.06766	21
446.06805	11
446.0863	18
447.09143	254

NAME: Dihydrohesperetin-7-O-neohesperidoside
PRECURSORMZ: 611.19814404783
PRECURSORTYPE: [M-H]-
INSTRUMENTTYPE: LC-ESI-QTOF
SMILES: COC1=C(O)C=C(CCC(=O)C2=C(O)C=C(OC3OC(CO)C(O)C(O)C3OC3OC(C)C(O)C(O)C3O)C=C2O)C=C1
INCHIKEY: ITVGXXMINPYUHD-UHFFFAOYNA-N
Ontology: Flavonoid O-glycosides
COLLISIONENERGY: 10
FORMULA: C28H36O15
RETENTIONTIME: 5.07335
IONMODE: Negative
Comment: registered in RIKEN PlaSMA
Num Peaks: 31
125.02197	107
149.02457	6
152.0076	7
153.01537	5
166.02573	30
167.03331	10
200.08192	6
209.04065	11
219.06155	8
241.08571	12
244.07132	8
285.07663	9
288.06238	31
303.08517	359
304.0856	81
304.09735	22
305.09195	15
327.08893	50
345.09836	22
357.08966	7
369.09476	8
387.10513	8
387.11813	9
405.1102	10
406.12079	9
433.14661	5
491.15463	29
491.16818	10
492.16058	12
593.185	7
611.19684	1000

NAME: Apigenin
PRECURSORMZ: 269.04554694783
PRECURSORTYPE: [M-H]-
INSTRUMENTTYPE: LC-ESI-QTOF
SMILES: OC1=CC=C(C=C1)C1=CC(=O)C2=C(O)C=C(O)C=C2O1
INCHIKEY: KZNIFHPLKGYRTM-UHFFFAOYSA-N
Ontology: Flavones
COLLISIONENERGY: 10
FORMULA: C15H10O5
RETENTIONTIME: 5.8902
IONMODE: Negative
Comment: registered in RIKEN PlaSMA
Num Peaks: 17
105.03101	6
107.01197	32
117.03271	171
118.03471	8
121.02795	7
149.02376	91
150.02411	7
151.00226	94
159.04501	22
181.06514	13
183.04248	8
183.05135	10
201.05225	13
224.04227	8
225.05357	24
227.03658	5
269.04333	1000

NAME: Kaempferol-3-O-rutinoside
PRECURSORMZ: 593.15119384783
PRECURSORTYPE: [M-H]-
INSTRUMENTTYPE: LC-ESI-QTOF
SMILES: CC1OC(OCC2OC(OC3=C(OC4=CC(O)=CC(O)=C4C3=O)C3=CC=C(O)C=C3)C(O)C(O)C2O)C(O)C(O)C1O
INCHIKEY: RTATXGUCZHCSNG-UHFFFAOYNA-N
Ontology: Flavonoid-3-O-glycosides
COLLISIONENERGY: 10
FORMULA: C27H30O15
RETENTIONTIME: 4.154
IONMODE: Negative
Comment: registered in RIKEN PlaSMA
Num Peaks: 2
285.04092	28
593.151	1000

NAME: isorhamnetin-3-O-glucoside
PRECURSORMZ: 477.10384964783
PRECURSORTYPE: [M-H]-
INSTRUMENTTYPE: LC-ESI-QTOF
SMILES: COC1=C(O)C=CC(=C1)C1=C(OC2OC(CO)C(O)C(O)C2O)C(=O)C2=C(O)C=C(O)C=C2O1
INCHIKEY: CQLRUIIRRZYHHS-UHFFFAOYNA-N
Ontology: Flavonoid-3-O-glycosides
COLLISIONENERGY: 10
FORMULA: C22H22O12
RETENTIONTIME: 4.377133
IONMODE: Negative
Comment: registered in RIKEN PlaSMA
Num Peaks: 4
314.04095	17
315.04025	6
315.05414	7
477.10184	1000

NAME: Maritimetin-6-O-glucoside
PRECURSORMZ: 447.09328504783
PRECURSORTYPE: [M-H]-
INSTRUMENTTYPE: LC-ESI-QTOF
SMILES: OCC1OC(OC2=C(O)C3=C(C=C2)C(=O)C(O3)=CC2=CC(O)=C(O)C=C2)C(O)C(O)C1O
INCHIKEY: SYRURBPRFQUYQS-UHFFFAOYNA-N
Ontology: Aurone O-glycosides
COLLISIONENERGY: 10
FORMULA: C21H20O11
RETENTIONTIME: 3.996333
IONMODE: Negative
Comment: registered in RIKEN PlaSMA
Num Peaks: 15
221.80325	5
283.02576	75
284.02805	32
285.03964	739
286.03699	112
286.04666	55
287.04355	24
314.04257	8
325.04187	5
370.33838	5
445.06363	12
445.0806	31
446.06934	38
446.08313	124
447.09125	1000

NAME: Dihydrohesperetin-7-O-neohesperidoside
PRECURSORMZ: 611.19814404783
PRECURSORTYPE: [M-H]-
INSTRUMENTTYPE: LC-ESI-QTOF
SMILES: COC1=C(O)C=C(CCC(=O)C2=C(O)C=C(OC3OC(CO)C(O)C(O)C3OC3OC(C)C(O)C(O)C3O)C=C2O)C=C1
INCHIKEY: ITVGXXMINPYUHD-UHFFFAOYNA-N
Ontology: Flavonoid O-glycosides
COLLISIONENERGY: 10
FORMULA: C28H36O15
RETENTIONTIME: 5.07335
IONMODE: Negative
Comment: registered in RIKEN PlaSMA
Num Peaks: 3
491.14999	6
611.19904	1000
611.25598	6

NAME: Apigenin
PRECURSORMZ: 269.04554694783
PRECURSORTYPE: [M-H]-
INSTRUMENTTYPE: LC-ESI-QTOF
SMILES: OC1=CC=C(C=C1)C1=CC(=O)C2=C(O)C=C(O)C=C2O1
INCHIKEY: KZNIFHPLKGYRTM-UHFFFAOYSA-N
Ontology: Flavones
COLLISIONENERGY: 10
FORMULA: C15H10O5
RETENTIONTIME: 5.8902
IONMODE: Negative
Comment: registered in RIKEN PlaSMA
Num Peaks: 4
149.02173	9
151.00627	8
225.05197	10
269.04468	1000

NAME: Kaempferol-3-O-rutinoside
PRECURSORMZ: 593.15119384783
PRECURSORTYPE: [M-H]-
INSTRUMENTTYPE: LC-ESI-QTOF
SMILES: CC1OC(OCC2OC(OC3=C(OC4=CC(O)=CC(O)=C4C3=O)C3=CC=C(O)C=C3)C(O)C(O)C2O)C(O)C(O)C1O
INCHIKEY: RTATXGUCZHCSNG-UHFFFAOYNA-N
Ontology: Flavonoid-3-O-glycosides
COLLISIONENERGY: 30
FORMULA: C27H30O15
RETENTIONTIME: 4.154
IONMODE: Negative
Comment: registered in RIKEN PlaSMA
Num Peaks: 20
151.00232	27
163.00305	13
213.05482	5
227.03352	18
228.03728	5
229.05054	8
239.03003	6
241.05	6
255.02483	47
256.03058	5
257.04184	21
284.02975	524
285.03778	1000
286.04141	171
287.03101	5
287.04147	18
287.05496	5
327.04175	8
593.14307	42
593.1676	9

NAME: isorhamnetin-3-O-glucoside
PRECURSORMZ: 477.10384964783
PRECURSORTYPE: [M-H]-
INSTRUMENTTYPE: LC-ESI-QTOF
SMILES: COC1=C(O)C=CC(=C1)C1=C(OC2OC(CO)C(O)C(O)C2O)C(=O)C2=C(O)C=C(O)C=C2O1
INCHIKEY: CQLRUIIRRZYHHS-UHFFFAOYNA-N
Ontology: Flavonoid-3-O-glycosides
COLLISIONENERGY: 30
FORMULA: C22H22O12
RETENTIONTIME: 4.377133
IONMODE: Negative
Comment: registered in RIKEN PlaSMA
Num Peaks: 36
107.01237	7
150.99974	22
152.00746	12
165.01755	9
178.99779	6
227.03001	7
227.04228	8
242.01855	12
243.02817	343
244.02823	38
244.03702	18
257.04443	161
258.04907	23
270.01157	13
270.02286	32
271.02402	473
271.05771	7
272.02579	84
285.03787	439
286.04306	156
286.05154	71
287.04993	44
288.04846	13
299.0174	165
299.05811	11
300.02316	119
301.02594	15
314.0426	1000
315.0448	271
316.04813	54
317.06018	7
329.07199	10
342.03958	5
357.05792	14
477.09055	10
477.1088	33

NAME: Maritimetin-6-O-glucoside
PRECURSORMZ: 447.09328504783
PRECURSORTYPE: [M-H]-
INSTRUMENTTYPE: LC-ESI-QTOF
SMILES: OCC1OC(OC2=C(O)C3=C(C=C2)C(=O)C(O3)=CC2=CC(O)=C(O)C=C2)C(O)C(O)C1O
INCHIKEY: SYRURBPRFQUYQS-UHFFFAOYNA-N
Ontology: Aurone O-glycosides
COLLISIONENERGY: 30
FORMULA: C21H20O11
RETENTIONTIME: 3.996333
IONMODE: Negative
Comment: registered in RIKEN PlaSMA
Num Peaks: 67
107.01431	7
109.02956	8
109.03719	6
121.99638	6
123.00409	57
124.00732	12
126.02116	6
133.02728	60
135.04456	121
136.05113	6
148.00888	9
149.02051	32
149.02779	9
149.99023	6
151.00136	30
151.00868	38
159.0097	5
161.01749	5
161.02562	12
174.99756	10
175.03246	6
176.01259	23
177.01534	14
177.02989	7
178.01355	6
183.04343	5
185.0589	10
196.04126	7
197.05067	6
197.7271	7
199.03879	7
200.04584	7
201.05595	8
211.03304	15
211.04329	5
212.05186	8
213.05267	16
213.06276	5
214.01572	6
227.02412	7
229.04974	27
238.0162	9
239.03249	48
240.05241	6
241.0484	10
242.01123	8
242.0304	5
254.02667	9
255.02586	57
256.03061	24
256.04172	22
256.05179	7
257.03796	59
267.02701	9
267.03891	6
268.03018	12
282.01099	5
283.01526	18
283.02512	23
284.02966	101
285.03894	1000
285.06271	11
285.62033	5
286.04199	155
287.04489	13
288.03983	7
388.88409	6

NAME: Dihydrohesperetin-7-O-neohesperidoside
PRECURSORMZ: 611.19814404783
PRECURSORTYPE: [M-H]-
INSTRUMENTTYPE: LC-ESI-QTOF
SMILES: COC1=C(O)C=C(CCC(=O)C2=C(O)C=C(OC3OC(CO)C(O)C(O)C3OC3OC(C)C(O)C(O)C3O)C=C2O)C=C1
INCHIKEY: ITVGXXMINPYUHD-UHFFFAOYNA-N
Ontology: Flavonoid O-glycosides
COLLISIONENERGY: 30
FORMULA: C28H36O15
RETENTIONTIME: 5.07335
IONMODE: Negative
Comment: registered in RIKEN PlaSMA
Num Peaks: 41
125.0226	203
126.02581	20
149.02287	16
151.00255	8
152.00616	8
152.01517	5
153.01404	14
166.02107	25
166.03	10
167.03447	18
200.08441	11
202.06322	10
217.08952	11
219.0632	18
244.07556	14
251.05588	6
285.07407	27
286.08295	6
288.06018	55
289.07394	6
302.0831	5
303.08597	1000
304.09021	173
305.09119	26
327.08804	131
328.09344	19
329.09018	13
329.13193	5
345.09375	19
346.1015	7
347.104	5
357.08713	13
357.09894	12
357.11423	5
369.09854	24
387.10681	12
405.1254	9
433.13486	9
491.15018	72
492.16141	12
611.19855	134

NAME: Apigenin
PRECURSORMZ: 269.04554694783
PRECURSORTYPE: [M-H]-
INSTRUMENTTYPE: LC-ESI-QTOF
SMILES: OC1=CC=C(C=C1)C1=CC(=O)C2=C(O)C=C(O)C=C2O1
INCHIKEY: KZNIFHPLKGYRTM-UHFFFAOYSA-N
Ontology: Flavones
COLLISIONENERGY: 30
FORMULA: C15H10O5
RETENTIONTIME: 5.8902
IONMODE: Negative
Comment: registered in RIKEN PlaSMA
Num Peaks: 51
65.00127	26
79.01521	8
83.01176	48
93.0335	6
105.03127	38
107.01323	151
108.01571	24
108.99485	6
109.01788	5
117.03335	1000
118.03674	89
121.02832	108
131.04897	13
135.15807	6
143.05573	11
149.02277	106
150.0298	17
151.00183	156
152.00645	16
153.03764	10
155.04117	5
156.05206	11
156.06342	6
159.04449	47
160.05019	12
169.06277	18
170.0683	6
171.03873	6
180.0435	7
180.05687	22
181.06339	42
182.02995	5
182.99753	9
183.03983	47
183.05161	13
184.04723	7
185.02319	12
195.0377	5
195.04373	11
198.02715	7
199.04353	13
201.05351	25
223.03023	11
225.04665	23
226.02989	5
227.02757	5
227.03876	27
240.04224	8
268.04385	5
269.04282	9
269.05457	7

NAME: Kaempferol-3-O-rutinoside
PRECURSORMZ: 593.15119384783
PRECURSORTYPE: [M-H]-
INSTRUMENTTYPE: LC-ESI-QTOF
SMILES: CC1OC(OCC2OC(OC3=C(OC4=CC(O)=CC(O)=C4C3=O)C3=CC=C(O)C=C3)C(O)C(O)C2O)C(O)C(O)C1O
INCHIKEY: RTATXGUCZHCSNG-UHFFFAOYNA-N
Ontology: Flavonoid-3-O-glycosides
COLLISIONENERGY: 50
FORMULA: C27H30O15
RETENTIONTIME: 4.154
IONMODE: Negative
Comment: registered in RIKEN PlaSMA
Num Peaks: 65
91.0134	9
93.03094	8
107.01232	25
131.04829	5
133.02296	6
135.00612	21
136.01273	8
143.04712	13
145.02621	7
145.06305	8
149.99283	6
151.00273	24
152.00768	11
157.06206	8
159.04495	10
163.0005	25
165.0164	5
166.02318	8
167.05528	8
169.06477	5
171.04431	25
173.03285	6
173.06337	7
183.0453	17
184.05417	10
185.05896	29
185.06888	8
185.7415	5
186.06885	7
187.03926	40
189.05801	24
196.05292	18
197.06169	18
199.0369	15
199.04739	10
200.03682	8
200.04689	13
201.04903	12
211.03656	76
211.04581	30
212.04427	9
214.05884	8
215.0361	8
217.04861	6
227.03363	598
228.0396	63
229.04878	209
230.05278	25
231.05594	8
239.0331	41
240.03667	10
241.04802	28
243.02614	11
255.02943	1000
256.03287	195
257.03775	77
257.04736	60
258.04688	31
267.03152	17
283.01831	10
283.02948	8
284.03308	337
285.03772	200
286.03952	29
497.4194	6

NAME: isorhamnetin-3-O-glucoside
PRECURSORMZ: 477.10384964783
PRECURSORTYPE: [M-H]-
INSTRUMENTTYPE: LC-ESI-QTOF
SMILES: COC1=C(O)C=CC(=C1)C1=C(OC2OC(CO)C(O)C(O)C2O)C(=O)C2=C(O)C=C(O)C=C2O1
INCHIKEY: CQLRUIIRRZYHHS-UHFFFAOYNA-N
Ontology: Flavonoid-3-O-glycosides
COLLISIONENERGY: 50
FORMULA: C22H22O12
RETENTIONTIME: 4.377133
IONMODE: Negative
Comment: registered in RIKEN PlaSMA
Num Peaks: 102
107.01208	29
108.02139	6
109.02666	21
115.05618	8
119.00893	12
122.00604	6
127.05317	6
129.03362	5
131.05305	6
132.0162	8
133.02675	11
135.00891	11
138.44046	5
140.08121	6
143.04974	29
145.02832	12
146.03011	13
147.0145	6
148.01585	15
148.0412	12
151.00266	89
152.00641	10
153.03209	5
153.03955	10
155.04303	10
155.05072	8
157.02757	18
159.04709	7
161.02472	9
164.00597	8
164.01622	12
169.02536	19
171.0439	105
172.04459	9
173.02545	56
175.03699	14
178.99757	11
182.99081	6
183.04207	28
184.05389	8
185.02245	5
185.02963	8
187.03915	64
188.05029	9
189.0153	8
197.01923	87
198.02373	30
199.03929	301
200.04262	49
201.01805	148
201.03062	23
201.0453	10
202.02272	33
202.04097	8
203.02844	27
203.03825	20
208.66312	5
211.0397	9
211.04814	8
213.02005	7
214.02466	37
215.0329	242
216.03825	64
219.52931	5
225.01242	41
225.02386	10
226.02705	101
227.00464	11
227.03333	163
228.01242	11
228.03648	26
229.00244	8
229.01463	16
240.00604	5
241.01401	14
242.02007	584
243.02728	1000
244.02136	43
244.03445	117
245.03368	30
247.3264	8
252.02542	6
253.99779	6
254.01344	7
255.01559	12
255.03792	10
257.04504	122
258.04413	11
259.05145	5
269.33792	5
270.01712	523
270.79144	5
271.02478	855
272.02921	121
285.03827	156
286.03864	14
286.05688	10
287.05753	5
291.06857	6
296.88913	5
299.01657	53
300.0358	8

NAME: Maritimetin-6-O-glucoside
PRECURSORMZ: 447.09328504783
PRECURSORTYPE: [M-H]-
INSTRUMENTTYPE: LC-ESI-QTOF
SMILES: OCC1OC(OC2=C(O)C3=C(C=C2)C(=O)C(O3)=CC2=CC(O)=C(O)C=C2)C(O)C(O)C1O
INCHIKEY: SYRURBPRFQUYQS-UHFFFAOYNA-N
Ontology: Aurone O-glycosides
COLLISIONENERGY: 50
FORMULA: C21H20O11
RETENTIONTIME: 3.996333
IONMODE: Negative
Comment: registered in RIKEN PlaSMA
Num Peaks: 89
72.20511	24
94.00658	22
95.01379	59
96.01717	21
101.03456	20
104.02118	21
105.03478	32
106.00512	67
107.00993	23
107.01566	21
108.0196	19
109.02521	56
119.02257	24
120.83342	17
121.02729	47
123.00727	128
124.02143	25
129.06299	24
130.0443	20
131.68481	46
132.02017	24
133.02751	1000
134.028	40
134.03856	41
135.04552	614
135.05891	29
136.04558	109
136.05389	55
141.06494	19
145.06244	17
147.00407	37
147.0448	19
148.01091	43
148.01762	59
149.0246	31
149.98883	57
151.00258	112
152.00513	42
152.01263	50
154.0397	21
154.04796	50
155.05458	19
156.05266	21
157.05946	29
159.04146	17
161.01967	21
166.04744	24
167.05019	22
169.02795	47
171.04343	28
172.05222	27
173.06084	71
176.00867	27
177.01372	20
182.03267	17
183.03821	63
183.05128	68
184.03975	23
184.04951	23
185.05907	24
186.06676	19
187.04761	21
194.04495	25
195.0379	19
199.03683	54
200.04626	36
201.05478	109
210.02898	18
211.03471	68
211.04228	41
212.04158	33
214.06439	38
215.03378	19
227.02866	63
227.04054	31
229.04681	17
229.05469	17
238.02464	18
239.03575	103
240.0329	61
240.04222	32
255.02574	23
256.02109	27
256.03589	55
256.04416	19
257.02472	39
257.04459	19
265.0134	27
285.03836	42

NAME: Dihydrohesperetin-7-O-neohesperidoside
PRECURSORMZ: 611.19814404783
PRECURSORTYPE: [M-H]-
INSTRUMENTTYPE: LC-ESI-QTOF
SMILES: COC1=C(O)C=C(CCC(=O)C2=C(O)C=C(OC3OC(CO)C(O)C(O)C3OC3OC(C)C(O)C(O)C3O)C=C2O)C=C1
INCHIKEY: ITVGXXMINPYUHD-UHFFFAOYNA-N
Ontology: Flavonoid O-glycosides
COLLISIONENERGY: 50
FORMULA: C28H36O15
RETENTIONTIME: 5.07335
IONMODE: Negative
Comment: registered in RIKEN PlaSMA
Num Peaks: 155
57.03304	6
73.02927	7
83.01272	7
83.0167	6
85.02694	5
87.01013	6
92.36564	13
97.02319	6
104.17304	9
107.01619	19
121.02741	28
122.03394	14
123.04388	28
123.05088	6
124.01562	79
124.02581	7
125.02361	895
126.02397	53
126.03688	10
127.02779	8
131.0365	8
132.05711	9
134.03645	12
135.04869	37
136.04846	5
137.02028	5
138.03055	29
139.00117	9
139.03674	13
139.04533	6
145.02364	5
145.06786	9
148.01529	10
149.01686	7
149.02567	15
149.05754	15
149.07007	6
151.00259	175
151.03212	7
151.04124	8
152.0103	247
152.05241	6
153.01381	48
153.03146	15
155.04555	9
159.04622	7
160.0545	12
162.02666	5
165.01588	47
165.0247	19
165.0881	5
165.93613	8
166.02609	1000
167.02692	84
167.03581	98
168.03259	18
172.08817	82
173.05736	13
173.06538	10
173.089	27
174.06215	18
174.07675	10
175.03737	9
175.07088	7
176.01115	8
177.0188	21
178.05032	8
179.01955	7
179.03247	56
181.00636	5
184.04994	19
186.08771	7
187.0304	6
187.42307	5
189.0139	8
190.03088	19
191.03732	18
192.03146	7
193.08153	8
193.0878	27
195.03534	7
199.06863	7
199.0787	5
200.07713	16
200.08487	60
201.05043	7
201.05801	6
202.06311	103
203.02953	9
203.03812	15
203.0656	44
204.03787	102
205.01248	6
205.05151	7
208.0351	11
213.65611	5
215.07515	17
216.08147	13
217.0795	27
217.08804	42
219.06126	62
219.07117	62
220.04614	7
220.06894	7
221.04933	7
226.0598	41
226.32733	6
227.03221	5
227.05504	5
227.07681	7
228.03374	8
229.05014	13
231.02589	8
239.07472	5
241.07301	11
241.08707	24
242.08044	7
242.09387	7
243.06665	6
243.08115	5
244.07623	245
245.06673	18
245.07915	77
249.05434	6
252.05144	9
253.04677	8
253.05678	6
257.09	7
259.02829	6
259.0986	5
261.08029	6
269.04944	23
270.04892	36
270.06223	5
271.04968	7
271.0592	6
272.05713	7
284.14078	7
285.07376	31
286.09464	5
287.08472	14
288.06528	218
289.06821	34
294.03885	9
294.05048	11
295.05978	6
296.05643	7
299.1907	7
303.08826	274
304.08401	22
304.09454	24
308.04514	6
315.08667	5
327.08136	11
330.06979	8

NAME: Apigenin
PRECURSORMZ: 269.04554694783
PRECURSORTYPE: [M-H]-
INSTRUMENTTYPE: LC-ESI-QTOF
SMILES: OC1=CC=C(C=C1)C1=CC(=O)C2=C(O)C=C(O)C=C2O1
INCHIKEY: KZNIFHPLKGYRTM-UHFFFAOYSA-N
Ontology: Flavones
COLLISIONENERGY: 50
FORMULA: C15H10O5
RETENTIONTIME: 5.8902
IONMODE: Negative
Comment: registered in RIKEN PlaSMA
Num Peaks: 22
65.00095	18
66.00433	28
89.03706	26
90.04832	16
93.02959	20
93.03694	11
116.02611	17
117.0336	1000
117.92393	10
118.0351	81
118.03985	29
119.04031	14
129.03276	11
141.03554	12
143.04716	15
149.0209	11
154.03317	14
160.01183	13
167.05545	11
182.04207	31
186.02574	13
186.95294	12

NAME: Quercetin-3,4'-O-di-beta-glucoside
PRECURSORMZ: 625.14102304783
PRECURSORTYPE: [M-H]-
INSTRUMENTTYPE: LC-ESI-QTOF
SMILES: OCC1OC(OC2=C(O)C=C(C=C2)C2=C(OC3OC(CO)C(O)C(O)C3O)C(=O)C3=C(O)C=C(O)C=C3O2)C(O)C(O)C1O
INCHIKEY: RPVIQWDFJPYNJM-UHFFFAOYNA-N
Ontology: Flavonoid-3-O-glycosides
COLLISIONENERGY: 10
FORMULA: C27H30O17
RETENTIONTIME: 3.512883
IONMODE: Negative
Comment: registered in RIKEN PlaSMA
Num Peaks: 29
150.99739	30
151.00446	30
169.00725	6
178.99457	13
179.00365	22
180.00398	10
255.03043	17
271.01352	7
271.02682	30
272.0181	5
284.02969	7
299.01663	83
299.02655	33
300.02625	417
300.93472	6
301.03452	769
302.02524	21
302.03958	117
303.03351	20
303.05392	15
342.05429	13
414.88647	5
462.09412	11
463.08536	1000
463.13507	10
464.0903	252
465.09555	27
625.14233	407
625.18317	11

NAME: Quercetin-3-O-glucuronide
PRECURSORMZ: 477.06746414783
PRECURSORTYPE: [M-H]-
INSTRUMENTTYPE: LC-ESI-QTOF
SMILES: OC1C(O)C(OC2=C(OC3=CC(O)=CC(O)=C3C2=O)C2=CC(O)=C(O)C=C2)OC(C1O)C(O)=O
INCHIKEY: DUBCCGAQYVUYEU-UHFFFAOYNA-N
Ontology: Flavonoid-3-O-glucuronides
COLLISIONENERGY: 10
FORMULA: C21H18O13
RETENTIONTIME: 4.013533
IONMODE: Negative
Comment: registered in RIKEN PlaSMA
Num Peaks: 44
113.02901	12
119.0125	11
120.99368	15
121.0266	24
133.03499	13
151.00168	198
163.00609	9
171.04475	22
171.72153	8
178.99673	32
181.00497	19
185.02461	11
189.00876	8
190.98878	11
190.99643	12
199.03976	11
200.0466	8
211.03323	23
212.04689	9
229.04439	21
230.05171	9
240.02689	10
242.07669	9
243.02983	20
244.29379	10
245.03868	28
266.0217	11
268.13959	13
271.01074	9
271.02646	20
272.02505	18
273.03891	29
299.02319	91
299.04297	11
299.05453	13
300.01608	59
300.0318	9
301.03305	1000
302.03857	186
303.03662	17
309.61594	11
417.40125	9
477.05408	143
477.06943	226

NAME: Kaempferol-3-O-glucoside-3''-rhamnoside
PRECURSORMZ: 593.1511938
PRECURSORTYPE: [M-H]-
INSTRUMENTTYPE: LC-ESI-QTOF
SMILES: CC1OC(OC2C(O)C(CO)OC(OC3=C(OC4=CC(O)=CC(O)=C4C3=O)C3=CC=C(O)C=C3)C2O)C(O)C(O)C1O
INCHIKEY: YFPYXTNSQOUHPS-UHFFFAOYNA-N
Ontology: Flavonoid-3-O-glycosides
COLLISIONENERGY: 10
FORMULA: C27H30O15
RETENTIONTIME: 4.151183
IONMODE: Negative
Comment: registered in RIKEN PlaSMA
Num Peaks: 19
151.00447	14
178.99406	6
185.0603	6
211.03882	8
227.03613	32
229.04984	23
230.05276	9
239.0359	11
255.02414	38
255.03522	33
256.03345	39
257.03928	20
257.05289	10
284.02957	329
285.03809	748
286.04034	117
287.0358	17
357.06198	5
593.14941	1000

NAME: 7-O-Methylquercetin-3-O-galactoside-6''-rhamnoside
PRECURSORMZ: 769.21966734783
PRECURSORTYPE: [M-H]-
INSTRUMENTTYPE: LC-ESI-QTOF
SMILES: COC1=CC(O)=C2C(=O)C(OC3OC(COC4OC(C)C(O)C(OC5OC(C)C(O)C(O)C5O)C4O)C(O)C(O)C3O)=C(OC2=C1)C1=CC(O)=C(O)C=C1
INCHIKEY: NMGVHLDIHNFGQB-UHFFFAOYNA-N
Ontology: Flavonoid-3-O-glycosides
COLLISIONENERGY: 10
FORMULA: C34H42O20
RETENTIONTIME: 4.769633
IONMODE: Negative
Comment: registered in RIKEN PlaSMA
Num Peaks: 14
165.01534	8
193.01981	10
271.02777	7
299.00574	7
299.0217	33
300.03247	13
313.03415	17
314.04251	269
315.04904	354
316.05359	68
357.05432	10
357.06601	12
358.06766	7
769.21954	1000

NAME: Quercetin-3,4'-O-di-beta-glucoside
PRECURSORMZ: 625.14102304783
PRECURSORTYPE: [M-H]-
INSTRUMENTTYPE: LC-ESI-QTOF
SMILES: OCC1OC(OC2=C(O)C=C(C=C2)C2=C(OC3OC(CO)C(O)C(O)C3O)C(=O)C3=C(O)C=C(O)C=C3O2)C(O)C(O)C1O
INCHIKEY: RPVIQWDFJPYNJM-UHFFFAOYNA-N
Ontology: Flavonoid-3-O-glycosides
COLLISIONENERGY: 10
FORMULA: C27H30O17
RETENTIONTIME: 3.512883
IONMODE: Negative
Comment: registered in RIKEN PlaSMA
Num Peaks: 9
301.02649	30
301.03467	61
302.0405	7
463.08865	1000
464.09	288
465.09094	65
465.11328	9
467.35214	7
625.14166	918

NAME: Quercetin-3-O-glucuronide
PRECURSORMZ: 477.06746414783
PRECURSORTYPE: [M-H]-
INSTRUMENTTYPE: LC-ESI-QTOF
SMILES: OC1C(O)C(OC2=C(OC3=CC(O)=CC(O)=C3C2=O)C2=CC(O)=C(O)C=C2)OC(C1O)C(O)=O
INCHIKEY: DUBCCGAQYVUYEU-UHFFFAOYNA-N
Ontology: Flavonoid-3-O-glucuronides
COLLISIONENERGY: 10
FORMULA: C21H18O13
RETENTIONTIME: 4.013533
IONMODE: Negative
Comment: registered in RIKEN PlaSMA
Num Peaks: 25
146.73994	6
151.00755	8
178.99554	12
188.63527	6
236.28853	5
271.02954	5
293.40726	6
299.01617	140
299.03174	22
300.01947	89
300.27225	11
301.03571	580
302.02747	30
302.0408	121
303.0386	36
306.48987	5
323.08347	7
334.83218	7
339.84302	8
388.09616	5
471.67273	5
476.03934	5
477.06848	1000
477.10895	6
477.13342	11

NAME: Kaempferol-3-O-glucoside-3''-rhamnoside
PRECURSORMZ: 593.1511938
PRECURSORTYPE: [M-H]-
INSTRUMENTTYPE: LC-ESI-QTOF
SMILES: CC1OC(OC2C(O)C(CO)OC(OC3=C(OC4=CC(O)=CC(O)=C4C3=O)C3=CC=C(O)C=C3)C2O)C(O)C(O)C1O
INCHIKEY: YFPYXTNSQOUHPS-UHFFFAOYNA-N
Ontology: Flavonoid-3-O-glycosides
COLLISIONENERGY: 10
FORMULA: C27H30O15
RETENTIONTIME: 4.151183
IONMODE: Negative
Comment: registered in RIKEN PlaSMA
Num Peaks: 3
285.04318	25
286.04712	6
593.15063	1000

NAME: 7-O-Methylquercetin-3-O-galactoside-6''-rhamnoside
PRECURSORMZ: 769.21966734783
PRECURSORTYPE: [M-H]-
INSTRUMENTTYPE: LC-ESI-QTOF
SMILES: COC1=CC(O)=C2C(=O)C(OC3OC(COC4OC(C)C(O)C(OC5OC(C)C(O)C(O)C5O)C4O)C(O)C(O)C3O)=C(OC2=C1)C1=CC(O)=C(O)C=C1
INCHIKEY: NMGVHLDIHNFGQB-UHFFFAOYNA-N
Ontology: Flavonoid-3-O-glycosides
COLLISIONENERGY: 10
FORMULA: C34H42O20
RETENTIONTIME: 4.769633
IONMODE: Negative
Comment: registered in RIKEN PlaSMA
Num Peaks: 2
768.20825	15
769.21863	1000

NAME: Quercetin-3,4'-O-di-beta-glucoside
PRECURSORMZ: 625.14102304783
PRECURSORTYPE: [M-H]-
INSTRUMENTTYPE: LC-ESI-QTOF
SMILES: OCC1OC(OC2=C(O)C=C(C=C2)C2=C(OC3OC(CO)C(O)C(O)C3O)C(=O)C3=C(O)C=C(O)C=C3O2)C(O)C(O)C1O
INCHIKEY: RPVIQWDFJPYNJM-UHFFFAOYNA-N
Ontology: Flavonoid-3-O-glycosides
COLLISIONENERGY: 30
FORMULA: C27H30O17
RETENTIONTIME: 3.512883
IONMODE: Negative
Comment: registered in RIKEN PlaSMA
Num Peaks: 18
151.00392	18
152.00064	6
178.99306	15
179.00696	8
229.22446	5
243.53871	24
299.01169	35
299.02341	88
300.02554	450
301.00406	6
301.03384	1000
302.03702	163
303.03946	42
462.0686	8
463.08472	225
464.09302	66
465.09454	5
625.13568	29

NAME: Quercetin-3-O-glucuronide
PRECURSORMZ: 477.06746414783
PRECURSORTYPE: [M-H]-
INSTRUMENTTYPE: LC-ESI-QTOF
SMILES: OC1C(O)C(OC2=C(OC3=CC(O)=CC(O)=C3C2=O)C2=CC(O)=C(O)C=C2)OC(C1O)C(O)=O
INCHIKEY: DUBCCGAQYVUYEU-UHFFFAOYNA-N
Ontology: Flavonoid-3-O-glucuronides
COLLISIONENERGY: 30
FORMULA: C21H18O13
RETENTIONTIME: 4.013533
IONMODE: Negative
Comment: registered in RIKEN PlaSMA
Num Peaks: 59
85.02686	20
85.03162	53
95.01199	25
103.00399	20
107.01164	41
115.00537	22
121.03046	28
122.02909	48
136.01854	21
151.00136	856
152.0088	62
153.01663	27
162.91144	26
174.03659	17
175.0376	17
178.99864	467
179.99916	35
189.05336	16
190.99469	42
191.00371	18
192.00969	43
197.01205	46
199.04416	57
200.0414	18
211.03098	49
211.04422	69
214.02499	18
215.03021	16
227.03416	19
227.04185	24
229.04184	24
229.05093	20
239.03891	30
243.03857	24
244.03119	32
244.04143	49
245.04222	60
245.05759	23
255.01791	72
255.03412	82
257.0441	24
265.01242	21
270.01804	23
271.01987	156
272.02603	172
273.03302	24
274.04242	35
283.01782	93
283.03049	102
299.00635	41
299.02386	78
299.03775	34
300.00824	31
300.02127	63
301.03558	1000
302.03223	286
303.03625	17
303.73611	18
304.05334	36

NAME: Kaempferol-3-O-glucoside-3''-rhamnoside
PRECURSORMZ: 593.1511938
PRECURSORTYPE: [M-H]-
INSTRUMENTTYPE: LC-ESI-QTOF
SMILES: CC1OC(OC2C(O)C(CO)OC(OC3=C(OC4=CC(O)=CC(O)=C4C3=O)C3=CC=C(O)C=C3)C2O)C(O)C(O)C1O
INCHIKEY: YFPYXTNSQOUHPS-UHFFFAOYNA-N
Ontology: Flavonoid-3-O-glycosides
COLLISIONENERGY: 30
FORMULA: C27H30O15
RETENTIONTIME: 4.151183
IONMODE: Negative
Comment: registered in RIKEN PlaSMA
Num Peaks: 20
151.00304	17
163.00073	9
227.03323	10
229.04634	17
229.05406	11
239.03844	5
241.04207	6
255.02368	32
255.03394	45
256.02979	18
256.04642	10
257.04562	32
258.0386	5
283.01822	7
284.03217	555
285.03958	1000
286.04205	192
287.04263	18
327.05624	12
593.14557	58

NAME: 7-O-Methylquercetin-3-O-galactoside-6''-rhamnoside
PRECURSORMZ: 769.21966734783
PRECURSORTYPE: [M-H]-
INSTRUMENTTYPE: LC-ESI-QTOF
SMILES: COC1=CC(O)=C2C(=O)C(OC3OC(COC4OC(C)C(O)C(OC5OC(C)C(O)C(O)C5O)C4O)C(O)C(O)C3O)=C(OC2=C1)C1=CC(O)=C(O)C=C1
INCHIKEY: NMGVHLDIHNFGQB-UHFFFAOYNA-N
Ontology: Flavonoid-3-O-glycosides
COLLISIONENERGY: 30
FORMULA: C34H42O20
RETENTIONTIME: 4.769633
IONMODE: Negative
Comment: registered in RIKEN PlaSMA
Num Peaks: 29
121.02824	6
149.01926	8
153.02238	6
159.09575	5
165.02089	10
166.02222	8
179.00296	5
193.01004	39
194.01521	9
217.01662	6
271.05948	7
287.05609	13
299.01761	18
300.02533	10
313.02914	27
314.0423	765
315.05042	1000
316.05389	215
317.05008	7
357.04666	9
357.05875	23
357.07053	18
358.07425	12
387.07486	7
535.43005	5
548.13831	6
623.21136	6
751.18268	6
769.2182	716

NAME: Quercetin-3,4'-O-di-beta-glucoside
PRECURSORMZ: 625.14102304783
PRECURSORTYPE: [M-H]-
INSTRUMENTTYPE: LC-ESI-QTOF
SMILES: OCC1OC(OC2=C(O)C=C(C=C2)C2=C(OC3OC(CO)C(O)C(O)C3O)C(=O)C3=C(O)C=C(O)C=C3O2)C(O)C(O)C1O
INCHIKEY: RPVIQWDFJPYNJM-UHFFFAOYNA-N
Ontology: Flavonoid-3-O-glycosides
COLLISIONENERGY: 50
FORMULA: C27H30O17
RETENTIONTIME: 3.512883
IONMODE: Negative
Comment: registered in RIKEN PlaSMA
Num Peaks: 81
76.82334	8
83.01225	11
107.01169	8
109.02786	14
111.00578	10
121.02749	79
122.02996	10
123.00424	11
129.06195	12
135.00548	8
135.01439	7
136.01421	8
147.00266	10
148.01646	17
150.03308	8
150.96895	8
151.00252	615
152.00276	8
152.0103	15
153.01694	10
161.05402	7
163.00026	19
164.00648	8
164.9996	7
165.01486	9
174.02876	14
178.99025	70
178.99992	181
179.99191	7
180.00172	27
182.04999	17
185.05754	11
189.05649	15
190.99629	17
191.01009	11
192.00703	11
193.00894	14
194.01825	8
196.64516	10
200.04166	13
203.03308	11
203.04187	8
205.05132	14
210.02972	12
211.04549	14
212.0408	17
214.02322	32
214.52679	7
215.0397	8
227.03419	10
228.03537	30
243.01855	16
243.03317	98
244.02528	10
244.03583	39
244.05795	11
245.02826	16
245.05363	17
254.0287	15
255.02846	285
255.03604	110
256.02463	26
256.03687	28
257.02936	7
270.0152	9
271.02475	1000
271.52786	11
272.02722	202
273.03497	23
273.04663	9
282.69699	8
283.02768	8
284.0332	8
299.01761	354
300.02664	746
300.04196	108
301.03415	465
301.05582	22
302.03629	26
303.03122	7
303.09344	7

NAME: Kaempferol-3-O-glucoside-3''-rhamnoside
PRECURSORMZ: 593.1511938
PRECURSORTYPE: [M-H]-
INSTRUMENTTYPE: LC-ESI-QTOF
SMILES: CC1OC(OC2C(O)C(CO)OC(OC3=C(OC4=CC(O)=CC(O)=C4C3=O)C3=CC=C(O)C=C3)C2O)C(O)C(O)C1O
INCHIKEY: YFPYXTNSQOUHPS-UHFFFAOYNA-N
Ontology: Flavonoid-3-O-glycosides
COLLISIONENERGY: 50
FORMULA: C27H30O15
RETENTIONTIME: 4.151183
IONMODE: Negative
Comment: registered in RIKEN PlaSMA
Num Peaks: 81
91.01898	11
93.03182	10
107.01321	10
117.0373	9
120.01679	11
120.02588	7
123.01088	5
131.05357	13
132.02882	5
133.06589	5
135.00386	20
135.0099	6
136.01711	8
136.76241	5
141.07269	10
143.04739	15
145.03119	5
148.01926	6
151.00429	40
158.07503	7
159.04173	19
159.04857	12
160.04172	5
163.00233	42
164.0098	16
165.01653	11
167.05302	6
169.06639	14
170.0779	12
171.0407	8
173.02542	7
174.02919	6
174.05519	6
177.02411	5
183.04375	12
185.05661	8
185.06557	10
186.06216	8
187.03897	31
188.04179	8
189.05276	32
195.0463	7
195.92598	5
196.04898	17
197.0574	26
198.03467	16
198.05843	8
199.03075	12
199.0381	5
201.05585	12
202.01486	6
211.04002	53
212.04076	21
212.04953	15
213.05167	34
214.03511	6
215.02863	7
215.04033	6
227.03282	538
228.03163	31
228.04152	48
229.04898	171
230.06091	11
239.0248	8
240.03448	17
240.04539	11
241.0482	29
241.05818	14
242.05699	5
254.00966	7
255.02852	1000
256.03452	216
257.04465	127
258.03867	11
258.04846	12
267.02298	11
284.03174	287
285.03659	212
286.03345	14
286.04288	24
593.15253	41

NAME: 7-O-Methylquercetin-3-O-galactoside-6''-rhamnoside
PRECURSORMZ: 769.21966734783
PRECURSORTYPE: [M-H]-
INSTRUMENTTYPE: LC-ESI-QTOF
SMILES: COC1=CC(O)=C2C(=O)C(OC3OC(COC4OC(C)C(O)C(OC5OC(C)C(O)C(O)C5O)C4O)C(O)C(O)C3O)=C(OC2=C1)C1=CC(O)=C(O)C=C1
INCHIKEY: NMGVHLDIHNFGQB-UHFFFAOYNA-N
Ontology: Flavonoid-3-O-glycosides
COLLISIONENERGY: 50
FORMULA: C34H42O20
RETENTIONTIME: 4.769633
IONMODE: Negative
Comment: registered in RIKEN PlaSMA
Num Peaks: 41
97.03255	7
109.02995	12
121.02523	15
135.03995	6
162.99617	5
163.03802	8
164.03271	5
165.01738	150
166.01811	7
167.02599	12
190.02617	16
193.01167	35
194.0146	6
200.0433	6
211.0381	6
211.29242	5
227.03874	5
255.03188	6
256.03644	13
257.03152	6
259.0582	6
269.03717	14
269.0495	15
270.04703	10
271.01559	77
271.02634	104
271.05945	5
272.01929	21
272.03217	23
273.25519	6
285.04037	22
299.01645	1000
300.02173	204
301.01422	11
301.03049	37
302.02628	7
313.03891	9
314.03931	765
315.04575	386
316.04868	42
317.04327	12

NAME: Quercetin-3,4'-O-di-beta-glucoside
PRECURSORMZ: 625.14102304783
PRECURSORTYPE: [M-H]-
INSTRUMENTTYPE: LC-ESI-QTOF
SMILES: OCC1OC(OC2=C(O)C=C(C=C2)C2=C(OC3OC(CO)C(O)C(O)C3O)C(=O)C3=C(O)C=C(O)C=C3O2)C(O)C(O)C1O
INCHIKEY: RPVIQWDFJPYNJM-UHFFFAOYNA-N
Ontology: Flavonoid-3-O-glycosides
COLLISIONENERGY: 10
FORMULA: C27H30O17
RETENTIONTIME: 3.512883
IONMODE: Negative
Comment: registered in RIKEN PlaSMA
Num Peaks: 34
80.70265	5
150.99872	39
153.04311	7
178.98842	6
178.99911	38
179.26306	6
179.99747	6
190.03482	5
190.9989	8
191.04265	6
209.13341	7
211.04033	5
255.02731	20
271.02353	18
299.00201	6
299.02197	95
300.02625	347
301.03317	730
302.04028	172
303.04395	23
313.03799	5
343.0466	8
421.08206	7
462.08185	6
463.08844	1000
463.12357	8
464.09219	251
465.08145	27
465.10403	33
466.08344	7
484.3736	8
571.60583	6
625.14301	536
625.1936	6

NAME: Quercetin-3-O-glucuronide
PRECURSORMZ: 477.06746414783
PRECURSORTYPE: [M-H]-
INSTRUMENTTYPE: LC-ESI-QTOF
SMILES: OC1C(O)C(OC2=C(OC3=CC(O)=CC(O)=C3C2=O)C2=CC(O)=C(O)C=C2)OC(C1O)C(O)=O
INCHIKEY: DUBCCGAQYVUYEU-UHFFFAOYNA-N
Ontology: Flavonoid-3-O-glucuronides
COLLISIONENERGY: 10
FORMULA: C21H18O13
RETENTIONTIME: 4.013533
IONMODE: Negative
Comment: registered in RIKEN PlaSMA
Num Peaks: 62
71.01525	10
100.37514	15
101.02055	12
107.01329	10
113.0237	18
120.01466	17
121.02216	10
125.02565	14
135.00558	11
136.0121	9
150.99611	53
151.00461	97
152.0089	66
153.57767	9
164.00912	9
173.06538	14
175.01151	9
175.01788	12
175.04048	11
177.56938	13
178.99896	89
180.00545	18
181.00241	10
189.05069	11
192.00299	18
199.43889	8
200.04085	12
203.51486	17
211.04541	19
211.79324	9
212.03792	13
227.03131	24
228.04543	12
229.03658	8
231.03287	14
245.04384	25
255.02599	68
256.02481	10
256.03961	9
257.03558	9
271.01953	57
273.03293	23
279.04489	11
283.0231	38
284.026	11
299.01996	148
300.01868	102
300.03476	17
300.64789	9
301.03384	1000
301.98001	11
302.02518	30
302.03964	96
303.04489	61
304.03589	8
332.61871	11
408.68701	13
459.06287	9
475.05142	14
477.06644	406
477.1199	12
477.13382	9

NAME: Kaempferol-3-O-glucoside-3''-rhamnoside
PRECURSORMZ: 593.1511938
PRECURSORTYPE: [M-H]-
INSTRUMENTTYPE: LC-ESI-QTOF
SMILES: CC1OC(OC2C(O)C(CO)OC(OC3=C(OC4=CC(O)=CC(O)=C4C3=O)C3=CC=C(O)C=C3)C2O)C(O)C(O)C1O
INCHIKEY: YFPYXTNSQOUHPS-UHFFFAOYNA-N
Ontology: Flavonoid-3-O-glycosides
COLLISIONENERGY: 10
FORMULA: C27H30O15
RETENTIONTIME: 4.151183
IONMODE: Negative
Comment: registered in RIKEN PlaSMA
Num Peaks: 22
151.00005	14
199.03989	7
213.05144	10
227.03497	30
229.05057	13
241.04596	8
255.0289	92
256.03076	15
257.03104	6
257.03876	20
257.05237	14
258.05133	11
267.02621	7
283.02393	7
284.02966	321
285.03787	642
286.03894	78
286.0484	29
299.06506	6
327.05069	6
593.08044	6
593.14917	1000

NAME: 7-O-Methylquercetin-3-O-galactoside-6''-rhamnoside
PRECURSORMZ: 769.21966734783
PRECURSORTYPE: [M-H]-
INSTRUMENTTYPE: LC-ESI-QTOF
SMILES: COC1=CC(O)=C2C(=O)C(OC3OC(COC4OC(C)C(O)C(OC5OC(C)C(O)C(O)C5O)C4O)C(O)C(O)C3O)=C(OC2=C1)C1=CC(O)=C(O)C=C1
INCHIKEY: NMGVHLDIHNFGQB-UHFFFAOYNA-N
Ontology: Flavonoid-3-O-glycosides
COLLISIONENERGY: 10
FORMULA: C34H42O20
RETENTIONTIME: 4.769633
IONMODE: Negative
Comment: registered in RIKEN PlaSMA
Num Peaks: 16
165.01787	10
193.01402	10
272.02377	5
299.02197	44
300.017	8
300.02823	8
313.03815	12
314.04343	284
315.04907	312
316.03918	10
316.05487	65
317.05554	9
357.06052	14
624.15594	9
768.21375	6
769.21979	1000

NAME: Quercetin-3,4'-O-di-beta-glucoside
PRECURSORMZ: 625.14102304783
PRECURSORTYPE: [M-H]-
INSTRUMENTTYPE: LC-ESI-QTOF
SMILES: OCC1OC(OC2=C(O)C=C(C=C2)C2=C(OC3OC(CO)C(O)C(O)C3O)C(=O)C3=C(O)C=C(O)C=C3O2)C(O)C(O)C1O
INCHIKEY: RPVIQWDFJPYNJM-UHFFFAOYNA-N
Ontology: Flavonoid-3-O-glycosides
COLLISIONENERGY: 10
FORMULA: C27H30O17
RETENTIONTIME: 3.512883
IONMODE: Negative
Comment: registered in RIKEN PlaSMA
Num Peaks: 16
220.04747	6
299.49048	7
301.03372	19
301.04895	18
302.03323	8
345.90109	5
419.01242	6
447.05087	5
463.08533	960
464.08902	252
465.08148	20
465.09381	46
466.11078	6
619.36426	5
625.14008	1000
625.21185	7

NAME: Quercetin-3-O-glucuronide
PRECURSORMZ: 477.06746414783
PRECURSORTYPE: [M-H]-
INSTRUMENTTYPE: LC-ESI-QTOF
SMILES: OC1C(O)C(OC2=C(OC3=CC(O)=CC(O)=C3C2=O)C2=CC(O)=C(O)C=C2)OC(C1O)C(O)=O
INCHIKEY: DUBCCGAQYVUYEU-UHFFFAOYNA-N
Ontology: Flavonoid-3-O-glucuronides
COLLISIONENERGY: 10
FORMULA: C21H18O13
RETENTIONTIME: 4.013533
IONMODE: Negative
Comment: registered in RIKEN PlaSMA
Num Peaks: 26
78.31201	14
83.54671	9
156.89906	7
161.02303	6
175.02182	19
177.02829	10
200.28494	11
258.33478	8
286.03293	8
299.02005	167
300.01913	91
300.03616	17
301.03409	753
301.05856	8
302.0372	131
303.03113	9
303.04535	12
312.53897	12
341.04028	6
475.064	8
476.04675	6
476.08249	8
477.06967	1000
477.1113	8
477.13318	6
477.17227	6

NAME: Kaempferol-3-O-glucoside-3''-rhamnoside
PRECURSORMZ: 593.1511938
PRECURSORTYPE: [M-H]-
INSTRUMENTTYPE: LC-ESI-QTOF
SMILES: CC1OC(OC2C(O)C(CO)OC(OC3=C(OC4=CC(O)=CC(O)=C4C3=O)C3=CC=C(O)C=C3)C2O)C(O)C(O)C1O
INCHIKEY: YFPYXTNSQOUHPS-UHFFFAOYNA-N
Ontology: Flavonoid-3-O-glycosides
COLLISIONENERGY: 10
FORMULA: C27H30O15
RETENTIONTIME: 4.151183
IONMODE: Negative
Comment: registered in RIKEN PlaSMA
Num Peaks: 2
285.03964	32
593.1521	1000

NAME: 7-O-Methylquercetin-3-O-galactoside-6''-rhamnoside
PRECURSORMZ: 769.21966734783
PRECURSORTYPE: [M-H]-
INSTRUMENTTYPE: LC-ESI-QTOF
SMILES: COC1=CC(O)=C2C(=O)C(OC3OC(COC4OC(C)C(O)C(OC5OC(C)C(O)C(O)C5O)C4O)C(O)C(O)C3O)=C(OC2=C1)C1=CC(O)=C(O)C=C1
INCHIKEY: NMGVHLDIHNFGQB-UHFFFAOYNA-N
Ontology: Flavonoid-3-O-glycosides
COLLISIONENERGY: 10
FORMULA: C34H42O20
RETENTIONTIME: 4.769633
IONMODE: Negative
Comment: registered in RIKEN PlaSMA
Num Peaks: 2
313.04114	10
769.21973	1000

NAME: Quercetin-3,4'-O-di-beta-glucoside
PRECURSORMZ: 625.14102304783
PRECURSORTYPE: [M-H]-
INSTRUMENTTYPE: LC-ESI-QTOF
SMILES: OCC1OC(OC2=C(O)C=C(C=C2)C2=C(OC3OC(CO)C(O)C(O)C3O)C(=O)C3=C(O)C=C(O)C=C3O2)C(O)C(O)C1O
INCHIKEY: RPVIQWDFJPYNJM-UHFFFAOYNA-N
Ontology: Flavonoid-3-O-glycosides
COLLISIONENERGY: 30
FORMULA: C27H30O17
RETENTIONTIME: 3.512883
IONMODE: Negative
Comment: registered in RIKEN PlaSMA
Num Peaks: 17
151.00406	23
152.00021	5
178.9987	25
271.02219	11
299.01797	105
300.02646	453
300.05096	6
301.03433	1000
302.03616	110
303.02969	21
303.04242	17
343.04407	19
462.07019	8
463.08801	309
464.08585	44
465.08829	6
625.1532	19

NAME: Quercetin-3-O-glucuronide
PRECURSORMZ: 477.06746414783
PRECURSORTYPE: [M-H]-
INSTRUMENTTYPE: LC-ESI-QTOF
SMILES: OC1C(O)C(OC2=C(OC3=CC(O)=CC(O)=C3C2=O)C2=CC(O)=C(O)C=C2)OC(C1O)C(O)=O
INCHIKEY: DUBCCGAQYVUYEU-UHFFFAOYNA-N
Ontology: Flavonoid-3-O-glucuronides
COLLISIONENERGY: 30
FORMULA: C21H18O13
RETENTIONTIME: 4.013533
IONMODE: Negative
Comment: registered in RIKEN PlaSMA
Num Peaks: 68
75.00565	18
83.00986	13
107.01745	21
110.03277	20
117.0171	13
121.02634	60
141.07707	29
149.01793	14
149.02443	20
151.00294	600
152.00737	102
159.04749	15
161.01656	18
163.0062	79
163.0428	17
164.00375	15
165.01921	18
167.05284	20
171.04832	20
175.03049	16
176.89746	13
178.99718	498
179.99677	34
183.03531	16
187.03647	14
192.00972	13
193.00838	33
199.03709	32
200.04362	51
201.00835	16
201.03432	16
203.03941	17
211.04034	13
212.0417	18
227.03435	41
227.04552	23
229.54848	18
231.0235	13
238.02003	22
239.03175	13
239.04202	14
240.04311	18
243.02309	18
244.02715	15
245.03392	45
245.04181	64
255.02643	122
256.035	15
257.04901	42
258.04398	18
266.01727	15
271.01157	13
271.02884	121
271.03961	29
272.02686	50
273.03546	43
283.0235	101
284.02597	15
299.01392	52
300.02792	14
300.03799	16
300.7149	17
301.03464	1000
301.10489	23
302.03183	139
302.04184	73
303.02411	18
303.04391	14

NAME: Kaempferol-3-O-glucoside-3''-rhamnoside
PRECURSORMZ: 593.1511938
PRECURSORTYPE: [M-H]-
INSTRUMENTTYPE: LC-ESI-QTOF
SMILES: CC1OC(OC2C(O)C(CO)OC(OC3=C(OC4=CC(O)=CC(O)=C4C3=O)C3=CC=C(O)C=C3)C2O)C(O)C(O)C1O
INCHIKEY: YFPYXTNSQOUHPS-UHFFFAOYNA-N
Ontology: Flavonoid-3-O-glycosides
COLLISIONENERGY: 30
FORMULA: C27H30O15
RETENTIONTIME: 4.151183
IONMODE: Negative
Comment: registered in RIKEN PlaSMA
Num Peaks: 21
151.00037	12
151.00673	6
153.01656	6
213.05205	8
227.02895	9
227.03741	13
229.04575	25
240.04117	5
241.04265	5
255.03177	52
256.02127	7
256.03812	16
257.04626	19
284.03165	545
285.0394	1000
286.04428	145
287.03848	15
287.05453	20
327.05707	9
593.13965	21
593.15497	44

NAME: 7-O-Methylquercetin-3-O-galactoside-6''-rhamnoside
PRECURSORMZ: 769.21966734783
PRECURSORTYPE: [M-H]-
INSTRUMENTTYPE: LC-ESI-QTOF
SMILES: COC1=CC(O)=C2C(=O)C(OC3OC(COC4OC(C)C(O)C(OC5OC(C)C(O)C(O)C5O)C4O)C(O)C(O)C3O)=C(OC2=C1)C1=CC(O)=C(O)C=C1
INCHIKEY: NMGVHLDIHNFGQB-UHFFFAOYNA-N
Ontology: Flavonoid-3-O-glycosides
COLLISIONENERGY: 30
FORMULA: C34H42O20
RETENTIONTIME: 4.769633
IONMODE: Negative
Comment: registered in RIKEN PlaSMA
Num Peaks: 21
163.03917	5
165.00938	10
165.01979	9
183.02489	8
191.03433	12
193.01089	28
205.04539	13
299.02185	25
300.01941	7
313.03473	27
313.08292	5
314.04236	628
315.05057	1000
316.04349	44
316.05637	84
317.05661	24
357.05444	42
465.62723	6
477.116	6
623.16357	6
769.22375	646

NAME: Quercetin-3,4'-O-di-beta-glucoside
PRECURSORMZ: 625.14102304783
PRECURSORTYPE: [M-H]-
INSTRUMENTTYPE: LC-ESI-QTOF
SMILES: OCC1OC(OC2=C(O)C=C(C=C2)C2=C(OC3OC(CO)C(O)C(O)C3O)C(=O)C3=C(O)C=C(O)C=C3O2)C(O)C(O)C1O
INCHIKEY: RPVIQWDFJPYNJM-UHFFFAOYNA-N
Ontology: Flavonoid-3-O-glycosides
COLLISIONENERGY: 50
FORMULA: C27H30O17
RETENTIONTIME: 3.512883
IONMODE: Negative
Comment: registered in RIKEN PlaSMA
Num Peaks: 86
65.00028	8
65.00501	16
65.04095	11
107.0125	70
109.02747	11
121.02242	29
121.02983	33
123.04557	8
135.00189	8
136.00989	12
147.00282	12
148.00945	8
149.02994	12
151.00323	662
151.99606	8
152.00627	32
161.0302	10
161.1172	9
163.00526	23
163.01089	10
163.03279	12
171.03503	9
171.04593	9
175.00089	10
176.04982	8
178.99191	132
179.0002	141
179.99095	18
180.00455	24
180.99939	11
181.40431	8
183.03813	16
185.05621	12
187.03445	26
189.0193	7
189.04681	8
198.03169	8
199.03708	16
201.05914	8
205.0524	9
211.03169	11
211.04321	14
216.03477	10
226.02408	10
227.0351	57
228.03044	9
228.0425	8
229.04819	22
238.03842	9
239.03816	9
239.04868	17
240.0522	8
243.0305	60
244.03471	22
245.04185	18
246.06226	8
254.02672	50
254.99736	9
255.02797	413
256.02765	77
256.04233	24
257.02936	8
257.04547	36
259.01651	8
266.02585	8
271.02353	843
271.04517	10
271.87158	11
272.02518	168
273.02695	20
273.04007	22
279.02289	10
283.02274	40
299.01978	336
299.03314	62
300.02518	1000
300.06152	11
301.03256	380
302.01929	9
302.03394	88
302.05762	9
303.04434	7
303.22012	19
325.02637	11
343.03925	10
463.10541	8

NAME: Quercetin-3-O-glucuronide
PRECURSORMZ: 477.06746414783
PRECURSORTYPE: [M-H]-
INSTRUMENTTYPE: LC-ESI-QTOF
SMILES: OC1C(O)C(OC2=C(OC3=CC(O)=CC(O)=C3C2=O)C2=CC(O)=C(O)C=C2)OC(C1O)C(O)=O
INCHIKEY: DUBCCGAQYVUYEU-UHFFFAOYNA-N
Ontology: Flavonoid-3-O-glucuronides
COLLISIONENERGY: 50
FORMULA: C21H18O13
RETENTIONTIME: 4.013533
IONMODE: Negative
Comment: registered in RIKEN PlaSMA
Num Peaks: 54
63.02271	164
91.01586	120
93.03252	69
93.0372	91
99.00689	73
102.04168	65
108.02142	149
109.02818	222
119.00967	105
121.02468	116
121.03153	145
124.01192	73
127.05302	65
131.04901	76
144.05388	76
147.04347	65
151.00221	1000
152.01019	171
155.04393	73
157.01749	91
160.0209	80
161.02325	138
164.01271	171
171.04308	436
172.04242	95
172.05441	69
173.02536	84
179.00706	87
183.03336	113
183.04964	95
193.00929	109
195.03432	95
198.02399	80
198.03601	98
198.04845	105
199.03665	276
201.05919	258
202.02724	102
203.04288	182
212.04459	76
212.05325	69
227.03224	69
227.04163	124
229.04784	65
243.0235	131
244.0435	91
245.04378	127
255.01079	73
255.03174	160
271.02042	80
273.03784	80
284.02966	76
301.03003	73
363.08121	87

NAME: Kaempferol-3-O-glucoside-3''-rhamnoside
PRECURSORMZ: 593.1511938
PRECURSORTYPE: [M-H]-
INSTRUMENTTYPE: LC-ESI-QTOF
SMILES: CC1OC(OC2C(O)C(CO)OC(OC3=C(OC4=CC(O)=CC(O)=C4C3=O)C3=CC=C(O)C=C3)C2O)C(O)C(O)C1O
INCHIKEY: YFPYXTNSQOUHPS-UHFFFAOYNA-N
Ontology: Flavonoid-3-O-glycosides
COLLISIONENERGY: 50
FORMULA: C27H30O15
RETENTIONTIME: 4.151183
IONMODE: Negative
Comment: registered in RIKEN PlaSMA
Num Peaks: 62
93.03065	17
107.01443	13
121.02504	8
135.00725	31
136.01326	12
143.04489	5
145.03085	6
150.99916	23
152.00691	15
156.05154	5
157.06764	7
159.04279	44
162.99759	28
163.00584	11
165.01559	11
167.04694	9
171.04083	18
171.04913	6
182.0477	6
183.03951	11
184.05122	13
185.0601	26
185.07109	9
187.03979	57
189.05818	29
190.06326	12
195.04303	11
196.05237	10
197.05832	16
198.03326	9
199.03087	9
199.04265	9
200.05443	6
201.06218	10
202.05453	6
211.03505	35
212.0452	12
213.05104	21
215.03918	20
216.03641	9
227.03282	508
228.03801	67
229.05032	188
230.05489	34
231.04726	7
239.0325	34
239.04428	10
240.04623	20
241.05	31
242.04733	7
255.02893	1000
256.03378	181
257.04315	121
257.66986	7
258.05057	21
259.04218	8
267.02783	11
284.03311	186
285.03131	86
285.03915	165
286.04422	8
286.05576	17

NAME: 7-O-Methylquercetin-3-O-galactoside-6''-rhamnoside
PRECURSORMZ: 769.21966734783
PRECURSORTYPE: [M-H]-
INSTRUMENTTYPE: LC-ESI-QTOF
SMILES: COC1=CC(O)=C2C(=O)C(OC3OC(COC4OC(C)C(O)C(OC5OC(C)C(O)C(O)C5O)C4O)C(O)C(O)C3O)=C(OC2=C1)C1=CC(O)=C(O)C=C1
INCHIKEY: NMGVHLDIHNFGQB-UHFFFAOYNA-N
Ontology: Flavonoid-3-O-glycosides
COLLISIONENERGY: 50
FORMULA: C34H42O20
RETENTIONTIME: 4.769633
IONMODE: Negative
Comment: registered in RIKEN PlaSMA
Num Peaks: 43
109.02561	6
121.02683	14
149.02061	7
153.02144	5
165.01698	137
173.02327	6
175.03735	5
179.03076	10
183.0538	8
193.00713	37
194.02783	7
218.49863	6
227.02583	7
228.04218	7
238.46571	6
243.06102	6
254.01366	5
256.03024	8
260.05508	5
264.10767	6
265.11047	5
268.03253	9
269.04712	19
270.03644	6
270.05093	8
271.00275	8
271.02496	155
272.01569	8
272.02814	12
285.02637	6
285.04755	7
287.05154	23
299.01871	1000
300.02228	278
301.02563	37
302.01474	5
314.04153	872
315.04791	343
316.04962	93
317.05566	6
318.04993	6
357.04245	5
368.548	5

NAME: Quercetin-3,4'-O-di-beta-glucoside
PRECURSORMZ: 625.14102304783
PRECURSORTYPE: [M-H]-
INSTRUMENTTYPE: LC-ESI-QTOF
SMILES: OCC1OC(OC2=C(O)C=C(C=C2)C2=C(OC3OC(CO)C(O)C(O)C3O)C(=O)C3=C(O)C=C(O)C=C3O2)C(O)C(O)C1O
INCHIKEY: RPVIQWDFJPYNJM-UHFFFAOYNA-N
Ontology: Flavonoid-3-O-glycosides
COLLISIONENERGY: 10
FORMULA: C27H30O17
RETENTIONTIME: 3.512883
IONMODE: Negative
Comment: registered in RIKEN PlaSMA
Num Peaks: 31
150.99916	14
151.0078	16
152.00352	12
178.99274	19
179.00233	23
180.00121	5
229.04791	8
255.02448	7
255.0334	7
256.02844	6
271.02512	25
272.03326	10
273.04306	11
297.03229	8
299.01895	91
300.02658	368
301.03348	825
302.03561	123
302.05856	9
303.04782	27
313.07162	5
343.04324	18
388.13644	6
388.63675	5
462.08109	9
463.08578	1000
464.08835	295
465.08249	34
465.10059	39
466.10938	8
625.14252	530

NAME: Quercetin-3-O-glucuronide
PRECURSORMZ: 477.06746414783
PRECURSORTYPE: [M-H]-
INSTRUMENTTYPE: LC-ESI-QTOF
SMILES: OC1C(O)C(OC2=C(OC3=CC(O)=CC(O)=C3C2=O)C2=CC(O)=C(O)C=C2)OC(C1O)C(O)=O
INCHIKEY: DUBCCGAQYVUYEU-UHFFFAOYNA-N
Ontology: Flavonoid-3-O-glucuronides
COLLISIONENERGY: 10
FORMULA: C21H18O13
RETENTIONTIME: 4.013533
IONMODE: Negative
Comment: registered in RIKEN PlaSMA
Num Peaks: 59
71.00959	7
83.00919	12
85.02863	9
88.99902	13
95.0127	9
95.99729	7
107.01323	17
121.02436	29
127.21919	8
136.0154	9
145.06773	8
147.02628	9
150.02469	7
151.00266	228
152.00781	7
152.48575	8
157.03407	9
159.03362	9
163.00226	18
171.03838	11
171.78632	8
174.03403	13
178.99823	68
180.00204	10
195.88481	9
200.03537	7
211.03712	7
212.93291	12
227.04274	9
229.05527	10
231.02837	11
233.04514	8
239.03111	8
244.03712	9
245.04561	32
255.0231	8
255.04155	10
256.02478	7
256.0444	24
257.0416	11
266.01971	17
271.02634	96
272.02713	42
273.03293	35
273.05045	15
282.02084	7
283.01846	7
283.02966	11
299.01492	57
299.02472	61
299.0397	10
300.02075	110
301.03284	1000
301.24411	7
302.03696	161
303.03928	58
323.07178	16
477.06299	306
477.07812	124

NAME: Kaempferol-3-O-glucoside-3''-rhamnoside
PRECURSORMZ: 593.1511938
PRECURSORTYPE: [M-H]-
INSTRUMENTTYPE: LC-ESI-QTOF
SMILES: CC1OC(OC2C(O)C(CO)OC(OC3=C(OC4=CC(O)=CC(O)=C4C3=O)C3=CC=C(O)C=C3)C2O)C(O)C(O)C1O
INCHIKEY: YFPYXTNSQOUHPS-UHFFFAOYNA-N
Ontology: Flavonoid-3-O-glycosides
COLLISIONENERGY: 10
FORMULA: C27H30O15
RETENTIONTIME: 4.151183
IONMODE: Negative
Comment: registered in RIKEN PlaSMA
Num Peaks: 19
150.99962	18
199.03564	5
200.03235	5
227.02779	16
227.03557	19
229.05176	17
241.04861	5
255.02789	75
256.03735	18
257.04431	40
267.02679	9
284.00659	5
284.03241	349
285.03992	669
286.04178	88
287.04584	13
327.05115	12
357.06955	7
593.1496	1000

NAME: 7-O-Methylquercetin-3-O-galactoside-6''-rhamnoside
PRECURSORMZ: 769.21966734783
PRECURSORTYPE: [M-H]-
INSTRUMENTTYPE: LC-ESI-QTOF
SMILES: COC1=CC(O)=C2C(=O)C(OC3OC(COC4OC(C)C(O)C(OC5OC(C)C(O)C(O)C5O)C4O)C(O)C(O)C3O)=C(OC2=C1)C1=CC(O)=C(O)C=C1
INCHIKEY: NMGVHLDIHNFGQB-UHFFFAOYNA-N
Ontology: Flavonoid-3-O-glycosides
COLLISIONENERGY: 10
FORMULA: C34H42O20
RETENTIONTIME: 4.769633
IONMODE: Negative
Comment: registered in RIKEN PlaSMA
Num Peaks: 16
165.01912	17
191.03123	6
193.01204	19
299.01797	39
300.02271	11
300.03625	5
313.02652	9
313.04175	10
314.04327	297
315.04785	262
316.04343	18
316.05347	60
357.06964	8
623.15259	6
768.2113	6
769.22021	1000

NAME: Quercetin-3,4'-O-di-beta-glucoside
PRECURSORMZ: 625.14102304783
PRECURSORTYPE: [M-H]-
INSTRUMENTTYPE: LC-ESI-QTOF
SMILES: OCC1OC(OC2=C(O)C=C(C=C2)C2=C(OC3OC(CO)C(O)C(O)C3O)C(=O)C3=C(O)C=C(O)C=C3O2)C(O)C(O)C1O
INCHIKEY: RPVIQWDFJPYNJM-UHFFFAOYNA-N
Ontology: Flavonoid-3-O-glycosides
COLLISIONENERGY: 10
FORMULA: C27H30O17
RETENTIONTIME: 3.512883
IONMODE: Negative
Comment: registered in RIKEN PlaSMA
Num Peaks: 10
301.03534	36
301.05072	5
302.02994	5
463.08896	1000
464.09125	221
464.13962	8
465.08875	21
465.10486	12
466.09982	5
625.14105	947

NAME: Quercetin-3-O-glucuronide
PRECURSORMZ: 477.06746414783
PRECURSORTYPE: [M-H]-
INSTRUMENTTYPE: LC-ESI-QTOF
SMILES: OC1C(O)C(OC2=C(OC3=CC(O)=CC(O)=C3C2=O)C2=CC(O)=C(O)C=C2)OC(C1O)C(O)=O
INCHIKEY: DUBCCGAQYVUYEU-UHFFFAOYNA-N
Ontology: Flavonoid-3-O-glucuronides
COLLISIONENERGY: 10
FORMULA: C21H18O13
RETENTIONTIME: 4.013533
IONMODE: Negative
Comment: registered in RIKEN PlaSMA
Num Peaks: 22
179.00049	6
179.95134	5
226.94781	16
245.95706	5
251.06129	5
261.04059	9
286.23224	6
295.64444	9
299.01923	153
300.02307	143
301.03525	699
301.50714	7
302.02127	16
302.03726	102
303.03461	15
304.04617	6
432.06702	7
438.39502	6
475.04031	6
477.06665	1000
477.10947	5
477.13843	8

NAME: Kaempferol-3-O-glucoside-3''-rhamnoside
PRECURSORMZ: 593.1511938
PRECURSORTYPE: [M-H]-
INSTRUMENTTYPE: LC-ESI-QTOF
SMILES: CC1OC(OC2C(O)C(CO)OC(OC3=C(OC4=CC(O)=CC(O)=C4C3=O)C3=CC=C(O)C=C3)C2O)C(O)C(O)C1O
INCHIKEY: YFPYXTNSQOUHPS-UHFFFAOYNA-N
Ontology: Flavonoid-3-O-glycosides
COLLISIONENERGY: 10
FORMULA: C27H30O15
RETENTIONTIME: 4.151183
IONMODE: Negative
Comment: registered in RIKEN PlaSMA
Num Peaks: 3
285.03967	23
593.14899	1000
593.20129	6

NAME: 7-O-Methylquercetin-3-O-galactoside-6''-rhamnoside
PRECURSORMZ: 769.21966734783
PRECURSORTYPE: [M-H]-
INSTRUMENTTYPE: LC-ESI-QTOF
SMILES: COC1=CC(O)=C2C(=O)C(OC3OC(COC4OC(C)C(O)C(OC5OC(C)C(O)C(O)C5O)C4O)C(O)C(O)C3O)=C(OC2=C1)C1=CC(O)=C(O)C=C1
INCHIKEY: NMGVHLDIHNFGQB-UHFFFAOYNA-N
Ontology: Flavonoid-3-O-glycosides
COLLISIONENERGY: 10
FORMULA: C34H42O20
RETENTIONTIME: 4.769633
IONMODE: Negative
Comment: registered in RIKEN PlaSMA
Num Peaks: 2
769.21893	1000
769.27557	5

NAME: Quercetin-3,4'-O-di-beta-glucoside
PRECURSORMZ: 625.14102304783
PRECURSORTYPE: [M-H]-
INSTRUMENTTYPE: LC-ESI-QTOF
SMILES: OCC1OC(OC2=C(O)C=C(C=C2)C2=C(OC3OC(CO)C(O)C(O)C3O)C(=O)C3=C(O)C=C(O)C=C3O2)C(O)C(O)C1O
INCHIKEY: RPVIQWDFJPYNJM-UHFFFAOYNA-N
Ontology: Flavonoid-3-O-glycosides
COLLISIONENERGY: 30
FORMULA: C27H30O17
RETENTIONTIME: 3.512883
IONMODE: Negative
Comment: registered in RIKEN PlaSMA
Num Peaks: 20
151.00124	24
154.11292	6
178.99831	16
228.40681	6
271.02856	6
299.01303	70
299.02319	76
300.02612	534
301.03375	1000
301.06079	13
302.03809	210
303.0383	25
343.03204	6
343.04956	8
462.08246	21
463.08844	286
463.129	6
464.08902	78
465.09415	9
625.14386	23

NAME: Quercetin-3-O-glucuronide
PRECURSORMZ: 477.06746414783
PRECURSORTYPE: [M-H]-
INSTRUMENTTYPE: LC-ESI-QTOF
SMILES: OC1C(O)C(OC2=C(OC3=CC(O)=CC(O)=C3C2=O)C2=CC(O)=C(O)C=C2)OC(C1O)C(O)=O
INCHIKEY: DUBCCGAQYVUYEU-UHFFFAOYNA-N
Ontology: Flavonoid-3-O-glucuronides
COLLISIONENERGY: 30
FORMULA: C21H18O13
RETENTIONTIME: 4.013533
IONMODE: Negative
Comment: registered in RIKEN PlaSMA
Num Peaks: 70
65.00211	25
72.01436	17
85.02962	25
107.01256	97
117.03003	23
121.03062	15
123.04002	17
125.01802	20
133.03453	23
141.06689	17
149.01932	29
151.00177	738
151.01331	51
151.9994	23
152.00859	15
152.99786	17
153.00478	14
154.03816	21
162.99922	149
163.01088	17
175.03796	15
175.04851	15
175.7478	14
177.05835	24
178.99751	581
179.99451	16
181.00516	15
185.02507	14
186.0645	17
189.04895	29
192.00131	15
193.01949	21
194.01389	20
197.00601	19
198.03517	34
199.02702	15
201.05214	35
211.04187	23
212.02838	15
212.04881	20
213.01805	15
217.04886	18
227.03802	37
228.02678	14
228.03648	32
229.05792	28
233.03862	17
240.04324	15
243.01942	52
243.03098	25
245.03413	57
245.04675	86
246.05447	17
255.02544	135
256.02887	44
257.0607	23
266.03088	15
271.01971	116
272.02899	126
273.03607	96
274.03156	17
283.02597	27
299.00531	14
299.02225	63
300.01337	51
300.0293	46
301.03397	1000
301.0546	29
302.03387	164
302.05527	78

NAME: Kaempferol-3-O-glucoside-3''-rhamnoside
PRECURSORMZ: 593.1511938
PRECURSORTYPE: [M-H]-
INSTRUMENTTYPE: LC-ESI-QTOF
SMILES: CC1OC(OC2C(O)C(CO)OC(OC3=C(OC4=CC(O)=CC(O)=C4C3=O)C3=CC=C(O)C=C3)C2O)C(O)C(O)C1O
INCHIKEY: YFPYXTNSQOUHPS-UHFFFAOYNA-N
Ontology: Flavonoid-3-O-glycosides
COLLISIONENERGY: 30
FORMULA: C27H30O15
RETENTIONTIME: 4.151183
IONMODE: Negative
Comment: registered in RIKEN PlaSMA
Num Peaks: 21
151.0018	23
178.99617	8
213.05725	11
227.03647	25
229.04805	24
239.04144	7
241.04707	9
241.06267	8
255.02924	94
256.03912	20
257.04642	26
258.04422	9
261.99789	5
284.03247	620
285.03961	1000
286.04379	151
287.04599	24
327.04175	14
327.05573	10
593.14075	38
593.16052	28

NAME: 7-O-Methylquercetin-3-O-galactoside-6''-rhamnoside
PRECURSORMZ: 769.21966734783
PRECURSORTYPE: [M-H]-
INSTRUMENTTYPE: LC-ESI-QTOF
SMILES: COC1=CC(O)=C2C(=O)C(OC3OC(COC4OC(C)C(O)C(OC5OC(C)C(O)C(O)C5O)C4O)C(O)C(O)C3O)=C(OC2=C1)C1=CC(O)=C(O)C=C1
INCHIKEY: NMGVHLDIHNFGQB-UHFFFAOYNA-N
Ontology: Flavonoid-3-O-glycosides
COLLISIONENERGY: 30
FORMULA: C34H42O20
RETENTIONTIME: 4.769633
IONMODE: Negative
Comment: registered in RIKEN PlaSMA
Num Peaks: 25
109.02723	10
165.01227	15
183.03087	7
190.02528	6
191.0361	19
193.01332	34
271.0162	9
271.04932	6
272.02444	7
272.03351	7
287.04938	11
287.06247	10
299.01212	15
313.03522	8
314.04108	779
315.01703	6
315.04861	1000
316.05371	194
317.04971	5
317.06735	11
357.06046	38
387.06247	11
388.07019	5
623.16077	11
769.2215	825

NAME: Quercetin-3,4'-O-di-beta-glucoside
PRECURSORMZ: 625.14102304783
PRECURSORTYPE: [M-H]-
INSTRUMENTTYPE: LC-ESI-QTOF
SMILES: OCC1OC(OC2=C(O)C=C(C=C2)C2=C(OC3OC(CO)C(O)C(O)C3O)C(=O)C3=C(O)C=C(O)C=C3O2)C(O)C(O)C1O
INCHIKEY: RPVIQWDFJPYNJM-UHFFFAOYNA-N
Ontology: Flavonoid-3-O-glycosides
COLLISIONENERGY: 50
FORMULA: C27H30O17
RETENTIONTIME: 3.512883
IONMODE: Negative
Comment: registered in RIKEN PlaSMA
Num Peaks: 80
63.02102	7
83.01305	10
107.00858	18
107.01458	32
108.01566	10
111.00865	7
112.25757	8
121.02889	25
122.03409	28
124.02229	7
125.02269	18
143.04797	7
148.01306	7
149.01544	8
149.02853	11
151.0022	660
152.00444	30
152.00969	20
152.47285	7
153.01529	9
159.04051	8
163.00261	19
163.00955	7
164.00566	11
164.01436	12
173.03922	7
175.07158	9
178.99881	263
181.00027	14
183.04053	20
185.06467	8
186.04091	13
187.03217	10
187.04294	9
189.05692	7
189.06517	8
192.00102	11
201.01715	10
201.05046	8
205.05728	8
211.04063	10
212.05336	9
214.12198	7
215.03496	7
216.05455	9
217.04921	10
227.03923	35
229.04335	46
230.04211	8
235.03979	9
239.04456	7
243.02907	87
244.02956	40
246.05086	7
246.06581	10
254.02399	32
255.02724	358
255.0565	7
256.03131	46
257.03751	17
271.02399	1000
272.02716	145
272.50156	9
273.03494	36
274.02246	7
274.03046	8
283.02328	41
287.15854	7
297.039	8
299.02158	278
300.02744	929
301.03278	414
301.06293	9
301.22025	10
302.03842	48
314.04184	8
342.87613	9
371.06564	7
404.36896	7
469.52402	7

NAME: Quercetin-3-O-glucuronide
PRECURSORMZ: 477.06746414783
PRECURSORTYPE: [M-H]-
INSTRUMENTTYPE: LC-ESI-QTOF
SMILES: OC1C(O)C(OC2=C(OC3=CC(O)=CC(O)=C3C2=O)C2=CC(O)=C(O)C=C2)OC(C1O)C(O)=O
INCHIKEY: DUBCCGAQYVUYEU-UHFFFAOYNA-N
Ontology: Flavonoid-3-O-glucuronides
COLLISIONENERGY: 50
FORMULA: C21H18O13
RETENTIONTIME: 4.013533
IONMODE: Negative
Comment: registered in RIKEN PlaSMA
Num Peaks: 62
53.15403	77
63.02061	52
71.01627	54
83.01438	57
107.01332	271
107.01992	62
108.0146	144
109.02854	209
109.036	54
119.01269	121
121.02648	193
129.03061	67
130.04372	67
131.04417	85
132.05679	90
133.02629	80
135.00716	75
140.08836	46
147.05106	80
148.01636	59
150.02469	54
151.00082	1000
152.00272	88
152.01053	147
155.04881	59
157.02354	67
157.032	80
159.04402	62
161.0193	80
163.00092	219
166.02768	52
172.05565	62
174.02405	52
175.03349	52
185.01154	52
192.00694	75
195.03424	108
198.0291	77
199.03325	98
199.04971	85
200.03477	57
211.03445	49
227.03699	54
228.04341	165
229.04938	46
241.04056	52
242.00536	59
244.0331	93
245.03154	111
245.04051	124
255.02011	52
255.03119	85
256.03271	46
257.02563	72
266.02527	52
267.02783	46
271.02075	98
271.03244	134
272.02841	103
299.00821	57
302.02789	52
307.7775	49

NAME: Kaempferol-3-O-glucoside-3''-rhamnoside
PRECURSORMZ: 593.1511938
PRECURSORTYPE: [M-H]-
INSTRUMENTTYPE: LC-ESI-QTOF
SMILES: CC1OC(OC2C(O)C(CO)OC(OC3=C(OC4=CC(O)=CC(O)=C4C3=O)C3=CC=C(O)C=C3)C2O)C(O)C(O)C1O
INCHIKEY: YFPYXTNSQOUHPS-UHFFFAOYNA-N
Ontology: Flavonoid-3-O-glycosides
COLLISIONENERGY: 50
FORMULA: C27H30O15
RETENTIONTIME: 4.151183
IONMODE: Negative
Comment: registered in RIKEN PlaSMA
Num Peaks: 69
79.01787	6
93.03368	15
97.03228	8
107.01231	22
135.00409	33
135.01259	8
141.07547	11
144.04929	7
145.02957	5
148.0188	6
151.007	21
159.04504	24
161.05327	7
162.99951	24
163.00882	6
164.00925	7
165.01559	5
169.05449	9
169.06512	6
169.07135	5
171.03886	12
171.04662	13
173.01787	8
183.0495	11
185.02507	7
185.05777	32
185.06493	24
187.04085	39
189.05182	15
190.06421	6
195.03703	7
197.06172	8
199.04271	15
201.05579	11
211.039	57
212.04015	12
213.05208	16
214.02986	5
214.03862	6
215.02998	7
223.03143	9
227.03297	504
228.03674	81
228.05244	12
229.04912	218
230.04083	6
230.05746	38
239.03621	23
240.04132	45
241.04634	20
251.94119	6
255.02872	1000
255.05241	5
256.02789	108
256.04016	79
257.03323	30
257.04514	70
258.03589	10
258.04727	8
259.04443	6
267.02417	9
267.04147	5
268.04572	9
283.0256	8
284.0303	205
285.03754	231
286.04056	25
367.2702	6
375.27982	6

NAME: 7-O-Methylquercetin-3-O-galactoside-6''-rhamnoside
PRECURSORMZ: 769.21966734783
PRECURSORTYPE: [M-H]-
INSTRUMENTTYPE: LC-ESI-QTOF
SMILES: COC1=CC(O)=C2C(=O)C(OC3OC(COC4OC(C)C(O)C(OC5OC(C)C(O)C(O)C5O)C4O)C(O)C(O)C3O)=C(OC2=C1)C1=CC(O)=C(O)C=C1
INCHIKEY: NMGVHLDIHNFGQB-UHFFFAOYNA-N
Ontology: Flavonoid-3-O-glycosides
COLLISIONENERGY: 50
FORMULA: C34H42O20
RETENTIONTIME: 4.769633
IONMODE: Negative
Comment: registered in RIKEN PlaSMA
Num Peaks: 39
109.02611	12
121.02804	6
121.03321	13
139.04059	8
151.00327	8
165.01706	148
166.0192	17
166.02843	9
186.99902	6
191.0322	10
193.01176	56
194.01324	13
226.03622	7
227.03514	9
228.03931	12
243.03262	9
244.03375	5
254.02374	7
255.0182	13
255.03456	7
259.06442	8
269.04813	24
271.02362	167
272.02765	71
273.01639	8
285.03677	37
286.03424	13
287.05151	8
299.01862	1000
299.85901	5
300.02405	226
301.02872	20
302.02643	9
314.04105	725
315.04724	389
316.04755	49
316.06027	16
317.05887	21
357.06033	13

NAME: Delphinidin-3-O-sambubioside
PRECURSORMZ: 595.12990981576
PRECURSORTYPE: [M-2H]-
INSTRUMENTTYPE: LC-ESI-QTOF
SMILES: OCC1OC(OC2=C([O+]=C3C=C(O)C=C(O)C3=C2)C2=CC(O)=C(O)C(O)=C2)C(OC2OCC(O)C(O)C2O)C(O)C1O
INCHIKEY: TWYYVOVDSNRIJM-UHFFFAOYNA-O
Ontology: Anthocyanidin-3-O-glycosides
COLLISIONENERGY: 10
FORMULA: C26H29O16
RETENTIONTIME: 2.6614
IONMODE: Negative
Comment: registered in RIKEN PlaSMA
Num Peaks: 18
124.01432	45
164.00394	31
197.02499	45
214.02583	35
283.01819	30
299.01291	43
300.02869	1000
301.02594	281
311.01184	33
311.06354	30
313.03131	38
327.02786	35
355.04611	40
356.04559	48
404.03873	30
595.08936	51
595.12695	559
595.17944	46

NAME: isorhamnetin-3-glucoside-4'-glucoside (Isorhamnetin 3,4'-diglucoside)
PRECURSORMZ: 639.1566731
PRECURSORTYPE: [M-H]-
INSTRUMENTTYPE: LC-ESI-QTOF
SMILES: COC1=C(OC2OC(CO)C(O)C(O)C2O)C=CC(=C1)C1=C(OC2OC(CO)C(O)C(O)C2O)C(=O)C2=C(O)C=C(O)C=C2O1
INCHIKEY: VKVBSQRURLRCHO-UHFFFAOYNA-N
Ontology: Flavonoid-3-O-glycosides
COLLISIONENERGY: 10
FORMULA: C28H32O17
RETENTIONTIME: 3.229367
IONMODE: Negative
Comment: registered in RIKEN PlaSMA
Num Peaks: 61
59.01384	5
150.9994	6
167.48669	8
178.99396	5
200.95668	5
242.00739	6
243.03236	12
246.86517	6
255.02299	7
270.01312	21
285.03876	15
285.05023	6
287.39856	5
292.83847	8
295.02502	5
298.00375	7
299.01865	44
300.02576	43
303.06561	5
306.84302	6
311.04114	7
313.03296	437
314.03983	176
314.96237	5
315.04813	639
315.10294	7
316.05414	111
317.05185	7
320.12299	5
329.0571	10
356.05576	12
357.05786	36
359.07294	13
368.10052	6
374.80002	6
379.07767	6
381.05075	12
402.07068	7
413.27902	6
442.07938	6
461.08191	32
462.05118	6
462.07407	6
476.09122	123
477.10156	746
478.10541	184
479.10052	28
479.11526	18
491.06525	9
514.98004	6
519.11737	36
520.10248	19
520.12695	27
521.12732	6
611.11554	8
625.63184	6
626.69586	9
631.56604	5
636.91547	7
638.73187	6
639.15497	1000

NAME: Procyanidin C1
PRECURSORMZ: 865.19853794783
PRECURSORTYPE: [M-H]-
INSTRUMENTTYPE: LC-ESI-QTOF
SMILES: OC1CC2=C(OC1C1=CC(O)=C(O)C=C1)C(C1C(O)C(OC3=C(C4C(O)C(OC5=CC(O)=CC(O)=C45)C4=CC(O)=C(O)C=C4)C(O)=CC(O)=C13)C1=CC(O)=C(O)C=C1)=C(O)C=C2O
INCHIKEY: MOJZMWJRUKIQGL-UHFFFAOYNA-N
Ontology: Biflavonoids and polyflavonoids
COLLISIONENERGY: 10
FORMULA: C45H38O18
RETENTIONTIME: 3.463467
IONMODE: Negative
Comment: registered in RIKEN PlaSMA
Num Peaks: 102
125.0238	119
137.02342	69
137.03148	27
147.04243	36
161.0183	35
165.01558	36
175.03973	29
177.01814	29
189.13492	65
203.06737	38
234.04138	41
243.02663	55
243.03662	87
245.03214	32
245.04036	96
245.04996	72
245.07466	74
245.08696	26
261.04449	75
269.04736	29
275.05423	30
285.02841	32
287.05792	410
288.0553	26
289.04977	33
289.06763	179
290.06973	64
299.0661	35
299.69687	46
301.069	29
314.06885	29
326.0451	48
330.08389	39
330.25024	26
331.07831	29
339.08289	55
341.0585	36
367.03766	36
381.06403	38
381.10294	39
382.05597	32
405.05557	88
406.12369	33
407.06424	162
407.0871	30
408.07147	67
411.06689	33
411.09058	54
412.06467	39
413.10022	36
414.08267	100
419.06223	29
423.04944	55
423.08069	38
425.09048	177
425.98041	58
427.06552	38
440.0643	36
447.08286	39
449.07816	46
451.09955	26
451.1185	30
452.10083	36
453.10095	78
480.97604	30
483.10977	29
531.14325	42
533.12787	26
543.04974	41
543.09509	35
556.84265	29
560.13367	29
569.09106	26
570.1217	61
575.10516	77
575.12384	123
576.11713	103
576.13049	30
577.12921	252
578.1532	81
580.14447	27
616.13855	51
650.1319	26
693.13593	32
694.09796	29
695.12036	67
695.14996	104
696.15833	65
697.13733	29
711.12988	58
713.12079	41
713.15533	56
714.13501	29
739.15723	32
739.18365	62
740.20605	30
848.2334	33
848.9411	48
860.14587	36
863.18854	36
864.1582	36
865.20007	1000

NAME: 7,8-Dihydroxycoumarin
PRECURSORMZ: 177.01933224783
PRECURSORTYPE: [M-H]-
INSTRUMENTTYPE: LC-ESI-QTOF
SMILES: OC1=C(O)C2=C(C=CC(=O)O2)C=C1
INCHIKEY: ATEFPOUAMCWAQS-UHFFFAOYSA-N
Ontology: 7,8-dihydroxycoumarins
COLLISIONENERGY: 10
FORMULA: C9H6O4
RETENTIONTIME: 3.638
IONMODE: Negative
Comment: registered in RIKEN PlaSMA
Num Peaks: 27
65.03535	8
77.03479	6
77.04063	30
79.06448	7
92.02426	8
93.03179	15
103.01611	11
105.03233	147
106.03259	6
106.03767	10
111.00735	8
118.64996	10
120.73219	12
120.98405	6
121.02874	182
122.02875	6
132.02036	47
133.02852	109
134.03024	12
146.09666	7
149.02571	85
151.02954	6
158.8226	7
159.00838	9
160.01834	10
176.00461	20
177.01791	1000

NAME: Quercetin-3-O-xyloside
PRECURSORMZ: 433.07763494783
PRECURSORTYPE: [M-H]-
INSTRUMENTTYPE: LC-ESI-QTOF
SMILES: OC1COC(OC2=C(OC3=CC(O)=CC(O)=C3C2=O)C2=CC(O)=C(O)C=C2)C(O)C1O
INCHIKEY: PZZRDJXEMZMZFD-UHFFFAOYNA-N
Ontology: Flavonoid-3-O-glycosides
COLLISIONENERGY: 10
FORMULA: C20H18O11
RETENTIONTIME: 4.164767
IONMODE: Negative
Comment: registered in RIKEN PlaSMA
Num Peaks: 54
121.02769	12
151.00174	68
152.0079	9
158.07169	7
159.03926	6
163.00172	19
164.01782	12
171.04716	6
178.99725	67
183.04323	8
187.03358	8
189.40854	6
191.99648	6
199.03488	15
203.03662	8
211.03746	16
214.02753	7
226.02872	19
227.035	6
229.04495	6
241.02097	8
242.02313	17
243.01828	26
243.02904	39
244.02383	11
245.04851	8
254.01772	13
255.02968	174
256.03299	48
257.03592	5
266.03058	9
270.01617	25
271.02313	420
272.02789	58
272.04077	29
273.49203	6
274.03683	9
283.017	13
283.02826	9
298.00839	11
298.01889	9
299.0148	33
300.02664	1000
301.0329	690
302.02573	15
302.04361	97
303.0282	9
303.04419	34
343.04419	9
404.06198	6
431.05762	38
432.05252	14
432.06689	54
433.07669	746

NAME: Petunidin-3-O-beta-glucoside
PRECURSORMZ: 477.10330111576
PRECURSORTYPE: [M-2H]-
INSTRUMENTTYPE: LC-ESI-QTOF
SMILES: COC1=CC(=CC(O)=C1O)C1=C(OC2OC(CO)C(O)C(O)C2O)C=C2C(O)=CC(O)=CC2=[O+]1
INCHIKEY: CCQDWIRWKWIUKK-UHFFFAOYNA-O
Ontology: Anthocyanidin-3-O-glycosides
COLLISIONENERGY: 10
FORMULA: C22H23O12
RETENTIONTIME: 4.38115
IONMODE: Negative
Comment: registered in RIKEN PlaSMA
Num Peaks: 39
56.7613	16
77.06313	20
150.02684	17
150.99805	27
152.00337	15
154.0406	15
165.01355	20
175.67754	39
178.98874	24
181.0179	33
189.00525	23
226.0186	25
227.0266	17
242.02898	15
243.01367	22
243.02959	65
243.0426	34
257.03189	28
257.0452	71
270.01349	39
271.01266	35
271.02536	144
272.01831	121
285.03857	144
285.05591	39
286.04593	17
287.03955	17
299.01889	55
299.05768	15
300.02731	15
314.03732	134
314.04767	284
314.61136	19
315.05405	60
317.05554	24
415.70773	15
450.11334	16
469.88553	17
477.10159	1000

NAME: Delphinidin
PRECURSORMZ: 301.03482761576
PRECURSORTYPE: [M-2H]-
INSTRUMENTTYPE: LC-ESI-QTOF
SMILES: OC1=CC2=[O+]C(=C(O)C=C2C(O)=C1)C1=CC(O)=C(O)C(O)=C1
INCHIKEY: JKHRCGUTYDNCLE-UHFFFAOYSA-O
Ontology: 7-hydroxyflavonoids
COLLISIONENERGY: 10
FORMULA: C15H11O7
RETENTIONTIME: 5.3731
IONMODE: Negative
Comment: registered in RIKEN PlaSMA
Num Peaks: 42
63.02195	43
65.00621	46
83.01642	41
93.03542	29
102.04263	15
107.01016	32
107.01987	17
121.0285	132
130.74887	20
151.00214	617
152.00935	95
156.26511	16
163.00391	15
163.03813	23
165.01364	28
175.0378	13
177.05516	16
178.99739	298
179.01666	18
180.00014	63
180.00717	21
187.03957	23
188.03526	17
193.01437	58
199.04512	17
203.03168	24
205.04265	14
212.04823	18
230.05577	18
245.04062	13
245.05092	16
252.45206	28
257.0361	20
257.05225	14
259.01651	14
271.02405	20
273.03671	16
273.04709	14
284.0303	13
299.01822	31
300.02274	13
301.03662	1000

NAME: Delphinidin-3-O-sambubioside
PRECURSORMZ: 595.12990981576
PRECURSORTYPE: [M-2H]-
INSTRUMENTTYPE: LC-ESI-QTOF
SMILES: OCC1OC(OC2=C([O+]=C3C=C(O)C=C(O)C3=C2)C2=CC(O)=C(O)C(O)=C2)C(OC2OCC(O)C(O)C2O)C(O)C1O
INCHIKEY: TWYYVOVDSNRIJM-UHFFFAOYNA-O
Ontology: Anthocyanidin-3-O-glycosides
COLLISIONENERGY: 10
FORMULA: C26H29O16
RETENTIONTIME: 2.6614
IONMODE: Negative
Comment: registered in RIKEN PlaSMA
Num Peaks: 7
137.00813	27
316.02896	29
355.03613	22
358.21466	23
445.07513	26
463.09091	35
595.1308	1000

NAME: isorhamnetin-3-glucoside-4'-glucoside (Isorhamnetin 3,4'-diglucoside)
PRECURSORMZ: 639.1566731
PRECURSORTYPE: [M-H]-
INSTRUMENTTYPE: LC-ESI-QTOF
SMILES: COC1=C(OC2OC(CO)C(O)C(O)C2O)C=CC(=C1)C1=C(OC2OC(CO)C(O)C(O)C2O)C(=O)C2=C(O)C=C(O)C=C2O1
INCHIKEY: VKVBSQRURLRCHO-UHFFFAOYNA-N
Ontology: Flavonoid-3-O-glycosides
COLLISIONENERGY: 10
FORMULA: C28H32O17
RETENTIONTIME: 3.229367
IONMODE: Negative
Comment: registered in RIKEN PlaSMA
Num Peaks: 9
315.05002	18
477.10413	151
478.09946	21
478.1145	18
479.11151	8
519.12256	6
520.11487	8
561.12756	5
639.15668	1000

NAME: Procyanidin C1
PRECURSORMZ: 865.19853794783
PRECURSORTYPE: [M-H]-
INSTRUMENTTYPE: LC-ESI-QTOF
SMILES: OC1CC2=C(OC1C1=CC(O)=C(O)C=C1)C(C1C(O)C(OC3=C(C4C(O)C(OC5=CC(O)=CC(O)=C45)C4=CC(O)=C(O)C=C4)C(O)=CC(O)=C13)C1=CC(O)=C(O)C=C1)=C(O)C=C2O
INCHIKEY: MOJZMWJRUKIQGL-UHFFFAOYNA-N
Ontology: Biflavonoids and polyflavonoids
COLLISIONENERGY: 10
FORMULA: C45H38O18
RETENTIONTIME: 3.463467
IONMODE: Negative
Comment: registered in RIKEN PlaSMA
Num Peaks: 25
299.06354	26
355.07816	18
413.07428	21
413.09134	18
453.11606	19
532.10913	28
533.11676	28
573.11682	55
574.53754	18
575.12238	68
576.12561	85
577.14026	137
578.14374	47
693.15131	17
695.14594	37
712.1167	21
713.19525	22
737.14569	30
739.15253	28
739.17511	40
847.20233	19
863.18042	22
864.17932	94
864.20831	58
865.2016	1000

NAME: 7,8-Dihydroxycoumarin
PRECURSORMZ: 177.01933224783
PRECURSORTYPE: [M-H]-
INSTRUMENTTYPE: LC-ESI-QTOF
SMILES: OC1=C(O)C2=C(C=CC(=O)O2)C=C1
INCHIKEY: ATEFPOUAMCWAQS-UHFFFAOYSA-N
Ontology: 7,8-dihydroxycoumarins
COLLISIONENERGY: 10
FORMULA: C9H6O4
RETENTIONTIME: 3.638
IONMODE: Negative
Comment: registered in RIKEN PlaSMA
Num Peaks: 10
77.03709	7
93.03253	8
105.03133	8
105.03586	15
121.0271	39
132.02028	16
133.02576	90
134.02695	6
149.02237	42
177.01797	1000

NAME: Quercetin-3-O-xyloside
PRECURSORMZ: 433.07763494783
PRECURSORTYPE: [M-H]-
INSTRUMENTTYPE: LC-ESI-QTOF
SMILES: OC1COC(OC2=C(OC3=CC(O)=CC(O)=C3C2=O)C2=CC(O)=C(O)C=C2)C(O)C1O
INCHIKEY: PZZRDJXEMZMZFD-UHFFFAOYNA-N
Ontology: Flavonoid-3-O-glycosides
COLLISIONENERGY: 10
FORMULA: C20H18O11
RETENTIONTIME: 4.164767
IONMODE: Negative
Comment: registered in RIKEN PlaSMA
Num Peaks: 7
300.02597	100
301.03323	194
302.0386	47
431.05902	45
432.06253	37
432.0777	20
433.07562	1000

NAME: Petunidin-3-O-beta-glucoside
PRECURSORMZ: 477.10330111576
PRECURSORTYPE: [M-2H]-
INSTRUMENTTYPE: LC-ESI-QTOF
SMILES: COC1=CC(=CC(O)=C1O)C1=C(OC2OC(CO)C(O)C(O)C2O)C=C2C(O)=CC(O)=CC2=[O+]1
INCHIKEY: CCQDWIRWKWIUKK-UHFFFAOYNA-O
Ontology: Anthocyanidin-3-O-glycosides
COLLISIONENERGY: 10
FORMULA: C22H23O12
RETENTIONTIME: 4.38115
IONMODE: Negative
Comment: registered in RIKEN PlaSMA
Num Peaks: 8
231.44426	5
314.02417	7
314.04108	26
327.04248	12
357.05704	9
397.72763	8
468.06296	5
477.10257	1000

NAME: Delphinidin
PRECURSORMZ: 301.03482761576
PRECURSORTYPE: [M-2H]-
INSTRUMENTTYPE: LC-ESI-QTOF
SMILES: OC1=CC2=[O+]C(=C(O)C=C2C(O)=C1)C1=CC(O)=C(O)C(O)=C1
INCHIKEY: JKHRCGUTYDNCLE-UHFFFAOYSA-O
Ontology: 7-hydroxyflavonoids
COLLISIONENERGY: 10
FORMULA: C15H11O7
RETENTIONTIME: 5.3731
IONMODE: Negative
Comment: registered in RIKEN PlaSMA
Num Peaks: 24
121.02425	8
150.995	27
151.00256	108
153.01552	8
164.00777	7
170.16811	5
174.99269	6
178.98964	58
178.99615	123
179.99907	6
180.01003	7
184.60298	5
191.99838	7
193.0033	8
194.0076	6
198.87706	14
212.16722	5
217.0182	6
258.03879	5
271.01971	5
273.03107	13
273.04489	6
300.01834	15
301.03421	1000

NAME: Delphinidin-3-O-sambubioside
PRECURSORMZ: 595.12990981576
PRECURSORTYPE: [M-2H]-
INSTRUMENTTYPE: LC-ESI-QTOF
SMILES: OCC1OC(OC2=C([O+]=C3C=C(O)C=C(O)C3=C2)C2=CC(O)=C(O)C(O)=C2)C(OC2OCC(O)C(O)C2O)C(O)C1O
INCHIKEY: TWYYVOVDSNRIJM-UHFFFAOYNA-O
Ontology: Anthocyanidin-3-O-glycosides
COLLISIONENERGY: 30
FORMULA: C26H29O16
RETENTIONTIME: 2.6614
IONMODE: Negative
Comment: registered in RIKEN PlaSMA
Num Peaks: 23
147.01094	37
162.99858	46
204.04063	28
228.0439	34
238.02536	44
244.01935	41
244.03084	35
272.02319	38
283.01785	31
293.88916	29
296.02429	35
299.01431	28
300.00589	32
300.02786	1000
301.02524	156
301.05081	28
327.03305	41
338.02658	43
355.05069	69
366.04791	32
367.0531	31
423.099	35
428.03848	28

NAME: isorhamnetin-3-glucoside-4'-glucoside (Isorhamnetin 3,4'-diglucoside)
PRECURSORMZ: 639.1566731
PRECURSORTYPE: [M-H]-
INSTRUMENTTYPE: LC-ESI-QTOF
SMILES: COC1=C(OC2OC(CO)C(O)C(O)C2O)C=CC(=C1)C1=C(OC2OC(CO)C(O)C(O)C2O)C(=O)C2=C(O)C=C(O)C=C2O1
INCHIKEY: VKVBSQRURLRCHO-UHFFFAOYNA-N
Ontology: Flavonoid-3-O-glycosides
COLLISIONENERGY: 30
FORMULA: C28H32O17
RETENTIONTIME: 3.229367
IONMODE: Negative
Comment: registered in RIKEN PlaSMA
Num Peaks: 60
151.00467	17
205.04558	8
215.05708	5
228.02283	8
228.2388	10
246.88702	12
269.08633	5
270.05133	10
274.15967	8
280.44604	5
285.03473	7
287.06039	6
295.08386	8
298.0047	9
298.0397	6
298.65869	5
299.02939	8
299.04501	8
300.02414	13
311.0524	7
313.035	448
314.03964	287
315.05008	1000
316.05045	178
317.05374	12
317.06702	16
328.05554	18
330.06976	14
337.07248	8
341.02661	5
353.40765	8
356.04495	10
356.06134	18
357.05273	44
357.06741	22
358.06204	12
359.06757	6
365.85452	10
381.06659	17
387.06519	6
387.07736	10
459.09412	6
460.08755	7
461.0683	36
461.08765	13
462.06137	9
462.07858	22
476.06378	12
476.0947	472
477.00848	6
477.1022	561
477.44586	9
478.0773	11
478.10324	118
479.0994	19
479.13358	16
490.11313	5
519.09277	6
519.11481	21
522.5755	5

NAME: Procyanidin C1
PRECURSORMZ: 865.19853794783
PRECURSORTYPE: [M-H]-
INSTRUMENTTYPE: LC-ESI-QTOF
SMILES: OC1CC2=C(OC1C1=CC(O)=C(O)C=C1)C(C1C(O)C(OC3=C(C4C(O)C(OC5=CC(O)=CC(O)=C45)C4=CC(O)=C(O)C=C4)C(O)=CC(O)=C13)C1=CC(O)=C(O)C=C1)=C(O)C=C2O
INCHIKEY: MOJZMWJRUKIQGL-UHFFFAOYNA-N
Ontology: Biflavonoids and polyflavonoids
COLLISIONENERGY: 30
FORMULA: C45H38O18
RETENTIONTIME: 3.463467
IONMODE: Negative
Comment: registered in RIKEN PlaSMA
Num Peaks: 88
125.02484	258
137.02553	101
149.01781	43
165.01195	41
167.03384	112
217.04999	92
227.07812	129
243.02199	131
243.03502	138
245.02704	41
245.03867	108
245.05815	45
245.07462	84
247.04961	56
257.03476	39
261.04279	80
262.04285	41
271.05338	56
273.03326	43
283.02789	112
286.05124	45
287.05508	402
288.04794	65
289.05731	80
289.07056	157
289.08163	148
290.0545	71
290.06754	131
290.08023	54
291.08289	47
298.03503	39
299.04126	65
299.05533	45
309.06793	90
311.06497	65
329.06299	43
337.07382	41
341.06055	135
341.07272	45
348.07651	39
353.07208	67
357.4812	110
363.07162	49
365.05292	45
367.08011	62
369.10718	65
382.05331	39
383.09021	62
387.05447	92
391.07407	39
394.06775	54
395.09317	47
405.0621	58
407.01321	56
407.07663	1000
408.06863	105
409.08078	45
410.08536	47
411.07657	99
413.07782	49
413.09009	62
415.08273	67
423.09958	65
425.10312	45
434.05676	52
447.07132	39
449.08597	52
449.09631	103
451.09503	45
451.11771	43
452.0961	118
465.05988	45
493.10751	43
507.06207	41
525.05865	49
525.08478	90
543.07855	120
560.12488	45
561.10992	43
574.10339	41
575.12018	60
577.13928	39
587.1015	47
658.09753	39
694.08582	45
696.1272	45
756.15735	54
836.10822	47

NAME: 7,8-Dihydroxycoumarin
PRECURSORMZ: 177.01933224783
PRECURSORTYPE: [M-H]-
INSTRUMENTTYPE: LC-ESI-QTOF
SMILES: OC1=C(O)C2=C(C=CC(=O)O2)C=C1
INCHIKEY: ATEFPOUAMCWAQS-UHFFFAOYSA-N
Ontology: 7,8-dihydroxycoumarins
COLLISIONENERGY: 30
FORMULA: C9H6O4
RETENTIONTIME: 3.638
IONMODE: Negative
Comment: registered in RIKEN PlaSMA
Num Peaks: 7
65.0396	175
93.02982	151
106.03605	175
121.02528	1000
132.021	294
177.01511	127
177.02159	341

NAME: Quercetin-3-O-xyloside
PRECURSORMZ: 433.07763494783
PRECURSORTYPE: [M-H]-
INSTRUMENTTYPE: LC-ESI-QTOF
SMILES: OC1COC(OC2=C(OC3=CC(O)=CC(O)=C3C2=O)C2=CC(O)=C(O)C=C2)C(O)C1O
INCHIKEY: PZZRDJXEMZMZFD-UHFFFAOYNA-N
Ontology: Flavonoid-3-O-glycosides
COLLISIONENERGY: 30
FORMULA: C20H18O11
RETENTIONTIME: 4.164767
IONMODE: Negative
Comment: registered in RIKEN PlaSMA
Num Peaks: 50
107.0106	6
109.02953	5
121.02731	16
135.00714	10
136.017	5
148.01649	10
151.00291	205
152.00244	21
162.99948	25
173.05653	8
175.03546	6
178.99706	92
187.03497	7
190.9865	6
192.00414	8
210.60147	6
211.04149	10
214.02547	17
215.02721	10
215.0415	6
216.03751	11
226.02856	16
227.0322	29
228.04451	6
229.04427	6
241.01331	17
242.02142	31
243.026	108
244.02734	7
244.03818	13
245.04453	20
254.02025	47
255.02759	370
256.03043	36
256.03967	21
257.03827	14
270.0199	20
271.02301	690
272.02496	126
273.03223	55
274.04166	9
283.02155	22
284.02487	7
298.01144	10
299.00748	11
299.02902	7
300.02701	1000
301.03061	265
302.03851	35
302.05035	12

NAME: Petunidin-3-O-beta-glucoside
PRECURSORMZ: 477.10330111576
PRECURSORTYPE: [M-2H]-
INSTRUMENTTYPE: LC-ESI-QTOF
SMILES: COC1=CC(=CC(O)=C1O)C1=C(OC2OC(CO)C(O)C(O)C2O)C=C2C(O)=CC(O)=CC2=[O+]1
INCHIKEY: CCQDWIRWKWIUKK-UHFFFAOYNA-O
Ontology: Anthocyanidin-3-O-glycosides
COLLISIONENERGY: 30
FORMULA: C22H23O12
RETENTIONTIME: 4.38115
IONMODE: Negative
Comment: registered in RIKEN PlaSMA
Num Peaks: 39
107.01409	26
175.00522	23
200.05508	27
202.01991	26
229.02156	20
242.01682	25
242.04819	25
243.02531	233
243.03529	66
244.03102	29
244.27827	32
257.04062	153
270.00534	29
270.02121	22
271.02414	445
272.02432	26
272.03864	23
273.02805	41
285.04114	554
285.1922	20
285.45795	26
285.65887	26
286.04129	99
286.05481	92
286.47974	22
299.0062	52
299.02493	129
300.01807	27
300.02954	38
300.04233	105
301.02853	26
314.04147	1000
314.06116	65
314.93732	26
315.04285	178
315.06235	45
316.03964	22
316.05505	25
357.06421	26

NAME: Delphinidin
PRECURSORMZ: 301.03482761576
PRECURSORTYPE: [M-2H]-
INSTRUMENTTYPE: LC-ESI-QTOF
SMILES: OC1=CC2=[O+]C(=C(O)C=C2C(O)=C1)C1=CC(O)=C(O)C(O)=C1
INCHIKEY: JKHRCGUTYDNCLE-UHFFFAOYSA-O
Ontology: 7-hydroxyflavonoids
COLLISIONENERGY: 30
FORMULA: C15H11O7
RETENTIONTIME: 5.3731
IONMODE: Negative
Comment: registered in RIKEN PlaSMA
Num Peaks: 49
57.03308	47
65.00214	191
83.01334	256
93.03084	47
105.03064	88
105.52948	47
107.01418	421
108.01531	144
108.02103	153
108.98779	84
109.02766	193
116.02449	70
117.03413	60
121.02589	202
121.03182	170
122.034	121
125.02029	47
129.03622	49
132.44212	56
133.01819	47
136.01413	51
136.04401	49
143.04202	47
146.03101	65
150.00137	81
151.00256	1000
152.00308	140
153.03661	58
157.06848	42
159.04593	112
161.01686	42
162.03104	60
162.99942	95
163.0383	160
164.0108	74
165.01213	70
165.02214	67
171.05029	53
172.00211	47
176.01196	77
182.03506	53
190.99478	47
211.0349	79
214.02493	65
227.0294	163
237.03299	44
244.02234	49
271.02762	49
282.00568	47

NAME: Delphinidin-3-O-sambubioside
PRECURSORMZ: 595.12990981576
PRECURSORTYPE: [M-2H]-
INSTRUMENTTYPE: LC-ESI-QTOF
SMILES: OCC1OC(OC2=C([O+]=C3C=C(O)C=C(O)C3=C2)C2=CC(O)=C(O)C(O)=C2)C(OC2OCC(O)C(O)C2O)C(O)C1O
INCHIKEY: TWYYVOVDSNRIJM-UHFFFAOYNA-O
Ontology: Anthocyanidin-3-O-glycosides
COLLISIONENERGY: 50
FORMULA: C26H29O16
RETENTIONTIME: 2.6614
IONMODE: Negative
Comment: registered in RIKEN PlaSMA
Num Peaks: 23
124.01747	191
147.00427	221
148.01639	169
171.04123	265
187.03632	132
190.02972	162
198.02472	132
199.04196	375
204.05002	147
212.04503	221
216.05193	132
229.00227	140
239.0264	132
243.0327	471
244.03284	199
256.03781	154
271.02371	1000
271.03748	213
272.0361	169
292.02914	279
300.01532	147
300.04129	213
341.03827	184

NAME: isorhamnetin-3-glucoside-4'-glucoside (Isorhamnetin 3,4'-diglucoside)
PRECURSORMZ: 639.1566731
PRECURSORTYPE: [M-H]-
INSTRUMENTTYPE: LC-ESI-QTOF
SMILES: COC1=C(OC2OC(CO)C(O)C(O)C2O)C=CC(=C1)C1=C(OC2OC(CO)C(O)C(O)C2O)C(=O)C2=C(O)C=C(O)C=C2O1
INCHIKEY: VKVBSQRURLRCHO-UHFFFAOYNA-N
Ontology: Flavonoid-3-O-glycosides
COLLISIONENERGY: 50
FORMULA: C28H32O17
RETENTIONTIME: 3.229367
IONMODE: Negative
Comment: registered in RIKEN PlaSMA
Num Peaks: 91
121.99345	6
124.15639	11
137.03188	10
142.41136	7
144.13014	12
148.01695	18
149.9987	13
151.0006	42
151.00679	16
154.01472	6
155.67709	8
163.00276	6
165.01909	9
173.56506	6
179.09935	5
183.0414	6
184.05487	12
187.02985	8
187.03674	7
193.43581	8
197.43529	5
199.0493	9
205.05174	9
211.03746	8
214.03122	16
226.02069	7
226.03444	7
227.03471	8
241.01151	10
241.0238	5
242.0164	48
242.02707	34
242.03426	21
243.02881	67
244.02901	18
244.03598	6
248.86565	6
250.455	6
252.04248	7
254.00928	7
255.01927	21
255.03012	14
257.03143	6
257.04233	18
270.01495	357
270.03583	15
271.01874	126
271.05417	6
272.02005	36
273.03732	8
274.03378	6
278.43243	8
280.078	6
280.12494	6
283.02277	13
283.05423	6
284.03094	10
285.03928	179
286.04028	24
286.05911	20
286.38913	9
287.05859	6
294.03973	16
295.97388	6
298.00131	41
298.01382	49
298.04575	7
298.99771	21
299.0192	138
300.00986	30
300.02621	330
300.0643	6
300.79959	8
301.02621	53
302.03867	8
302.06729	6
310.05423	7
312.01889	5
313.03302	1000
314.03107	111
314.05008	48
315.0163	8
315.04156	121
315.06293	31
316.04645	18
316.07022	12
317.06033	13
317.55307	6
327.0416	21
461.06863	7
462.07547	6

NAME: Procyanidin C1
PRECURSORMZ: 865.19853794783
PRECURSORTYPE: [M-H]-
INSTRUMENTTYPE: LC-ESI-QTOF
SMILES: OC1CC2=C(OC1C1=CC(O)=C(O)C=C1)C(C1C(O)C(OC3=C(C4C(O)C(OC5=CC(O)=CC(O)=C45)C4=CC(O)=C(O)C=C4)C(O)=CC(O)=C13)C1=CC(O)=C(O)C=C1)=C(O)C=C2O
INCHIKEY: MOJZMWJRUKIQGL-UHFFFAOYNA-N
Ontology: Biflavonoids and polyflavonoids
COLLISIONENERGY: 50
FORMULA: C45H38O18
RETENTIONTIME: 3.463467
IONMODE: Negative
Comment: registered in RIKEN PlaSMA
Num Peaks: 79
109.02934	233
125.02417	1000
126.02451	60
126.03068	53
137.02426	222
151.0417	118
160.02071	58
161.02461	360
161.06012	156
162.02312	162
162.03035	80
163.00264	84
165.01988	44
167.03841	47
175.02794	42
175.04117	224
175.07468	60
179.03352	118
187.03088	62
187.04169	136
188.05444	80
189.0197	44
191.07286	73
199.02567	62
201.08514	80
203.07243	53
205.04372	153
217.01021	40
217.04869	222
219.02565	89
219.05563	53
227.02588	44
242.0578	102
243.03252	233
245.03615	47
245.05031	242
245.06529	67
245.09189	142
246.04697	62
246.0751	44
255.03088	47
255.05217	51
256.02301	47
257.04559	44
258.08948	53
261.03961	71
261.05435	56
263.07739	82
269.03882	67
270.047	73
273.04016	49
277.08688	49
281.0488	71
285.04297	42
287.05701	169
287.06958	49
289.07346	89
293.05194	47
295.06046	40
297.03244	47
298.04919	44
300.02371	44
307.04977	64
311.05447	53
340.08865	49
363.06738	64
367.07306	44
389.07349	73
391.04169	67
407.07452	142
408.07388	153
411.07611	76
412.07123	76
417.06766	56
433.10623	102
450.07767	67
450.09799	62
473.10745	49
569.08942	93

NAME: 7,8-Dihydroxycoumarin
PRECURSORMZ: 177.01933224783
PRECURSORTYPE: [M-H]-
INSTRUMENTTYPE: LC-ESI-QTOF
SMILES: OC1=C(O)C2=C(C=CC(=O)O2)C=C1
INCHIKEY: ATEFPOUAMCWAQS-UHFFFAOYSA-N
Ontology: 7,8-dihydroxycoumarins
COLLISIONENERGY: 50
FORMULA: C9H6O4
RETENTIONTIME: 3.638
IONMODE: Negative
Comment: registered in RIKEN PlaSMA
Num Peaks: 1
162.99902	1000

NAME: Quercetin-3-O-xyloside
PRECURSORMZ: 433.07763494783
PRECURSORTYPE: [M-H]-
INSTRUMENTTYPE: LC-ESI-QTOF
SMILES: OC1COC(OC2=C(OC3=CC(O)=CC(O)=C3C2=O)C2=CC(O)=C(O)C=C2)C(O)C1O
INCHIKEY: PZZRDJXEMZMZFD-UHFFFAOYNA-N
Ontology: Flavonoid-3-O-glycosides
COLLISIONENERGY: 50
FORMULA: C20H18O11
RETENTIONTIME: 4.164767
IONMODE: Negative
Comment: registered in RIKEN PlaSMA
Num Peaks: 167
63.02044	11
65.00323	10
79.01852	16
84.01505	8
88.99989	18
91.0175	13
93.03265	21
107.01273	104
108.00995	7
108.02018	160
109.02751	83
117.0265	8
119.00869	23
119.01529	18
120.01895	7
120.02859	7
121.02865	63
121.99803	7
123.00916	9
124.01898	26
127.06292	7
129.0305	12
131.05077	7
131.93575	8
132.01924	8
135.00737	43
135.05066	10
136.00764	8
136.01701	7
139.05219	19
141.02628	8
141.03308	10
143.04532	8
143.05194	15
143.05765	13
145.03117	9
146.03667	7
147.00551	10
147.04587	18
148.01688	90
149.01909	12
149.02777	8
149.99731	10
150.99617	23
151.00594	81
152.3918	7
153.03682	16
154.03525	15
155.05281	37
155.177	7
157.03009	47
158.03471	18
158.04333	12
159.04263	84
161.01726	10
161.02454	24
162.99884	77
164.00551	40
164.01973	16
165.01062	7
169.02893	15
170.04755	12
171.03906	26
171.04549	22
172.01765	7
172.03828	7
172.27492	8
173.06406	8
173.59541	7
174.02278	8
175.04141	34
178.99878	21
182.0361	16
182.63162	7
183.02747	10
183.04019	59
183.0484	20
183.06013	8
184.05714	7
185.02574	13
185.03954	10
186.02718	8
186.03549	18
186.93517	11
187.02216	10
187.03191	25
187.04506	25
188.04108	7
189.02286	12
189.06181	15
190.02623	12
192.00629	40
195.04604	10
197.02098	13
197.98384	9
198.02467	41
198.03792	40
198.64108	8
199.04041	142
200.0399	27
200.58276	8
201.01546	16
201.02432	58
202.03394	7
202.68556	8
202.98462	18
203.02505	7
203.03795	8
203.04565	13
204.02646	10
205.04306	20
209.01881	10
210.01799	7
210.03069	10
211.03914	86
212.04466	10
213.01361	31
213.02534	26
214.03775	8
215.02245	21
215.03479	130
216.0067	13
216.04044	62
216.36125	14
225.00551	10
226.02425	43
226.03337	38
226.63286	8
226.99783	10
227.01715	15
227.03204	99
227.04369	56
227.05771	10
227.90703	8
228.0291	10
228.04401	16
228.98991	7
229.00742	26
229.02071	8
229.03293	10
230.01642	15
230.89723	10
233.02771	10
241.01462	140
242.01875	55
242.02788	37
242.22905	7
243.00017	11
243.02895	467
244.03165	90
244.30574	7
245.0352	10
245.04407	10
246.0441	14
255.0276	455
256.02676	51
257.00946	8
271.02463	1000
272.02676	102
272.03693	30
273.03271	43
298.37296	11
299.02579	22
300.0361	9
327.44379	8
343.49319	7
376.23615	8

NAME: Petunidin-3-O-beta-glucoside
PRECURSORMZ: 477.10330111576
PRECURSORTYPE: [M-2H]-
INSTRUMENTTYPE: LC-ESI-QTOF
SMILES: COC1=CC(=CC(O)=C1O)C1=C(OC2OC(CO)C(O)C(O)C2O)C=C2C(O)=CC(O)=CC2=[O+]1
INCHIKEY: CCQDWIRWKWIUKK-UHFFFAOYNA-O
Ontology: Anthocyanidin-3-O-glycosides
COLLISIONENERGY: 50
FORMULA: C22H23O12
RETENTIONTIME: 4.38115
IONMODE: Negative
Comment: registered in RIKEN PlaSMA
Num Peaks: 38
107.0145	60
124.01684	107
131.04584	67
133.99797	45
171.04124	109
171.0524	72
175.03336	50
183.05217	47
185.26663	50
187.04878	45
197.01888	45
199.02794	50
199.04097	114
200.03165	69
201.02402	228
202.01958	50
202.27159	52
203.02701	65
213.00574	67
215.03838	149
216.04547	179
226.022	146
226.03189	50
227.01805	62
227.03207	141
233.01939	60
242.02026	1000
243.02617	541
244.03862	134
245.03702	87
257.03427	62
270.00742	340
271.02274	469
271.03687	60
272.02588	89
285.03357	114
299.04681	60
350.5679	50

NAME: Delphinidin
PRECURSORMZ: 301.03482761576
PRECURSORTYPE: [M-2H]-
INSTRUMENTTYPE: LC-ESI-QTOF
SMILES: OC1=CC2=[O+]C(=C(O)C=C2C(O)=C1)C1=CC(O)=C(O)C(O)=C1
INCHIKEY: JKHRCGUTYDNCLE-UHFFFAOYSA-O
Ontology: 7-hydroxyflavonoids
COLLISIONENERGY: 50
FORMULA: C15H11O7
RETENTIONTIME: 5.3731
IONMODE: Negative
Comment: registered in RIKEN PlaSMA
Num Peaks: 15
63.02813	406
65.03711	348
84.01768	362
93.03508	1000
107.00991	783
109.02843	971
123.34105	290
130.04001	290
141.03519	507
145.02904	319
150.99959	754
155.04117	290
173.02299	435
187.04254	319
198.03351	464

NAME: Delphinidin-3-O-sambubioside
PRECURSORMZ: 595.12990981576
PRECURSORTYPE: [M-2H]-
INSTRUMENTTYPE: LC-ESI-QTOF
SMILES: OCC1OC(OC2=C([O+]=C3C=C(O)C=C(O)C3=C2)C2=CC(O)=C(O)C(O)=C2)C(OC2OCC(O)C(O)C2O)C(O)C1O
INCHIKEY: TWYYVOVDSNRIJM-UHFFFAOYNA-O
Ontology: Anthocyanidin-3-O-glycosides
COLLISIONENERGY: 10
FORMULA: C26H29O16
RETENTIONTIME: 2.6614
IONMODE: Negative
Comment: registered in RIKEN PlaSMA
Num Peaks: 21
124.0192	41
158.10349	34
164.0101	32
200.03749	41
228.03558	43
239.08191	39
257.03445	32
271.01315	36
272.02145	41
299.01694	53
300.02707	1000
301.021	75
301.03461	77
325.02545	43
328.04669	59
356.05609	50
366.03604	43
369.06268	39
396.64011	59
595.08844	41
595.12952	260

NAME: isorhamnetin-3-glucoside-4'-glucoside (Isorhamnetin 3,4'-diglucoside)
PRECURSORMZ: 639.1566731
PRECURSORTYPE: [M-H]-
INSTRUMENTTYPE: LC-ESI-QTOF
SMILES: COC1=C(OC2OC(CO)C(O)C(O)C2O)C=CC(=C1)C1=C(OC2OC(CO)C(O)C(O)C2O)C(=O)C2=C(O)C=C(O)C=C2O1
INCHIKEY: VKVBSQRURLRCHO-UHFFFAOYNA-N
Ontology: Flavonoid-3-O-glycosides
COLLISIONENERGY: 10
FORMULA: C28H32O17
RETENTIONTIME: 3.229367
IONMODE: Negative
Comment: registered in RIKEN PlaSMA
Num Peaks: 41
151.00197	17
157.68648	7
178.99442	8
225.42592	8
298.01834	7
299.0231	31
300.02521	35
311.05536	9
313.03293	308
314.03409	56
314.04459	53
315.05124	475
316.03726	10
316.0549	82
317.06668	7
317.20728	6
329.05963	7
329.07608	6
357.06485	25
372.88147	6
380.05185	6
381.06284	8
399.05881	6
423.71252	10
445.09259	5
461.05692	16
461.08749	7
476.09827	110
476.13037	9
477.10553	543
478.10596	87
478.11893	44
479.10529	25
491.1308	6
501.10098	8
519.0871	5
519.10645	21
519.12689	14
557.85541	6
639.1582	1000
639.19867	19

NAME: Procyanidin C1
PRECURSORMZ: 865.19853794783
PRECURSORTYPE: [M-H]-
INSTRUMENTTYPE: LC-ESI-QTOF
SMILES: OC1CC2=C(OC1C1=CC(O)=C(O)C=C1)C(C1C(O)C(OC3=C(C4C(O)C(OC5=CC(O)=CC(O)=C45)C4=CC(O)=C(O)C=C4)C(O)=CC(O)=C13)C1=CC(O)=C(O)C=C1)=C(O)C=C2O
INCHIKEY: MOJZMWJRUKIQGL-UHFFFAOYNA-N
Ontology: Biflavonoids and polyflavonoids
COLLISIONENERGY: 10
FORMULA: C45H38O18
RETENTIONTIME: 3.463467
IONMODE: Negative
Comment: registered in RIKEN PlaSMA
Num Peaks: 102
111.43831	37
125.02496	220
137.01236	35
137.02396	53
161.01761	30
162.03226	35
163.03682	35
231.07388	50
241.05641	52
243.02248	220
243.07289	43
245.03769	77
245.05225	75
245.06058	37
246.04445	40
261.03833	35
273.03931	38
284.05496	30
286.0401	73
287.04462	95
287.0567	258
288.05542	70
289.06754	347
299.05859	78
300.04767	42
307.0527	37
327.04636	43
327.09021	55
328.04297	30
330.06165	30
331.06769	45
340.11029	68
368.24869	40
379.11523	33
381.10623	40
382.06604	47
391.03195	68
392.05191	33
405.04297	40
407.0715	120
407.08786	33
408.07971	148
413.06699	65
414.08905	45
419.07968	32
423.08118	102
423.22278	42
424.0939	30
425.07907	128
425.09723	35
426.06885	60
426.08505	30
427.10342	87
437.08105	37
437.10718	37
447.09039	40
447.10727	33
449.06723	37
450.08652	33
451.09576	220
452.06143	57
452.10965	30
457.94736	30
468.1055	48
475.10898	67
493.09589	30
525.06561	40
525.09106	38
533.10999	35
544.07697	50
545.09399	33
557.12531	35
561.08887	35
575.10516	65
575.12891	142
576.12445	38
577.13739	132
578.12244	38
578.14813	65
587.13635	70
655.21558	53
669.16302	40
693.12689	73
694.13843	33
695.1236	210
695.1485	118
695.18591	50
696.11731	80
697.13367	53
711.14075	40
713.14313	52
713.16608	55
714.14197	42
722.12762	38
739.16339	67
739.19928	37
822.19403	33
864.1618	78
864.21301	85
865.06226	33
865.19983	1000
865.23499	145

NAME: 7,8-Dihydroxycoumarin
PRECURSORMZ: 177.01933224783
PRECURSORTYPE: [M-H]-
INSTRUMENTTYPE: LC-ESI-QTOF
SMILES: OC1=C(O)C2=C(C=CC(=O)O2)C=C1
INCHIKEY: ATEFPOUAMCWAQS-UHFFFAOYSA-N
Ontology: 7,8-dihydroxycoumarins
COLLISIONENERGY: 10
FORMULA: C9H6O4
RETENTIONTIME: 3.638
IONMODE: Negative
Comment: registered in RIKEN PlaSMA
Num Peaks: 25
77.03849	11
80.02245	8
93.03109	45
93.03825	7
94.03669	5
100.70676	5
103.01823	8
105.03087	78
105.03841	38
106.04013	13
120.02171	8
121.02946	208
122.03203	16
122.04305	6
124.05155	5
131.01366	10
132.01828	13
132.02493	19
133.02892	169
133.04642	8
133.43329	8
134.03668	5
148.02174	10
149.02454	114
177.0181	1000

NAME: Quercetin-3-O-xyloside
PRECURSORMZ: 433.07763494783
PRECURSORTYPE: [M-H]-
INSTRUMENTTYPE: LC-ESI-QTOF
SMILES: OC1COC(OC2=C(OC3=CC(O)=CC(O)=C3C2=O)C2=CC(O)=C(O)C=C2)C(O)C1O
INCHIKEY: PZZRDJXEMZMZFD-UHFFFAOYNA-N
Ontology: Flavonoid-3-O-glycosides
COLLISIONENERGY: 10
FORMULA: C20H18O11
RETENTIONTIME: 4.164767
IONMODE: Negative
Comment: registered in RIKEN PlaSMA
Num Peaks: 54
107.01186	8
109.02724	15
148.01205	10
151.00366	74
162.99916	27
164.0085	10
167.32198	10
171.04314	5
178.99606	25
179.99484	6
185.02649	5
193.00879	10
199.04112	10
200.03461	8
201.0583	8
211.03725	7
215.0388	8
226.01901	7
227.03148	17
227.04546	13
228.02989	7
228.0392	7
239.03275	9
241.01076	28
242.02487	21
243.02916	89
243.39323	6
244.03307	22
245.04466	8
254.00734	5
254.02403	12
255.02818	159
256.03363	58
270.00024	13
270.01236	19
271.02493	515
272.02478	38
273.03448	16
283.01822	10
283.0318	16
298.00995	13
298.02234	7
298.04187	5
299.00818	16
299.02121	37
300.0267	1000
301.03314	807
302.03531	129
303.03769	12
303.06265	6
431.05984	27
432.06473	70
433.07648	903
433.11716	6

NAME: Petunidin-3-O-beta-glucoside
PRECURSORMZ: 477.10330111576
PRECURSORTYPE: [M-2H]-
INSTRUMENTTYPE: LC-ESI-QTOF
SMILES: COC1=CC(=CC(O)=C1O)C1=C(OC2OC(CO)C(O)C(O)C2O)C=C2C(O)=CC(O)=CC2=[O+]1
INCHIKEY: CCQDWIRWKWIUKK-UHFFFAOYNA-O
Ontology: Anthocyanidin-3-O-glycosides
COLLISIONENERGY: 10
FORMULA: C22H23O12
RETENTIONTIME: 4.38115
IONMODE: Negative
Comment: registered in RIKEN PlaSMA
Num Peaks: 38
113.38517	14
147.0459	17
153.01503	15
175.03868	16
181.00923	45
204.03799	13
215.03958	13
227.02809	17
227.04146	16
233.04071	41
242.05792	18
243.02431	193
244.03247	24
251.12299	17
255.04201	15
257.04318	13
270.00281	34
270.01328	28
270.02399	23
271.02197	184
273.03867	22
285.0372	157
286.03998	33
286.05032	62
299.01959	76
300.02316	45
301.03125	28
310.6196	31
313.04257	19
314.04089	336
314.05609	81
315.03033	48
315.04562	126
316.02695	17
316.04956	15
316.05963	14
379.97711	16
477.103	1000

NAME: Delphinidin
PRECURSORMZ: 301.03482761576
PRECURSORTYPE: [M-2H]-
INSTRUMENTTYPE: LC-ESI-QTOF
SMILES: OC1=CC2=[O+]C(=C(O)C=C2C(O)=C1)C1=CC(O)=C(O)C(O)=C1
INCHIKEY: JKHRCGUTYDNCLE-UHFFFAOYSA-O
Ontology: 7-hydroxyflavonoids
COLLISIONENERGY: 10
FORMULA: C15H11O7
RETENTIONTIME: 5.3731
IONMODE: Negative
Comment: registered in RIKEN PlaSMA
Num Peaks: 38
63.02057	22
65.00449	61
95.01019	19
107.00193	25
107.00708	20
107.01759	18
108.02071	23
109.02524	38
118.1684	30
121.02275	64
121.03192	101
125.02178	52
133.02916	56
137.02646	22
147.04134	41
149.02206	18
151.00183	544
151.00894	169
152.00574	159
157.05928	19
163.03786	25
164.00714	58
178.99223	164
179.00133	100
180.99911	61
190.99414	18
199.03903	17
201.05104	22
212.03946	22
227.0285	21
228.02982	19
229.04471	30
229.05075	58
243.03914	27
273.01749	22
273.03287	17
301.03348	1000
301.05746	19

NAME: Delphinidin-3-O-sambubioside
PRECURSORMZ: 595.12990981576
PRECURSORTYPE: [M-2H]-
INSTRUMENTTYPE: LC-ESI-QTOF
SMILES: OCC1OC(OC2=C([O+]=C3C=C(O)C=C(O)C3=C2)C2=CC(O)=C(O)C(O)=C2)C(OC2OCC(O)C(O)C2O)C(O)C1O
INCHIKEY: TWYYVOVDSNRIJM-UHFFFAOYNA-O
Ontology: Anthocyanidin-3-O-glycosides
COLLISIONENERGY: 10
FORMULA: C26H29O16
RETENTIONTIME: 2.6614
IONMODE: Negative
Comment: registered in RIKEN PlaSMA
Num Peaks: 7
131.03528	20
300.01901	36
301.03299	25
327.04724	22
367.03284	18
594.11194	25
595.12744	1000

NAME: isorhamnetin-3-glucoside-4'-glucoside (Isorhamnetin 3,4'-diglucoside)
PRECURSORMZ: 639.1566731
PRECURSORTYPE: [M-H]-
INSTRUMENTTYPE: LC-ESI-QTOF
SMILES: COC1=C(OC2OC(CO)C(O)C(O)C2O)C=CC(=C1)C1=C(OC2OC(CO)C(O)C(O)C2O)C(=O)C2=C(O)C=C(O)C=C2O1
INCHIKEY: VKVBSQRURLRCHO-UHFFFAOYNA-N
Ontology: Flavonoid-3-O-glycosides
COLLISIONENERGY: 10
FORMULA: C28H32O17
RETENTIONTIME: 3.229367
IONMODE: Negative
Comment: registered in RIKEN PlaSMA
Num Peaks: 5
476.09769	7
477.10129	147
478.10156	39
519.10553	14
639.1546	1000

NAME: Procyanidin C1
PRECURSORMZ: 865.19853794783
PRECURSORTYPE: [M-H]-
INSTRUMENTTYPE: LC-ESI-QTOF
SMILES: OC1CC2=C(OC1C1=CC(O)=C(O)C=C1)C(C1C(O)C(OC3=C(C4C(O)C(OC5=CC(O)=CC(O)=C45)C4=CC(O)=C(O)C=C4)C(O)=CC(O)=C13)C1=CC(O)=C(O)C=C1)=C(O)C=C2O
INCHIKEY: MOJZMWJRUKIQGL-UHFFFAOYNA-N
Ontology: Biflavonoids and polyflavonoids
COLLISIONENERGY: 10
FORMULA: C45H38O18
RETENTIONTIME: 3.463467
IONMODE: Negative
Comment: registered in RIKEN PlaSMA
Num Peaks: 34
245.03975	19
288.04855	15
290.06461	24
315.0824	24
395.07422	16
413.07462	56
431.68863	20
449.07928	24
456.9516	14
505.96982	16
533.09393	15
568.74359	16
575.11823	35
575.13965	14
577.10736	40
577.14136	112
579.14508	18
582.07935	14
589.12061	24
596.70715	16
619.14661	35
693.13232	16
695.13934	17
696.11218	20
696.1604	14
711.13708	16
713.18451	19
733.71204	19
835.24988	19
863.20502	20
863.2262	27
864.13489	16
864.20483	33
865.20331	1000

NAME: 7,8-Dihydroxycoumarin
PRECURSORMZ: 177.01933224783
PRECURSORTYPE: [M-H]-
INSTRUMENTTYPE: LC-ESI-QTOF
SMILES: OC1=C(O)C2=C(C=CC(=O)O2)C=C1
INCHIKEY: ATEFPOUAMCWAQS-UHFFFAOYSA-N
Ontology: 7,8-dihydroxycoumarins
COLLISIONENERGY: 10
FORMULA: C9H6O4
RETENTIONTIME: 3.638
IONMODE: Negative
Comment: registered in RIKEN PlaSMA
Num Peaks: 10
77.03728	7
105.03435	52
121.02784	33
132.01949	6
133.02773	60
134.03024	6
149.02332	47
160.01082	5
160.01942	6
177.01784	1000

NAME: Quercetin-3-O-xyloside
PRECURSORMZ: 433.07763494783
PRECURSORTYPE: [M-H]-
INSTRUMENTTYPE: LC-ESI-QTOF
SMILES: OC1COC(OC2=C(OC3=CC(O)=CC(O)=C3C2=O)C2=CC(O)=C(O)C=C2)C(O)C1O
INCHIKEY: PZZRDJXEMZMZFD-UHFFFAOYNA-N
Ontology: Flavonoid-3-O-glycosides
COLLISIONENERGY: 10
FORMULA: C20H18O11
RETENTIONTIME: 4.164767
IONMODE: Negative
Comment: registered in RIKEN PlaSMA
Num Peaks: 7
300.02686	81
301.03363	236
302.03461	37
431.06042	35
432.05341	9
432.07007	26
433.07669	1000

NAME: Petunidin-3-O-beta-glucoside
PRECURSORMZ: 477.10330111576
PRECURSORTYPE: [M-2H]-
INSTRUMENTTYPE: LC-ESI-QTOF
SMILES: COC1=CC(=CC(O)=C1O)C1=C(OC2OC(CO)C(O)C(O)C2O)C=C2C(O)=CC(O)=CC2=[O+]1
INCHIKEY: CCQDWIRWKWIUKK-UHFFFAOYNA-O
Ontology: Anthocyanidin-3-O-glycosides
COLLISIONENERGY: 10
FORMULA: C22H23O12
RETENTIONTIME: 4.38115
IONMODE: Negative
Comment: registered in RIKEN PlaSMA
Num Peaks: 14
169.01279	10
273.13959	5
290.98926	8
311.37656	5
314.02695	14
314.04224	6
315.04303	15
315.05936	5
316.04919	6
334.75253	5
357.0686	9
420.44855	7
459.07822	6
477.10471	1000

NAME: Delphinidin
PRECURSORMZ: 301.03482761576
PRECURSORTYPE: [M-2H]-
INSTRUMENTTYPE: LC-ESI-QTOF
SMILES: OC1=CC2=[O+]C(=C(O)C=C2C(O)=C1)C1=CC(O)=C(O)C(O)=C1
INCHIKEY: JKHRCGUTYDNCLE-UHFFFAOYSA-O
Ontology: 7-hydroxyflavonoids
COLLISIONENERGY: 10
FORMULA: C15H11O7
RETENTIONTIME: 5.3731
IONMODE: Negative
Comment: registered in RIKEN PlaSMA
Num Peaks: 17
107.01178	7
121.02754	24
151.00121	162
152.00761	22
175.00839	5
175.02757	7
178.99939	164
193.0088	5
229.04138	8
243.02974	9
258.05676	6
271.02451	7
272.03021	13
273.0433	13
300.02475	22
300.0347	14
301.03271	1000

NAME: Delphinidin-3-O-sambubioside
PRECURSORMZ: 595.12990981576
PRECURSORTYPE: [M-2H]-
INSTRUMENTTYPE: LC-ESI-QTOF
SMILES: OCC1OC(OC2=C([O+]=C3C=C(O)C=C(O)C3=C2)C2=CC(O)=C(O)C(O)=C2)C(OC2OCC(O)C(O)C2O)C(O)C1O
INCHIKEY: TWYYVOVDSNRIJM-UHFFFAOYNA-O
Ontology: Anthocyanidin-3-O-glycosides
COLLISIONENERGY: 30
FORMULA: C26H29O16
RETENTIONTIME: 2.6614
IONMODE: Negative
Comment: registered in RIKEN PlaSMA
Num Peaks: 21
148.01233	20
175.0054	24
204.0399	21
215.02756	20
241.045	23
255.03867	28
271.01535	24
271.02866	33
272.02444	20
272.04309	20
284.01578	31
296.77243	23
299.00934	32
300.02747	1000
301.02634	144
302.0459	62
325.03714	24
327.04886	22
337.03912	24
349.05511	23
355.04581	40

NAME: isorhamnetin-3-glucoside-4'-glucoside (Isorhamnetin 3,4'-diglucoside)
PRECURSORMZ: 639.1566731
PRECURSORTYPE: [M-H]-
INSTRUMENTTYPE: LC-ESI-QTOF
SMILES: COC1=C(OC2OC(CO)C(O)C(O)C2O)C=CC(=C1)C1=C(OC2OC(CO)C(O)C(O)C2O)C(=O)C2=C(O)C=C(O)C=C2O1
INCHIKEY: VKVBSQRURLRCHO-UHFFFAOYNA-N
Ontology: Flavonoid-3-O-glycosides
COLLISIONENERGY: 30
FORMULA: C28H32O17
RETENTIONTIME: 3.229367
IONMODE: Negative
Comment: registered in RIKEN PlaSMA
Num Peaks: 59
151.00375	20
152.00468	6
178.99913	11
213.92212	6
223.0204	6
226.14857	5
243.05847	6
249.03163	5
269.2142	6
285.03381	5
286.06036	6
286.54047	6
287.05722	7
299.00757	9
299.04865	22
299.06766	8
300.01865	12
301.03174	11
301.26434	7
308.54608	8
312.02145	10
313.03485	508
313.06088	15
314.04181	239
315.05054	1000
316.0488	114
317.05518	9
318.04144	6
323.31454	9
327.04721	16
328.04953	5
328.06036	8
329.06021	10
329.07196	10
338.48022	5
353.05746	5
355.04776	6
356.04727	16
357.0625	89
358.05847	13
358.06973	5
372.40164	7
381.06851	7
417.09232	5
445.07901	11
454.76477	7
461.06873	15
461.08469	16
461.11649	6
462.07245	20
476.0943	432
477.10281	635
478.10583	167
479.11237	52
491.11691	6
519.11737	12
566.83801	5
613.94446	5
639.17609	9

NAME: Procyanidin C1
PRECURSORMZ: 865.19853794783
PRECURSORTYPE: [M-H]-
INSTRUMENTTYPE: LC-ESI-QTOF
SMILES: OC1CC2=C(OC1C1=CC(O)=C(O)C=C1)C(C1C(O)C(OC3=C(C4C(O)C(OC5=CC(O)=CC(O)=C45)C4=CC(O)=C(O)C=C4)C(O)=CC(O)=C13)C1=CC(O)=C(O)C=C1)=C(O)C=C2O
INCHIKEY: MOJZMWJRUKIQGL-UHFFFAOYNA-N
Ontology: Biflavonoids and polyflavonoids
COLLISIONENERGY: 30
FORMULA: C45H38O18
RETENTIONTIME: 3.463467
IONMODE: Negative
Comment: registered in RIKEN PlaSMA
Num Peaks: 117
125.01764	151
125.02438	432
126.0249	44
126.02974	56
151.04099	56
161.01552	40
161.02013	100
161.02841	36
161.06006	36
163.02339	44
175.0473	36
177.0108	36
177.02293	86
205.01628	52
219.02797	40
225.05016	56
229.01082	40
229.05276	54
243.03313	410
245.03616	50
245.05244	143
245.08195	42
246.0463	155
255.02744	46
255.06026	42
261.03192	84
261.04239	42
269.03946	42
273.02731	80
273.04901	78
283.0123	58
283.37674	36
285.0087	100
285.04333	167
287.0535	695
288.05942	56
289.07007	1000
290.06888	261
291.0892	60
297.04816	48
299.05322	151
303.03622	54
309.0332	40
315.08173	40
316.09256	54
329.06589	44
331.06067	42
337.05536	76
337.06955	66
339.05716	56
339.07977	102
339.0918	44
340.077	42
341.06805	100
351.0921	40
354.0697	40
364.03851	40
365.06686	88
369.11002	54
381.08072	50
381.11124	40
383.07346	66
387.08981	80
405.06531	163
406.0517	96
406.08148	40
407.06448	474
407.0798	219
407.09256	177
408.07816	36
411.00821	48
411.06433	38
412.07236	82
412.08652	40
413.10263	46
417.05731	118
422.10837	36
423.07806	40
424.08109	38
425.09097	227
426.07825	52
426.09824	88
427.09818	38
448.07925	48
449.07513	48
449.09756	42
450.09543	48
451.09366	205
452.10223	46
453.06967	76
517.10333	40
518.1167	58
526.08752	50
527.06921	44
527.0932	40
543.08514	149
543.09937	42
544.08197	36
544.10034	48
555.09265	52
556.09442	64
559.13898	86
560.11292	52
569.08801	38
575.1239	42
576.1167	42
577.12402	181
578.1145	38
587.14966	40
621.6416	36
629.12164	42
677.12787	36
677.1416	78
695.14374	161
712.16382	88
713.15283	86
714.13281	52

NAME: 7,8-Dihydroxycoumarin
PRECURSORMZ: 177.01933224783
PRECURSORTYPE: [M-H]-
INSTRUMENTTYPE: LC-ESI-QTOF
SMILES: OC1=C(O)C2=C(C=CC(=O)O2)C=C1
INCHIKEY: ATEFPOUAMCWAQS-UHFFFAOYSA-N
Ontology: 7,8-dihydroxycoumarins
COLLISIONENERGY: 30
FORMULA: C9H6O4
RETENTIONTIME: 3.638
IONMODE: Negative
Comment: registered in RIKEN PlaSMA
Num Peaks: 10
65.03547	212
65.78734	152
77.03899	227
93.02999	242
93.03549	803
95.01535	417
105.03109	182
121.02962	1000
160.01768	220
177.01814	265

NAME: Quercetin-3-O-xyloside
PRECURSORMZ: 433.07763494783
PRECURSORTYPE: [M-H]-
INSTRUMENTTYPE: LC-ESI-QTOF
SMILES: OC1COC(OC2=C(OC3=CC(O)=CC(O)=C3C2=O)C2=CC(O)=C(O)C=C2)C(O)C1O
INCHIKEY: PZZRDJXEMZMZFD-UHFFFAOYNA-N
Ontology: Flavonoid-3-O-glycosides
COLLISIONENERGY: 30
FORMULA: C20H18O11
RETENTIONTIME: 4.164767
IONMODE: Negative
Comment: registered in RIKEN PlaSMA
Num Peaks: 45
107.00719	8
121.0265	12
135.00435	6
136.01804	5
149.02713	7
151.00159	161
152.00511	18
163.00139	44
164.00774	10
178.99757	35
180.00829	7
187.04607	11
211.03949	11
214.02731	10
215.0294	6
216.03903	13
226.02177	15
227.03192	35
229.04518	17
239.02876	21
239.04591	5
241.01013	13
242.02209	29
243.02573	131
244.03078	18
245.03325	7
245.04234	24
254.01868	37
255.02913	344
256.0325	49
257.04352	12
270.01178	11
270.0206	17
271.0231	676
272.01346	17
272.02771	119
273.03235	30
273.05365	18
273.77869	5
283.02594	14
299.02097	25
300.0267	1000
301.03156	338
302.03461	73
303.04794	7

NAME: Petunidin-3-O-beta-glucoside
PRECURSORMZ: 477.10330111576
PRECURSORTYPE: [M-2H]-
INSTRUMENTTYPE: LC-ESI-QTOF
SMILES: COC1=CC(=CC(O)=C1O)C1=C(OC2OC(CO)C(O)C(O)C2O)C=C2C(O)=CC(O)=CC2=[O+]1
INCHIKEY: CCQDWIRWKWIUKK-UHFFFAOYNA-O
Ontology: Anthocyanidin-3-O-glycosides
COLLISIONENERGY: 30
FORMULA: C22H23O12
RETENTIONTIME: 4.38115
IONMODE: Negative
Comment: registered in RIKEN PlaSMA
Num Peaks: 43
91.00363	22
149.02661	18
151.00165	49
162.03406	26
185.03058	43
215.04182	29
225.82466	24
242.00981	21
242.02242	42
242.03281	26
243.02814	663
244.03169	153
249.06337	17
256.03336	20
257.04654	134
257.05783	79
258.04996	41
261.03159	25
270.01376	19
271.02304	564
272.02567	36
274.05811	26
285.03406	336
286.04749	183
287.03903	29
287.04904	20
299.01303	94
299.02646	18
300.02316	58
300.05164	26
301.03	19
313.03772	17
313.9516	26
314.04398	1000
315.04526	59
315.06097	42
316.04459	72
319.46136	17
342.04092	24
354.9342	19
371.58633	26
419.03906	24
477.1174	38

NAME: Delphinidin
PRECURSORMZ: 301.03482761576
PRECURSORTYPE: [M-2H]-
INSTRUMENTTYPE: LC-ESI-QTOF
SMILES: OC1=CC2=[O+]C(=C(O)C=C2C(O)=C1)C1=CC(O)=C(O)C(O)=C1
INCHIKEY: JKHRCGUTYDNCLE-UHFFFAOYSA-O
Ontology: 7-hydroxyflavonoids
COLLISIONENERGY: 30
FORMULA: C15H11O7
RETENTIONTIME: 5.3731
IONMODE: Negative
Comment: registered in RIKEN PlaSMA
Num Peaks: 48
65.00543	114
83.01376	108
93.03517	161
95.30489	51
107.00892	332
107.01684	37
108.0202	81
109.0281	51
121.02744	679
122.02712	46
122.03513	46
124.01205	92
131.05502	55
133.02713	59
135.00049	53
135.04309	37
139.05368	97
141.02989	37
142.04567	79
148.01271	51
149.02141	40
151.00237	1000
152.00661	114
159.04735	33
160.0451	38
164.00804	37
164.01611	46
173.02133	37
178.99503	192
183.04539	40
189.02156	57
198.03351	44
199.04158	77
200.05818	46
201.05135	40
211.03114	59
213.01917	40
214.02983	33
226.01872	42
226.03214	59
227.03079	117
231.99438	42
240.03285	55
240.04424	42
255.02457	37
271.02554	33
273.02264	46
284.0347	57

NAME: Delphinidin-3-O-sambubioside
PRECURSORMZ: 595.12990981576
PRECURSORTYPE: [M-2H]-
INSTRUMENTTYPE: LC-ESI-QTOF
SMILES: OCC1OC(OC2=C([O+]=C3C=C(O)C=C(O)C3=C2)C2=CC(O)=C(O)C(O)=C2)C(OC2OCC(O)C(O)C2O)C(O)C1O
INCHIKEY: TWYYVOVDSNRIJM-UHFFFAOYNA-O
Ontology: Anthocyanidin-3-O-glycosides
COLLISIONENERGY: 50
FORMULA: C26H29O16
RETENTIONTIME: 2.6614
IONMODE: Negative
Comment: registered in RIKEN PlaSMA
Num Peaks: 28
137.02203	187
144.05711	216
147.01143	187
148.00671	179
148.01512	187
175.04395	179
183.04936	201
189.0251	149
198.02075	201
201.06238	134
204.03529	149
213.02368	179
226.04199	313
227.03191	149
229.00946	187
243.02246	187
255.01994	194
255.03737	328
257.0419	157
271.02341	1000
272.02884	254
274.54837	276
282.00375	149
282.06631	224
299.01108	254
299.02896	157
300.03613	149
311.02725	164

NAME: isorhamnetin-3-glucoside-4'-glucoside (Isorhamnetin 3,4'-diglucoside)
PRECURSORMZ: 639.1566731
PRECURSORTYPE: [M-H]-
INSTRUMENTTYPE: LC-ESI-QTOF
SMILES: COC1=C(OC2OC(CO)C(O)C(O)C2O)C=CC(=C1)C1=C(OC2OC(CO)C(O)C(O)C2O)C(=O)C2=C(O)C=C(O)C=C2O1
INCHIKEY: VKVBSQRURLRCHO-UHFFFAOYNA-N
Ontology: Flavonoid-3-O-glycosides
COLLISIONENERGY: 50
FORMULA: C28H32O17
RETENTIONTIME: 3.229367
IONMODE: Negative
Comment: registered in RIKEN PlaSMA
Num Peaks: 93
108.01858	6
108.02526	8
121.45747	10
124.0126	6
136.01732	8
149.99557	5
151.00136	29
152.004	5
156.05556	7
164.01715	10
168.05885	9
172.00639	6
172.06071	5
183.05193	5
185.05896	6
190.18587	6
192.00398	7
200.04404	8
200.05803	6
207.03151	8
207.58832	8
213.02084	6
214.02063	11
214.66563	8
215.03481	6
215.05888	7
219.75227	10
226.03922	6
227.02832	15
228.04282	7
231.02768	6
234.0424	6
240.03429	6
241.01842	6
241.05243	11
241.43684	6
242.02075	115
242.04628	9
243.03061	117
244.02081	8
244.03256	16
244.04251	11
251.72845	16
254.02568	20
255.02521	20
255.0363	11
256.03745	13
257.04227	20
259.04742	14
267.03717	6
269.9664	12
270.01523	394
271.01953	135
271.03049	67
272.02817	42
272.04202	8
284.03412	10
285.03757	268
286.03625	27
286.04425	43
286.59366	6
287.04324	16
287.05264	11
291.03967	13
292.07858	5
295.02075	9
297.81061	9
298.01083	110
299.0202	128
299.0499	6
300.02579	376
300.90417	10
301.02228	49
301.03647	83
302.02423	16
302.03827	9
303.03937	5
304.86603	5
311.05328	13
312.03659	7
313.03415	1000
313.24533	6
314.03949	294
315.03879	105
315.05273	153
316.05563	14
317.07129	10
324.03918	13
327.0401	7
337.05069	6
358.28818	5
391.94647	6
476.09332	7

NAME: Procyanidin C1
PRECURSORMZ: 865.19853794783
PRECURSORTYPE: [M-H]-
INSTRUMENTTYPE: LC-ESI-QTOF
SMILES: OC1CC2=C(OC1C1=CC(O)=C(O)C=C1)C(C1C(O)C(OC3=C(C4C(O)C(OC5=CC(O)=CC(O)=C45)C4=CC(O)=C(O)C=C4)C(O)=CC(O)=C13)C1=CC(O)=C(O)C=C1)=C(O)C=C2O
INCHIKEY: MOJZMWJRUKIQGL-UHFFFAOYNA-N
Ontology: Biflavonoids and polyflavonoids
COLLISIONENERGY: 50
FORMULA: C45H38O18
RETENTIONTIME: 3.463467
IONMODE: Negative
Comment: registered in RIKEN PlaSMA
Num Peaks: 103
123.0356	35
123.04453	42
123.04993	32
125.02525	1000
125.04485	33
126.02314	119
137.02527	43
149.01778	40
151.03328	45
151.04076	73
161.02153	290
161.03287	35
162.02731	37
163.02791	37
163.03783	68
164.00833	119
164.0173	58
165.01328	37
165.02325	102
166.02509	52
167.03186	82
173.06358	37
175.03534	155
175.04413	48
176.04274	37
177.01521	62
177.05583	43
179.03194	37
179.04042	35
197.05968	38
203.03281	55
203.04309	33
203.07161	30
205.04803	50
215.04002	38
215.07306	120
217.03674	47
217.04553	53
218.05977	47
220.02472	38
226.06117	37
227.02896	63
227.04643	45
231.03181	53
243.02809	287
243.0416	78
243.06088	67
243.07039	48
244.03169	149
245.05183	107
245.08014	77
245.23383	37
246.0787	45
252.04085	33
253.06516	38
255.02692	72
257.04245	70
260.07419	33
261.03342	97
268.02625	62
269.04852	174
270.00735	48
281.03879	33
281.04858	47
282.02484	43
283.01987	38
284.03262	47
285.0184	33
285.04825	182
286.03864	30
286.67389	30
287.05542	50
287.06607	38
289.07022	100
289.0961	32
297.02701	30
298.03903	52
299.10175	43
300.02182	32
306.0412	33
311.0997	33
325.02582	43
329.05429	47
329.06631	37
339.08032	33
341.06769	30
348.02493	55
363.04907	45
365.07617	77
375.06696	60
378.06158	33
383.07684	32
387.05045	45
391.0405	37
407.08423	192
408.07355	65
410.10291	33
411.07626	129
449.09259	78
522.07465	35
525.07355	37
526.0766	30
665.16083	37

NAME: Quercetin-3-O-xyloside
PRECURSORMZ: 433.07763494783
PRECURSORTYPE: [M-H]-
INSTRUMENTTYPE: LC-ESI-QTOF
SMILES: OC1COC(OC2=C(OC3=CC(O)=CC(O)=C3C2=O)C2=CC(O)=C(O)C=C2)C(O)C1O
INCHIKEY: PZZRDJXEMZMZFD-UHFFFAOYNA-N
Ontology: Flavonoid-3-O-glycosides
COLLISIONENERGY: 50
FORMULA: C20H18O11
RETENTIONTIME: 4.164767
IONMODE: Negative
Comment: registered in RIKEN PlaSMA
Num Peaks: 166
79.01521	9
84.01575	10
91.01805	13
92.02658	18
93.0332	7
107.01251	109
108.01805	40
108.02553	7
108.79649	7
109.02766	58
110.02847	12
119.01408	21
119.02048	9
119.0499	10
120.00563	8
120.02219	17
120.055	7
121.02449	26
127.05091	7
129.03734	10
131.05838	8
132.01883	7
133.02916	22
135.00713	47
136.01332	16
142.03236	10
143.04408	39
143.05466	10
145.03114	36
146.03513	15
147.0087	7
147.04599	9
148.01746	150
149.02005	9
150.99246	8
150.99876	17
152.00031	10
153.00232	15
153.01933	12
153.03903	24
154.8698	7
155.04001	12
155.04654	29
155.05302	36
157.02869	7
158.03127	7
158.04466	10
159.03647	7
159.04556	14
160.01703	22
160.04602	8
161.0278	17
161.04359	8
161.05594	12
163.00014	26
163.0062	7
164.01274	56
164.38843	7
167.04518	21
168.05328	6
170.03952	24
171.04581	90
171.05965	9
172.04465	13
172.05394	15
172.50331	11
173.0213	38
173.07904	7
173.46268	7
174.02641	20
174.03416	12
175.04297	6
175.0499	6
178.99661	29
181.03452	11
182.03392	62
183.03516	40
183.04465	94
184.04907	16
185.02486	27
186.02678	9
187.00604	8
187.0399	98
188.04086	26
188.05049	18
189.04607	10
192.00246	12
195.61424	6
196.05061	7
197.00674	11
197.01788	21
197.02646	17
197.17085	9
197.31934	10
198.02878	38
199.03999	194
200.03537	24
201.01921	94
201.04138	8
201.0536	12
202.02072	13
202.05533	19
203.03284	25
203.0421	30
204.03474	7
205.03566	6
206.86049	7
209.01604	9
210.03517	8
211.01302	7
211.03722	119
212.0519	6
213.02051	34
214.02069	17
214.02879	10
215.03551	77
216.03125	10
223.85437	9
225.02013	17
225.31178	12
226.02119	25
226.03018	30
226.0386	7
227.00513	9
227.03342	275
227.05566	19
228.03365	81
228.99821	8
229.01506	49
229.054	8
229.39847	7
230.00998	7
231.01814	8
241.00781	71
241.01813	75
242.01944	155
242.03067	36
243.02634	425
243.37376	10
244.03259	107
245.03911	9
245.73317	6
253.0106	24
255.02959	447
256.01797	8
256.03412	99
257.35052	7
258.8804	11
270.01569	7
270.02924	7
270.68848	9
271.02325	1000
271.24713	10
272.00476	7
272.0282	226
273.02698	6
273.0466	8
281.14847	6
282.01074	16
283.01587	9
283.02563	7
299.0192	56
299.03528	10
301.03296	13
313.22662	8
411.62567	10

NAME: Petunidin-3-O-beta-glucoside
PRECURSORMZ: 477.10330111576
PRECURSORTYPE: [M-2H]-
INSTRUMENTTYPE: LC-ESI-QTOF
SMILES: COC1=CC(=CC(O)=C1O)C1=C(OC2OC(CO)C(O)C(O)C2O)C=C2C(O)=CC(O)=CC2=[O+]1
INCHIKEY: CCQDWIRWKWIUKK-UHFFFAOYNA-O
Ontology: Anthocyanidin-3-O-glycosides
COLLISIONENERGY: 50
FORMULA: C22H23O12
RETENTIONTIME: 4.38115
IONMODE: Negative
Comment: registered in RIKEN PlaSMA
Num Peaks: 50
107.01071	40
113.3183	35
135.0058	35
143.0423	35
143.05225	33
145.0343	32
149.02231	39
149.98904	44
155.05103	35
157.02707	44
167.04781	49
170.03616	63
173.03133	95
173.0433	32
175.03607	40
181.02956	51
184.40952	44
186.03217	128
187.02859	49
192.00861	67
197.01743	76
197.02434	72
199.0322	72
199.04419	392
200.04329	54
201.01831	77
202.01552	40
203.03375	69
213.01904	58
215.03352	76
225.01741	44
226.02486	98
226.98381	44
227.03387	79
229.01994	65
242.02034	427
242.03015	213
243.02892	1000
244.02727	105
257.03897	81
258.03516	51
270.01273	533
270.02792	100
271.01981	453
271.25797	47
272.03009	320
272.3103	44
273.03162	86
299.01807	40
301.03406	47

NAME: Delphinidin
PRECURSORMZ: 301.03482761576
PRECURSORTYPE: [M-2H]-
INSTRUMENTTYPE: LC-ESI-QTOF
SMILES: OC1=CC2=[O+]C(=C(O)C=C2C(O)=C1)C1=CC(O)=C(O)C(O)=C1
INCHIKEY: JKHRCGUTYDNCLE-UHFFFAOYSA-O
Ontology: 7-hydroxyflavonoids
COLLISIONENERGY: 50
FORMULA: C15H11O7
RETENTIONTIME: 5.3731
IONMODE: Negative
Comment: registered in RIKEN PlaSMA
Num Peaks: 2
108.01997	1000
162.03191	500

NAME: Delphinidin-3-O-sambubioside
PRECURSORMZ: 595.12990981576
PRECURSORTYPE: [M-2H]-
INSTRUMENTTYPE: LC-ESI-QTOF
SMILES: OCC1OC(OC2=C([O+]=C3C=C(O)C=C(O)C3=C2)C2=CC(O)=C(O)C(O)=C2)C(OC2OCC(O)C(O)C2O)C(O)C1O
INCHIKEY: TWYYVOVDSNRIJM-UHFFFAOYNA-O
Ontology: Anthocyanidin-3-O-glycosides
COLLISIONENERGY: 10
FORMULA: C26H29O16
RETENTIONTIME: 2.6614
IONMODE: Negative
Comment: registered in RIKEN PlaSMA
Num Peaks: 15
89.02615	42
191.06113	88
217.00594	67
228.0513	42
293.03867	38
299.03247	42
300.02924	1000
300.04782	48
301.04187	83
355.04068	233
356.05612	46
387.02386	56
445.09839	85
469.10971	60
595.11945	290

NAME: isorhamnetin-3-glucoside-4'-glucoside (Isorhamnetin 3,4'-diglucoside)
PRECURSORMZ: 639.1566731
PRECURSORTYPE: [M-H]-
INSTRUMENTTYPE: LC-ESI-QTOF
SMILES: COC1=C(OC2OC(CO)C(O)C(O)C2O)C=CC(=C1)C1=C(OC2OC(CO)C(O)C(O)C2O)C(=O)C2=C(O)C=C(O)C=C2O1
INCHIKEY: VKVBSQRURLRCHO-UHFFFAOYNA-N
Ontology: Flavonoid-3-O-glycosides
COLLISIONENERGY: 10
FORMULA: C28H32O17
RETENTIONTIME: 3.229367
IONMODE: Negative
Comment: registered in RIKEN PlaSMA
Num Peaks: 49
125.0275	8
226.03227	5
259.06604	5
271.01334	9
274.02191	5
284.06558	6
287.53448	7
300.02585	29
300.04318	9
301.03448	6
311.06012	13
312.07056	5
313.03323	322
313.08087	5
314.03	36
314.04031	118
315.05029	458
316.05191	68
317.06116	20
327.03729	7
329.07217	8
340.96658	5
357.05182	17
357.06607	29
358.05319	9
358.07217	9
369.05975	7
381.06613	9
382.04904	5
418.73312	6
462.07803	14
475.72232	5
476.09766	103
476.98575	7
477.10452	603
478.08868	42
478.11072	109
478.13474	13
479.09976	25
479.11502	17
480.11591	10
490.09195	6
490.13345	12
519.11267	27
519.13354	13
520.10876	10
520.12506	20
543.12079	6
639.15808	1000

NAME: Procyanidin C1
PRECURSORMZ: 865.19853794783
PRECURSORTYPE: [M-H]-
INSTRUMENTTYPE: LC-ESI-QTOF
SMILES: OC1CC2=C(OC1C1=CC(O)=C(O)C=C1)C(C1C(O)C(OC3=C(C4C(O)C(OC5=CC(O)=CC(O)=C45)C4=CC(O)=C(O)C=C4)C(O)=CC(O)=C13)C1=CC(O)=C(O)C=C1)=C(O)C=C2O
INCHIKEY: MOJZMWJRUKIQGL-UHFFFAOYNA-N
Ontology: Biflavonoids and polyflavonoids
COLLISIONENERGY: 10
FORMULA: C45H38O18
RETENTIONTIME: 3.463467
IONMODE: Negative
Comment: registered in RIKEN PlaSMA
Num Peaks: 100
71.51712	29
125.02051	85
125.02827	66
161.02267	26
163.03403	26
164.01575	47
217.04579	26
230.02155	40
243.02228	117
243.03358	26
245.04539	164
245.07462	29
245.08414	67
255.01698	26
261.03094	78
261.04428	29
262.04922	47
277.4693	29
285.03906	82
285.05023	32
287.04248	130
287.05798	136
288.04453	31
288.05518	44
289.0676	116
290.07611	67
299.04919	63
303.04224	37
305.06796	35
311.04901	26
316.0535	34
322.03537	54
327.04532	53
329.06702	50
361.02786	31
363.08972	41
364.05273	38
369.09763	35
375.07169	34
381.09381	28
392.03162	29
395.05804	37
395.08795	26
405.04858	76
407.07938	319
407.10046	76
408.07379	35
413.07904	29
414.08359	69
415.0936	32
425.09137	57
425.10373	41
426.06458	53
427.10507	38
433.06989	34
436.1178	35
437.76199	47
449.06866	70
449.08456	51
449.09528	29
450.09006	60
451.08307	34
451.09921	101
462.1069	63
472.11758	29
511.08688	40
511.1424	37
525.07214	29
533.10876	67
543.0896	29
543.11603	51
544.09729	29
545.11035	37
573.125	28
575.11353	64
576.1123	32
577.14227	231
578.13104	56
578.15845	40
587.10687	101
587.12616	31
604.6358	31
695.14935	145
696.14392	88
697.17822	40
712.13867	59
713.14557	100
713.17023	29
715.1745	29
739.17926	83
741.1626	28
756.16364	35
793.34229	61
814.19629	32
839.66382	26
863.17053	67
864.16333	26
864.18286	26
864.2168	29
865.19836	1000

NAME: 7,8-Dihydroxycoumarin
PRECURSORMZ: 177.01933224783
PRECURSORTYPE: [M-H]-
INSTRUMENTTYPE: LC-ESI-QTOF
SMILES: OC1=C(O)C2=C(C=CC(=O)O2)C=C1
INCHIKEY: ATEFPOUAMCWAQS-UHFFFAOYSA-N
Ontology: 7,8-dihydroxycoumarins
COLLISIONENERGY: 10
FORMULA: C9H6O4
RETENTIONTIME: 3.638
IONMODE: Negative
Comment: registered in RIKEN PlaSMA
Num Peaks: 18
77.0397	12
93.03194	76
93.03708	19
105.03303	128
106.03667	17
120.01934	5
121.02753	143
122.0341	16
131.00618	6
131.01306	14
131.01802	5
132.01892	27
133.02913	156
135.03853	9
149.02388	132
150.02602	6
151.00175	7
177.01823	1000

NAME: Quercetin-3-O-xyloside
PRECURSORMZ: 433.07763494783
PRECURSORTYPE: [M-H]-
INSTRUMENTTYPE: LC-ESI-QTOF
SMILES: OC1COC(OC2=C(OC3=CC(O)=CC(O)=C3C2=O)C2=CC(O)=C(O)C=C2)C(O)C1O
INCHIKEY: PZZRDJXEMZMZFD-UHFFFAOYNA-N
Ontology: Flavonoid-3-O-glycosides
COLLISIONENERGY: 10
FORMULA: C20H18O11
RETENTIONTIME: 4.164767
IONMODE: Negative
Comment: registered in RIKEN PlaSMA
Num Peaks: 56
54.38406	6
74.26461	5
147.0096	7
147.0388	5
150.99658	33
151.00395	46
151.99939	9
163.00322	13
178.99727	69
179.99625	10
180.54842	6
183.04472	10
187.03363	7
199.03935	12
201.02086	7
211.032	7
211.04652	5
226.02225	20
227.02191	5
227.03291	17
227.04079	5
228.03818	16
229.05344	9
230.89679	8
241.00443	9
241.01671	16
242.01892	32
243.02956	79
244.02728	7
244.03957	12
244.55197	6
246.04657	8
246.34186	10
254.02106	34
255.02954	252
256.02316	11
256.03516	23
257.03152	12
271.02411	512
271.24155	5
272.02795	101
273.02667	22
273.03775	22
283.02881	9
298.00635	7
299.01758	45
300.02594	1000
301.03235	914
302.03473	123
302.05206	8
303.04147	16
337.10486	6
431.07364	9
432.05023	26
432.06845	26
433.07697	998

NAME: Petunidin-3-O-beta-glucoside
PRECURSORMZ: 477.10330111576
PRECURSORTYPE: [M-2H]-
INSTRUMENTTYPE: LC-ESI-QTOF
SMILES: COC1=CC(=CC(O)=C1O)C1=C(OC2OC(CO)C(O)C(O)C2O)C=C2C(O)=CC(O)=CC2=[O+]1
INCHIKEY: CCQDWIRWKWIUKK-UHFFFAOYNA-O
Ontology: Anthocyanidin-3-O-glycosides
COLLISIONENERGY: 10
FORMULA: C22H23O12
RETENTIONTIME: 4.38115
IONMODE: Negative
Comment: registered in RIKEN PlaSMA
Num Peaks: 36
150.99222	19
150.99782	26
164.00174	26
193.01988	32
201.04651	18
218.06523	15
227.04285	31
235.01422	15
242.02422	15
243.02132	97
243.02951	169
244.03593	31
257.04135	39
257.05289	123
265.72696	22
270.02301	15
271.02341	255
271.04047	37
272.02283	36
273.05423	15
285.04218	172
285.05075	55
286.04196	66
287.04739	15
299.02231	28
314.03915	509
315.04648	162
316.04678	15
316.07193	18
327.01938	15
340.84625	16
353.03271	16
357.07233	26
364.10223	43
388.06985	23
477.10043	1000

NAME: Delphinidin
PRECURSORMZ: 301.03482761576
PRECURSORTYPE: [M-2H]-
INSTRUMENTTYPE: LC-ESI-QTOF
SMILES: OC1=CC2=[O+]C(=C(O)C=C2C(O)=C1)C1=CC(O)=C(O)C(O)=C1
INCHIKEY: JKHRCGUTYDNCLE-UHFFFAOYSA-O
Ontology: 7-hydroxyflavonoids
COLLISIONENERGY: 10
FORMULA: C15H11O7
RETENTIONTIME: 5.3731
IONMODE: Negative
Comment: registered in RIKEN PlaSMA
Num Peaks: 39
65.00204	21
83.01376	76
95.00617	21
107.00906	54
107.01729	113
109.02561	26
120.01846	21
121.02803	201
126.26498	21
133.02872	20
134.03059	16
144.05591	21
147.04021	33
151.0018	750
152.00902	64
169.06595	25
173.02292	16
173.05089	50
175.04037	22
178.05998	33
178.99207	146
179.00363	50
179.99722	49
183.04103	16
188.05066	20
201.03928	27
205.04611	23
211.03723	46
227.03125	32
229.04861	33
230.04387	19
243.03728	22
257.03629	15
260.02591	32
271.02319	25
273.02985	49
300.01514	15
300.03964	18
301.03207	1000

NAME: Delphinidin-3-O-sambubioside
PRECURSORMZ: 595.12990981576
PRECURSORTYPE: [M-2H]-
INSTRUMENTTYPE: LC-ESI-QTOF
SMILES: OCC1OC(OC2=C([O+]=C3C=C(O)C=C(O)C3=C2)C2=CC(O)=C(O)C(O)=C2)C(OC2OCC(O)C(O)C2O)C(O)C1O
INCHIKEY: TWYYVOVDSNRIJM-UHFFFAOYNA-O
Ontology: Anthocyanidin-3-O-glycosides
COLLISIONENERGY: 10
FORMULA: C26H29O16
RETENTIONTIME: 2.6614
IONMODE: Negative
Comment: registered in RIKEN PlaSMA
Num Peaks: 4
137.00064	27
215.03754	20
593.11829	23
595.12939	1000

NAME: isorhamnetin-3-glucoside-4'-glucoside (Isorhamnetin 3,4'-diglucoside)
PRECURSORMZ: 639.1566731
PRECURSORTYPE: [M-H]-
INSTRUMENTTYPE: LC-ESI-QTOF
SMILES: COC1=C(OC2OC(CO)C(O)C(O)C2O)C=CC(=C1)C1=C(OC2OC(CO)C(O)C(O)C2O)C(=O)C2=C(O)C=C(O)C=C2O1
INCHIKEY: VKVBSQRURLRCHO-UHFFFAOYNA-N
Ontology: Flavonoid-3-O-glycosides
COLLISIONENERGY: 10
FORMULA: C28H32O17
RETENTIONTIME: 3.229367
IONMODE: Negative
Comment: registered in RIKEN PlaSMA
Num Peaks: 7
315.05624	18
477.10226	150
478.10617	23
479.12967	7
480.10959	10
519.12054	6
639.15924	1000

NAME: Procyanidin C1
PRECURSORMZ: 865.19853794783
PRECURSORTYPE: [M-H]-
INSTRUMENTTYPE: LC-ESI-QTOF
SMILES: OC1CC2=C(OC1C1=CC(O)=C(O)C=C1)C(C1C(O)C(OC3=C(C4C(O)C(OC5=CC(O)=CC(O)=C45)C4=CC(O)=C(O)C=C4)C(O)=CC(O)=C13)C1=CC(O)=C(O)C=C1)=C(O)C=C2O
INCHIKEY: MOJZMWJRUKIQGL-UHFFFAOYNA-N
Ontology: Biflavonoids and polyflavonoids
COLLISIONENERGY: 10
FORMULA: C45H38O18
RETENTIONTIME: 3.463467
IONMODE: Negative
Comment: registered in RIKEN PlaSMA
Num Peaks: 26
289.07144	27
425.08295	40
449.08014	24
450.08429	16
451.10043	15
533.10187	29
557.12506	16
574.09753	15
575.09918	15
575.12097	94
576.133	37
577.13135	96
577.15814	36
578.14099	34
587.10956	18
695.11511	15
696.14374	72
697.14716	15
711.18542	17
713.11859	55
739.16937	44
740.16553	37
864.16638	89
864.20276	102
865.17816	313
865.20221	1000

NAME: 7,8-Dihydroxycoumarin
PRECURSORMZ: 177.01933224783
PRECURSORTYPE: [M-H]-
INSTRUMENTTYPE: LC-ESI-QTOF
SMILES: OC1=C(O)C2=C(C=CC(=O)O2)C=C1
INCHIKEY: ATEFPOUAMCWAQS-UHFFFAOYSA-N
Ontology: 7,8-dihydroxycoumarins
COLLISIONENERGY: 10
FORMULA: C9H6O4
RETENTIONTIME: 3.638
IONMODE: Negative
Comment: registered in RIKEN PlaSMA
Num Peaks: 11
93.0293	5
93.03429	8
105.03477	47
106.03446	9
121.02921	39
132.02113	12
133.02676	65
149.02214	43
149.02795	12
176.01125	9
177.01788	1000

NAME: Quercetin-3-O-xyloside
PRECURSORMZ: 433.07763494783
PRECURSORTYPE: [M-H]-
INSTRUMENTTYPE: LC-ESI-QTOF
SMILES: OC1COC(OC2=C(OC3=CC(O)=CC(O)=C3C2=O)C2=CC(O)=C(O)C=C2)C(O)C1O
INCHIKEY: PZZRDJXEMZMZFD-UHFFFAOYNA-N
Ontology: Flavonoid-3-O-glycosides
COLLISIONENERGY: 10
FORMULA: C20H18O11
RETENTIONTIME: 4.164767
IONMODE: Negative
Comment: registered in RIKEN PlaSMA
Num Peaks: 8
299.01556	10
300.02756	97
301.03445	241
302.03705	51
303.03448	7
431.06332	42
432.06711	42
433.0769	1000

NAME: Petunidin-3-O-beta-glucoside
PRECURSORMZ: 477.10330111576
PRECURSORTYPE: [M-2H]-
INSTRUMENTTYPE: LC-ESI-QTOF
SMILES: COC1=CC(=CC(O)=C1O)C1=C(OC2OC(CO)C(O)C(O)C2O)C=C2C(O)=CC(O)=CC2=[O+]1
INCHIKEY: CCQDWIRWKWIUKK-UHFFFAOYNA-O
Ontology: Anthocyanidin-3-O-glycosides
COLLISIONENERGY: 10
FORMULA: C22H23O12
RETENTIONTIME: 4.38115
IONMODE: Negative
Comment: registered in RIKEN PlaSMA
Num Peaks: 13
150.99925	9
153.02238	5
198.79977	7
204.03734	10
287.05399	5
301.64597	9
314.0477	26
315.05588	15
336.41235	5
357.06	12
425.37231	11
477.10358	1000
477.26831	5

NAME: Delphinidin
PRECURSORMZ: 301.03482761576
PRECURSORTYPE: [M-2H]-
INSTRUMENTTYPE: LC-ESI-QTOF
SMILES: OC1=CC2=[O+]C(=C(O)C=C2C(O)=C1)C1=CC(O)=C(O)C(O)=C1
INCHIKEY: JKHRCGUTYDNCLE-UHFFFAOYSA-O
Ontology: 7-hydroxyflavonoids
COLLISIONENERGY: 10
FORMULA: C15H11O7
RETENTIONTIME: 5.3731
IONMODE: Negative
Comment: registered in RIKEN PlaSMA
Num Peaks: 16
121.03122	9
151.00215	213
151.71509	8
152.00418	26
172.20906	7
172.83752	6
174.99869	7
178.99321	81
179.00284	43
180.00003	23
230.05386	6
257.05643	6
271.0202	6
273.04111	13
300.0209	6
301.03397	1000

NAME: Delphinidin-3-O-sambubioside
PRECURSORMZ: 595.12990981576
PRECURSORTYPE: [M-2H]-
INSTRUMENTTYPE: LC-ESI-QTOF
SMILES: OCC1OC(OC2=C([O+]=C3C=C(O)C=C(O)C3=C2)C2=CC(O)=C(O)C(O)=C2)C(OC2OCC(O)C(O)C2O)C(O)C1O
INCHIKEY: TWYYVOVDSNRIJM-UHFFFAOYNA-O
Ontology: Anthocyanidin-3-O-glycosides
COLLISIONENERGY: 30
FORMULA: C26H29O16
RETENTIONTIME: 2.6614
IONMODE: Negative
Comment: registered in RIKEN PlaSMA
Num Peaks: 13
137.02971	28
146.99954	25
147.01076	27
231.02264	24
299.02325	86
300.02686	1000
300.05225	28
301.03354	169
302.04221	27
365.03708	27
367.03683	35
367.05038	32
367.06058	25

NAME: isorhamnetin-3-glucoside-4'-glucoside (Isorhamnetin 3,4'-diglucoside)
PRECURSORMZ: 639.1566731
PRECURSORTYPE: [M-H]-
INSTRUMENTTYPE: LC-ESI-QTOF
SMILES: COC1=C(OC2OC(CO)C(O)C(O)C2O)C=CC(=C1)C1=C(OC2OC(CO)C(O)C(O)C2O)C(=O)C2=C(O)C=C(O)C=C2O1
INCHIKEY: VKVBSQRURLRCHO-UHFFFAOYNA-N
Ontology: Flavonoid-3-O-glycosides
COLLISIONENERGY: 30
FORMULA: C28H32O17
RETENTIONTIME: 3.229367
IONMODE: Negative
Comment: registered in RIKEN PlaSMA
Num Peaks: 48
151.00237	15
175.00044	11
233.40164	5
255.09926	5
258.6571	6
277.89734	5
284.01968	6
285.05197	5
290.052	5
299.01804	30
299.05023	19
300.07043	5
311.04303	9
313.03403	570
314.03842	297
315.04941	1000
316.05035	188
316.07883	5
317.04666	10
327.05478	14
328.05554	14
330.05334	8
331.06873	5
333.31158	14
337.07172	6
338.07608	11
340.05585	8
353.05673	6
353.07001	6
357.05435	66
358.05716	14
359.08975	5
369.07748	7
381.0459	13
382.05161	6
427.7753	5
461.07724	43
462.1008	5
463.07483	7
465.73016	6
476.09195	424
477.09988	597
477.15598	6
478.06149	11
478.10944	162
479.10297	45
499.10056	6
519.10846	9

NAME: Procyanidin C1
PRECURSORMZ: 865.19853794783
PRECURSORTYPE: [M-H]-
INSTRUMENTTYPE: LC-ESI-QTOF
SMILES: OC1CC2=C(OC1C1=CC(O)=C(O)C=C1)C(C1C(O)C(OC3=C(C4C(O)C(OC5=CC(O)=CC(O)=C45)C4=CC(O)=C(O)C=C4)C(O)=CC(O)=C13)C1=CC(O)=C(O)C=C1)=C(O)C=C2O
INCHIKEY: MOJZMWJRUKIQGL-UHFFFAOYNA-N
Ontology: Biflavonoids and polyflavonoids
COLLISIONENERGY: 30
FORMULA: C45H38O18
RETENTIONTIME: 3.463467
IONMODE: Negative
Comment: registered in RIKEN PlaSMA
Num Peaks: 87
125.02344	1000
126.03313	211
137.02191	121
161.02303	59
189.02325	59
212.31375	113
217.0462	67
219.0273	51
219.03824	51
231.02887	67
243.02809	398
244.03903	46
245.04012	190
246.06598	51
261.03458	378
261.04865	57
269.03854	69
273.03354	113
274.04056	75
275.05362	51
285.034	46
287.04648	357
287.06061	254
288.05597	111
288.06509	105
289.06778	537
290.06842	46
291.06409	59
299.05472	190
316.10486	59
327.05783	59
331.0824	51
337.05981	51
339.06277	46
367.06903	64
374.03238	51
377.08585	46
381.09528	152
397.05713	49
405.05338	152
405.07999	69
406.06137	72
407.05609	51
407.08377	499
408.07123	51
408.09586	51
411.04858	46
412.07495	72
413.07562	159
413.0921	537
423.06351	113
424.08334	75
425.08539	126
426.07953	116
435.06741	57
437.10416	72
448.10031	67
449.08093	49
450.09686	59
451.0997	198
451.11765	103
467.09604	75
517.11517	72
525.08533	54
540.1217	90
543.09674	126
543.11694	49
544.08325	90
559.07587	75
559.12939	49
560.09778	62
561.078	90
562.11359	121
573.09113	51
575.11511	144
577.11731	111
578.12421	57
579.14056	54
580.15479	59
633.12469	57
658.10522	49
678.10168	46
678.15363	69
695.12634	49
695.15759	75
714.15039	51
740.14612	51

NAME: 7,8-Dihydroxycoumarin
PRECURSORMZ: 177.01933224783
PRECURSORTYPE: [M-H]-
INSTRUMENTTYPE: LC-ESI-QTOF
SMILES: OC1=C(O)C2=C(C=CC(=O)O2)C=C1
INCHIKEY: ATEFPOUAMCWAQS-UHFFFAOYSA-N
Ontology: 7,8-dihydroxycoumarins
COLLISIONENERGY: 30
FORMULA: C9H6O4
RETENTIONTIME: 3.638
IONMODE: Negative
Comment: registered in RIKEN PlaSMA
Num Peaks: 9
77.03846	188
93.03505	474
95.01685	113
121.02382	437
121.02923	1000
122.03014	108
132.0184	75
132.0251	183
136.01094	117

NAME: Quercetin-3-O-xyloside
PRECURSORMZ: 433.07763494783
PRECURSORTYPE: [M-H]-
INSTRUMENTTYPE: LC-ESI-QTOF
SMILES: OC1COC(OC2=C(OC3=CC(O)=CC(O)=C3C2=O)C2=CC(O)=C(O)C=C2)C(O)C1O
INCHIKEY: PZZRDJXEMZMZFD-UHFFFAOYNA-N
Ontology: Flavonoid-3-O-glycosides
COLLISIONENERGY: 30
FORMULA: C20H18O11
RETENTIONTIME: 4.164767
IONMODE: Negative
Comment: registered in RIKEN PlaSMA
Num Peaks: 64
107.01079	19
108.01713	8
108.02559	8
109.02895	5
120.85627	7
121.02624	29
147.00523	6
148.01736	8
149.02692	6
151.00174	176
152.00699	18
159.04036	6
160.04698	5
163.00148	50
164.00974	11
171.04842	5
175.03743	8
178.9964	69
183.04025	14
186.0295	6
188.00861	5
192.88187	6
193.29443	5
195.58188	7
199.03703	12
201.0545	9
211.03397	11
211.04326	17
216.03415	5
226.01804	8
226.02782	18
227.02048	6
227.03638	31
228.03807	21
228.04655	5
229.04987	15
239.03117	6
242.01459	22
242.02271	37
243.02768	111
244.03015	13
245.04077	43
251.47133	6
254.0183	57
255.02679	336
256.03146	62
257.03894	19
269.04892	6
270.0141	23
271.0224	776
272.02603	130
272.04813	7
273.02258	11
273.04236	31
274.04071	8
283.01761	15
283.03101	8
299.01385	28
299.9512	7
300.02582	1000
301.03183	397
302.03363	66
303.0332	6
303.04501	7

NAME: Petunidin-3-O-beta-glucoside
PRECURSORMZ: 477.10330111576
PRECURSORTYPE: [M-2H]-
INSTRUMENTTYPE: LC-ESI-QTOF
SMILES: COC1=CC(=CC(O)=C1O)C1=C(OC2OC(CO)C(O)C(O)C2O)C=C2C(O)=CC(O)=CC2=[O+]1
INCHIKEY: CCQDWIRWKWIUKK-UHFFFAOYNA-O
Ontology: Anthocyanidin-3-O-glycosides
COLLISIONENERGY: 30
FORMULA: C22H23O12
RETENTIONTIME: 4.38115
IONMODE: Negative
Comment: registered in RIKEN PlaSMA
Num Peaks: 40
125.01984	24
151.0034	153
153.01886	33
162.02603	36
178.9995	22
190.99721	33
225.1508	21
227.02841	33
243.0282	517
244.02454	52
254.02512	31
257.04453	168
269.04178	30
270.01242	31
270.05072	25
271.02423	749
271.05594	22
272.02838	153
273.03442	30
285.03903	487
285.07126	35
286.04593	260
286.05533	135
287.04224	47
287.05743	44
288.0463	31
289.07611	37
298.00717	21
299.0141	96
299.03122	53
300.02402	57
300.03723	42
314.04214	1000
315.04221	122
315.05222	68
316.04965	29
317.06049	39
326.04865	23
343.96286	26
357.0665	36

NAME: Delphinidin
PRECURSORMZ: 301.03482761576
PRECURSORTYPE: [M-2H]-
INSTRUMENTTYPE: LC-ESI-QTOF
SMILES: OC1=CC2=[O+]C(=C(O)C=C2C(O)=C1)C1=CC(O)=C(O)C(O)=C1
INCHIKEY: JKHRCGUTYDNCLE-UHFFFAOYSA-O
Ontology: 7-hydroxyflavonoids
COLLISIONENERGY: 30
FORMULA: C15H11O7
RETENTIONTIME: 5.3731
IONMODE: Negative
Comment: registered in RIKEN PlaSMA
Num Peaks: 34
63.02332	39
63.02673	41
64.02783	45
83.01238	123
83.01717	74
93.0348	56
96.02081	45
107.01187	434
108.01499	93
109.03162	49
121.02457	241
149.02585	109
150.02357	37
151.00238	1000
152.00841	47
157.06389	119
159.04364	88
161.02388	53
162.99623	39
163.40022	39
164.00304	49
164.01262	49
173.06499	39
178.9897	66
182.03836	39
187.03824	47
199.03987	88
212.01894	39
212.04787	103
227.0425	39
239.03453	39
240.03322	70
244.03474	35
245.04526	35

NAME: Delphinidin-3-O-sambubioside
PRECURSORMZ: 595.12990981576
PRECURSORTYPE: [M-2H]-
INSTRUMENTTYPE: LC-ESI-QTOF
SMILES: OCC1OC(OC2=C([O+]=C3C=C(O)C=C(O)C3=C2)C2=CC(O)=C(O)C(O)=C2)C(OC2OCC(O)C(O)C2O)C(O)C1O
INCHIKEY: TWYYVOVDSNRIJM-UHFFFAOYNA-O
Ontology: Anthocyanidin-3-O-glycosides
COLLISIONENERGY: 50
FORMULA: C26H29O16
RETENTIONTIME: 2.6614
IONMODE: Negative
Comment: registered in RIKEN PlaSMA
Num Peaks: 28
119.01174	139
120.01263	165
137.02658	146
146.99918	190
157.07539	184
172.04877	127
186.03006	127
187.03772	114
188.04099	120
188.0553	228
212.03833	133
226.02994	165
226.05147	133
227.03812	316
228.01425	139
228.04669	234
243.0226	127
253.02075	152
258.00256	127
258.01877	158
268.03857	127
271.01382	481
271.02829	513
272.02979	1000
298.95938	114
299.01318	158
300.02072	418
301.02933	114

NAME: isorhamnetin-3-glucoside-4'-glucoside (Isorhamnetin 3,4'-diglucoside)
PRECURSORMZ: 639.1566731
PRECURSORTYPE: [M-H]-
INSTRUMENTTYPE: LC-ESI-QTOF
SMILES: COC1=C(OC2OC(CO)C(O)C(O)C2O)C=CC(=C1)C1=C(OC2OC(CO)C(O)C(O)C2O)C(=O)C2=C(O)C=C(O)C=C2O1
INCHIKEY: VKVBSQRURLRCHO-UHFFFAOYNA-N
Ontology: Flavonoid-3-O-glycosides
COLLISIONENERGY: 50
FORMULA: C28H32O17
RETENTIONTIME: 3.229367
IONMODE: Negative
Comment: registered in RIKEN PlaSMA
Num Peaks: 105
71.01207	8
107.01344	18
133.81561	6
149.01709	9
149.98473	7
150.99167	10
151.00278	41
152.00578	8
163.00665	7
164.00923	6
181.6575	6
186.02704	9
187.03603	6
189.02194	11
191.99559	7
193.71014	8
197.20688	8
198.02542	15
198.06889	6
200.00508	8
200.03557	8
200.04582	10
201.00159	10
211.04233	6
214.02803	14
215.03261	9
216.03539	8
216.04788	9
225.05467	8
227.03882	8
227.41536	10
228.04391	12
241.01579	13
241.05562	7
242.01801	125
242.02907	53
242.04901	10
243.0271	89
244.02126	7
244.03844	12
244.06744	13
245.00775	6
245.48892	6
247.8931	13
249.78642	9
252.40416	6
253.01056	6
254.0423	6
255.03073	34
256.02792	9
256.03976	16
257.04712	33
257.06439	9
257.08392	8
270.01306	256
270.02313	129
271.02167	244
271.04367	7
271.73358	9
272.01801	7
272.03796	23
280.93057	8
284.03534	7
285.04074	184
286.01468	7
286.04272	15
286.07401	7
286.75922	6
287.05084	6
289.38031	10
293.3877	6
295.02396	6
298.01248	112
299.00226	16
299.01929	157
300.02814	434
301.02844	70
302.0394	7
307.62451	6
311.05859	10
312.03104	20
313.03296	1000
313.12177	7
314.03931	262
314.49918	7
315.02774	12
315.05038	236
315.06396	52
316.04489	25
316.06046	11
317.05145	7
320.67682	11
327.04517	18
327.34583	8
327.46289	6
328.05527	9
341.02209	6
355.05563	7
372.59424	8
383.9183	7
461.07596	9
476.09674	7
496.21423	8
614.0285	6
618.14368	7

NAME: Procyanidin C1
PRECURSORMZ: 865.19853794783
PRECURSORTYPE: [M-H]-
INSTRUMENTTYPE: LC-ESI-QTOF
SMILES: OC1CC2=C(OC1C1=CC(O)=C(O)C=C1)C(C1C(O)C(OC3=C(C4C(O)C(OC5=CC(O)=CC(O)=C45)C4=CC(O)=C(O)C=C4)C(O)=CC(O)=C13)C1=CC(O)=C(O)C=C1)=C(O)C=C2O
INCHIKEY: MOJZMWJRUKIQGL-UHFFFAOYNA-N
Ontology: Biflavonoids and polyflavonoids
COLLISIONENERGY: 50
FORMULA: C45H38O18
RETENTIONTIME: 3.463467
IONMODE: Negative
Comment: registered in RIKEN PlaSMA
Num Peaks: 75
108.05066	52
109.02857	149
123.04493	41
125.02482	1000
133.02219	71
137.01694	56
137.02789	227
151.03935	41
159.05016	58
161.02324	475
162.02148	41
162.0294	86
163.0013	48
164.01137	95
165.01801	45
173.04137	58
177.01518	43
179.02792	50
183.08383	93
187.04117	39
190.03342	60
199.03609	60
201.05946	123
205.05966	56
217.01285	54
217.0511	43
217.06174	65
219.05803	63
225.05405	48
227.06831	52
228.04509	56
229.04626	43
237.08331	63
241.05136	80
243.02823	248
243.06351	60
244.03235	48
245.02811	54
245.04427	134
245.07657	238
252.03682	52
253.04987	39
255.03325	58
256.02893	54
256.0466	60
257.03668	52
257.04813	41
273.03375	73
274.04742	43
285.05219	67
285.09021	50
286.05249	45
287.05969	97
289.07098	147
297.03497	39
309.07166	41
312.06039	48
329.05685	39
339.056	45
339.09485	58
343.05206	73
363.08347	149
376.06	52
383.10281	56
384.11411	43
407.06683	43
407.08752	117
408.07401	134
411.06619	121
417.06046	48
421.07745	43
435.07883	80
453.06793	45
469.11465	45
540.12115	50

NAME: 7,8-Dihydroxycoumarin
PRECURSORMZ: 177.01933224783
PRECURSORTYPE: [M-H]-
INSTRUMENTTYPE: LC-ESI-QTOF
SMILES: OC1=C(O)C2=C(C=CC(=O)O2)C=C1
INCHIKEY: ATEFPOUAMCWAQS-UHFFFAOYSA-N
Ontology: 7,8-dihydroxycoumarins
COLLISIONENERGY: 50
FORMULA: C9H6O4
RETENTIONTIME: 3.638
IONMODE: Negative
Comment: registered in RIKEN PlaSMA
Num Peaks: 1
73.75307	1000

NAME: Quercetin-3-O-xyloside
PRECURSORMZ: 433.07763494783
PRECURSORTYPE: [M-H]-
INSTRUMENTTYPE: LC-ESI-QTOF
SMILES: OC1COC(OC2=C(OC3=CC(O)=CC(O)=C3C2=O)C2=CC(O)=C(O)C=C2)C(O)C1O
INCHIKEY: PZZRDJXEMZMZFD-UHFFFAOYNA-N
Ontology: Flavonoid-3-O-glycosides
COLLISIONENERGY: 50
FORMULA: C20H18O11
RETENTIONTIME: 4.164767
IONMODE: Negative
Comment: registered in RIKEN PlaSMA
Num Peaks: 158
64.59586	9
65.00317	29
78.01382	14
79.01569	11
92.99467	8
95.64828	9
103.05802	10
107.01273	132
108.0211	73
109.02311	15
109.03072	27
117.03491	8
119.0059	8
119.01208	21
119.55064	12
121.02219	23
121.02951	79
123.01613	10
127.0513	12
132.01201	11
133.02692	10
133.0323	8
133.05952	11
135.00714	50
139.05444	7
142.01526	8
142.04579	9
143.05153	41
144.0517	14
145.03204	34
146.0387	10
147.0081	22
147.03918	11
148.01544	121
149.02411	30
149.66115	9
150.99457	14
151.0023	25
152.00594	16
152.01872	13
154.04485	7
155.04585	23
155.76086	7
157.02431	19
158.03561	40
159.04521	50
160.00745	10
160.02032	23
162.99991	90
164.01112	49
165.02074	10
165.0313	12
167.05406	9
167.55399	7
169.02394	15
169.03378	8
171.0403	67
171.05154	23
172.05557	26
173.02229	7
173.03253	7
173.05763	10
174.03096	7
175.04063	40
176.03593	13
177.04001	7
178.99428	9
179.01187	13
182.03212	31
183.04259	54
184.00638	7
184.03871	15
185.02179	65
186.02861	8
187.03955	133
188.04306	49
190.02342	9
190.03047	9
190.05157	8
193.01094	9
197.02536	26
198.01791	7
198.03052	85
199.01331	9
199.0401	248
200.04024	7
200.78004	8
201.01593	104
201.04822	10
202.0168	47
203.01907	17
203.03065	28
203.039	46
204.0347	7
204.04462	17
206.41147	8
206.70869	12
209.00932	13
210.03493	7
210.97525	11
211.03862	121
212.01102	7
212.04114	9
213.0219	30
213.63644	8
214.02991	21
215.03168	191
216.03751	7
216.04729	9
216.11018	7
216.51646	10
224.532	7
225.00952	7
225.02272	43
226.02121	31
226.03421	47
226.99561	7
227.03436	274
228.03207	8
228.04314	14
229.01384	63
230.01126	10
230.0208	7
239.0365	10
240.0452	7
241.00896	50
242.01602	102
242.03221	16
242.80884	7
243.03032	419
244.03658	73
245.02802	21
245.05022	10
253.0052	8
253.01414	10
254.01927	63
254.03394	9
255.02881	367
256.02313	44
256.03613	33
257.03537	8
267.02637	12
270.02954	10
270.98212	7
271.02472	1000
271.0459	28
272.02618	171
272.26752	7
273.01263	15
273.03302	26
273.04691	16
274.03738	12
281.01355	9
299.01804	25
300.02682	25
301.03857	11
350.69794	13
379.81625	7

NAME: Petunidin-3-O-beta-glucoside
PRECURSORMZ: 477.10330111576
PRECURSORTYPE: [M-2H]-
INSTRUMENTTYPE: LC-ESI-QTOF
SMILES: COC1=CC(=CC(O)=C1O)C1=C(OC2OC(CO)C(O)C(O)C2O)C=C2C(O)=CC(O)=CC2=[O+]1
INCHIKEY: CCQDWIRWKWIUKK-UHFFFAOYNA-O
Ontology: Anthocyanidin-3-O-glycosides
COLLISIONENERGY: 50
FORMULA: C22H23O12
RETENTIONTIME: 4.38115
IONMODE: Negative
Comment: registered in RIKEN PlaSMA
Num Peaks: 43
63.0237	52
131.04892	69
143.054	143
145.02812	126
147.0412	49
171.04648	274
172.04126	74
173.02251	67
175.03804	62
183.04552	52
187.02783	59
187.03764	99
197.01854	67
199.04541	274
199.05672	57
200.0406	72
201.01154	111
201.022	133
202.01498	54
204.04028	57
214.02621	57
215.03215	217
215.04573	67
225.00943	49
225.01825	62
226.01285	44
227.03128	160
227.03946	59
228.04448	54
242.02248	677
243.02931	990
244.02846	62
244.03917	202
245.0265	49
255.0265	109
257.04401	67
257.0517	67
270.01736	1000
271.01349	198
271.0235	600
274.03085	62
285.04022	128
287.00342	44

NAME: Delphinidin
PRECURSORMZ: 301.03482761576
PRECURSORTYPE: [M-2H]-
INSTRUMENTTYPE: LC-ESI-QTOF
SMILES: OC1=CC2=[O+]C(=C(O)C=C2C(O)=C1)C1=CC(O)=C(O)C(O)=C1
INCHIKEY: JKHRCGUTYDNCLE-UHFFFAOYSA-O
Ontology: 7-hydroxyflavonoids
COLLISIONENERGY: 50
FORMULA: C15H11O7
RETENTIONTIME: 5.3731
IONMODE: Negative
Comment: registered in RIKEN PlaSMA
Num Peaks: 6
108.02174	338
121.03487	1000
133.02994	397
150.9953	265
167.04555	279
200.05782	309

NAME: 6,7-Dihydroxycoumarin
PRECURSORMZ: 177.01933224783
PRECURSORTYPE: [M-H]-
INSTRUMENTTYPE: LC-ESI-QTOF
SMILES: OC1=CC2=C(C=CC(=O)O2)C=C1O
INCHIKEY: ILEDWLMCKZNDJK-UHFFFAOYSA-N
Ontology: 6,7-dihydroxycoumarins
COLLISIONENERGY: 10
FORMULA: C9H6O4
RETENTIONTIME: 2.866383
IONMODE: Negative
Comment: registered in RIKEN PlaSMA
Num Peaks: 12
89.03429	14
89.04073	26
105.03136	49
105.0367	16
118.94234	19
121.02502	28
133.02599	168
133.03735	11
134.02884	18
134.04065	11
149.02177	11
177.01656	1000

NAME: Myricetin-3-O-galactoside
PRECURSORMZ: 479.08311424783
PRECURSORTYPE: [M-H]-
INSTRUMENTTYPE: LC-ESI-QTOF
SMILES: OCC1OC(OC2=C(OC3=CC(O)=CC(O)=C3C2=O)C2=CC(O)=C(O)C(O)=C2)C(O)C(O)C1O
INCHIKEY: FOHXFLPXBUAOJM-UHFFFAOYNA-N
Ontology: Flavonoid-3-O-glycosides
COLLISIONENERGY: 10
FORMULA: C21H20O13
RETENTIONTIME: 3.6371
IONMODE: Negative
Comment: registered in RIKEN PlaSMA
Num Peaks: 18
56.83883	67
151.00917	73
178.98677	67
180.00529	56
198.99966	106
215.04008	78
242.01151	81
242.02119	104
270.01474	56
271.01218	59
271.02576	59
287.02344	174
316.00784	92
316.02481	580
317.02563	193
317.03375	87
318.03009	62
479.08932	1000

NAME: 6,7-Dihydroxycoumarin
PRECURSORMZ: 177.01933224783
PRECURSORTYPE: [M-H]-
INSTRUMENTTYPE: LC-ESI-QTOF
SMILES: OC1=CC2=C(C=CC(=O)O2)C=C1O
INCHIKEY: ILEDWLMCKZNDJK-UHFFFAOYSA-N
Ontology: 6,7-dihydroxycoumarins
COLLISIONENERGY: 10
FORMULA: C9H6O4
RETENTIONTIME: 2.866383
IONMODE: Negative
Comment: registered in RIKEN PlaSMA
Num Peaks: 5
131.77945	5
133.02863	52
134.02808	6
149.02878	11
177.01784	1000

NAME: Myricetin-3-O-galactoside
PRECURSORMZ: 479.08311424783
PRECURSORTYPE: [M-H]-
INSTRUMENTTYPE: LC-ESI-QTOF
SMILES: OCC1OC(OC2=C(OC3=CC(O)=CC(O)=C3C2=O)C2=CC(O)=C(O)C(O)=C2)C(O)C(O)C1O
INCHIKEY: FOHXFLPXBUAOJM-UHFFFAOYNA-N
Ontology: Flavonoid-3-O-glycosides
COLLISIONENERGY: 10
FORMULA: C21H20O13
RETENTIONTIME: 3.6371
IONMODE: Negative
Comment: registered in RIKEN PlaSMA
Num Peaks: 7
315.00507	40
316.01303	173
316.0307	27
317.01709	77
317.03152	78
339.07004	50
479.08231	1000

NAME: 6,7-Dihydroxycoumarin
PRECURSORMZ: 177.01933224783
PRECURSORTYPE: [M-H]-
INSTRUMENTTYPE: LC-ESI-QTOF
SMILES: OC1=CC2=C(C=CC(=O)O2)C=C1O
INCHIKEY: ILEDWLMCKZNDJK-UHFFFAOYSA-N
Ontology: 6,7-dihydroxycoumarins
COLLISIONENERGY: 30
FORMULA: C9H6O4
RETENTIONTIME: 2.866383
IONMODE: Negative
Comment: registered in RIKEN PlaSMA
Num Peaks: 4
89.03629	1000
93.02995	440
105.02943	520
106.03735	600

NAME: Myricetin-3-O-galactoside
PRECURSORMZ: 479.08311424783
PRECURSORTYPE: [M-H]-
INSTRUMENTTYPE: LC-ESI-QTOF
SMILES: OCC1OC(OC2=C(OC3=CC(O)=CC(O)=C3C2=O)C2=CC(O)=C(O)C(O)=C2)C(O)C(O)C1O
INCHIKEY: FOHXFLPXBUAOJM-UHFFFAOYNA-N
Ontology: Flavonoid-3-O-glycosides
COLLISIONENERGY: 30
FORMULA: C21H20O13
RETENTIONTIME: 3.6371
IONMODE: Negative
Comment: registered in RIKEN PlaSMA
Num Peaks: 11
151.00574	126
164.01056	75
248.93385	53
270.02344	67
271.0228	246
287.01401	61
288.02158	61
316.0202	1000
317.01266	140
317.02188	117
318.01465	89

NAME: 6,7-Dihydroxycoumarin
PRECURSORMZ: 177.01933224783
PRECURSORTYPE: [M-H]-
INSTRUMENTTYPE: LC-ESI-QTOF
SMILES: OC1=CC2=C(C=CC(=O)O2)C=C1O
INCHIKEY: ILEDWLMCKZNDJK-UHFFFAOYSA-N
Ontology: 6,7-dihydroxycoumarins
COLLISIONENERGY: 50
FORMULA: C9H6O4
RETENTIONTIME: 2.866383
IONMODE: Negative
Comment: registered in RIKEN PlaSMA
Num Peaks: 1
133.02638	1000

NAME: Myricetin-3-O-galactoside
PRECURSORMZ: 479.08311424783
PRECURSORTYPE: [M-H]-
INSTRUMENTTYPE: LC-ESI-QTOF
SMILES: OCC1OC(OC2=C(OC3=CC(O)=CC(O)=C3C2=O)C2=CC(O)=C(O)C(O)=C2)C(O)C(O)C1O
INCHIKEY: FOHXFLPXBUAOJM-UHFFFAOYNA-N
Ontology: Flavonoid-3-O-glycosides
COLLISIONENERGY: 50
FORMULA: C21H20O13
RETENTIONTIME: 3.6371
IONMODE: Negative
Comment: registered in RIKEN PlaSMA
Num Peaks: 16
124.01221	217
143.05196	191
145.0276	217
158.03032	183
158.04326	183
199.0417	452
214.03136	174
218.02946	174
228.03101	157
242.0183	643
242.02943	243
244.02812	209
259.03098	183
270.01523	174
271.02972	1000
287.01697	235

NAME: 6,7-Dihydroxycoumarin
PRECURSORMZ: 177.01933224783
PRECURSORTYPE: [M-H]-
INSTRUMENTTYPE: LC-ESI-QTOF
SMILES: OC1=CC2=C(C=CC(=O)O2)C=C1O
INCHIKEY: ILEDWLMCKZNDJK-UHFFFAOYSA-N
Ontology: 6,7-dihydroxycoumarins
COLLISIONENERGY: 10
FORMULA: C9H6O4
RETENTIONTIME: 2.866383
IONMODE: Negative
Comment: registered in RIKEN PlaSMA
Num Peaks: 9
81.03345	12
89.03852	32
105.03382	58
108.01357	16
121.01938	21
133.02808	207
134.02885	32
149.02361	43
177.01704	1000

NAME: Myricetin-3-O-galactoside
PRECURSORMZ: 479.08311424783
PRECURSORTYPE: [M-H]-
INSTRUMENTTYPE: LC-ESI-QTOF
SMILES: OCC1OC(OC2=C(OC3=CC(O)=CC(O)=C3C2=O)C2=CC(O)=C(O)C(O)=C2)C(O)C(O)C1O
INCHIKEY: FOHXFLPXBUAOJM-UHFFFAOYNA-N
Ontology: Flavonoid-3-O-glycosides
COLLISIONENERGY: 10
FORMULA: C21H20O13
RETENTIONTIME: 3.6371
IONMODE: Negative
Comment: registered in RIKEN PlaSMA
Num Peaks: 16
180.00055	60
184.51749	60
214.02576	84
242.02071	148
270.01288	124
271.0195	77
271.03613	87
272.11984	64
287.009	77
288.02399	87
316.01816	1000
316.04233	60
317.01395	87
478.07574	67
479.06863	164
479.08942	752

NAME: 6,7-Dihydroxycoumarin
PRECURSORMZ: 177.01933224783
PRECURSORTYPE: [M-H]-
INSTRUMENTTYPE: LC-ESI-QTOF
SMILES: OC1=CC2=C(C=CC(=O)O2)C=C1O
INCHIKEY: ILEDWLMCKZNDJK-UHFFFAOYSA-N
Ontology: 6,7-dihydroxycoumarins
COLLISIONENERGY: 10
FORMULA: C9H6O4
RETENTIONTIME: 2.866383
IONMODE: Negative
Comment: registered in RIKEN PlaSMA
Num Peaks: 6
105.02963	16
105.03872	6
133.0291	63
154.02228	5
176.84566	10
177.01781	1000

NAME: Myricetin-3-O-galactoside
PRECURSORMZ: 479.08311424783
PRECURSORTYPE: [M-H]-
INSTRUMENTTYPE: LC-ESI-QTOF
SMILES: OCC1OC(OC2=C(OC3=CC(O)=CC(O)=C3C2=O)C2=CC(O)=C(O)C(O)=C2)C(O)C(O)C1O
INCHIKEY: FOHXFLPXBUAOJM-UHFFFAOYNA-N
Ontology: Flavonoid-3-O-glycosides
COLLISIONENERGY: 10
FORMULA: C21H20O13
RETENTIONTIME: 3.6371
IONMODE: Negative
Comment: registered in RIKEN PlaSMA
Num Peaks: 8
121.9054	39
315.0072	23
316.0065	22
316.01968	94
316.04529	31
386.07861	43
477.07724	44
479.08212	1000

NAME: 6,7-Dihydroxycoumarin
PRECURSORMZ: 177.01933224783
PRECURSORTYPE: [M-H]-
INSTRUMENTTYPE: LC-ESI-QTOF
SMILES: OC1=CC2=C(C=CC(=O)O2)C=C1O
INCHIKEY: ILEDWLMCKZNDJK-UHFFFAOYSA-N
Ontology: 6,7-dihydroxycoumarins
COLLISIONENERGY: 30
FORMULA: C9H6O4
RETENTIONTIME: 2.866383
IONMODE: Negative
Comment: registered in RIKEN PlaSMA
Num Peaks: 6
77.03812	593
77.04543	370
78.04171	630
89.03666	1000
93.02911	370
133.02994	463

NAME: Myricetin-3-O-galactoside
PRECURSORMZ: 479.08311424783
PRECURSORTYPE: [M-H]-
INSTRUMENTTYPE: LC-ESI-QTOF
SMILES: OCC1OC(OC2=C(OC3=CC(O)=CC(O)=C3C2=O)C2=CC(O)=C(O)C(O)=C2)C(O)C(O)C1O
INCHIKEY: FOHXFLPXBUAOJM-UHFFFAOYNA-N
Ontology: Flavonoid-3-O-glycosides
COLLISIONENERGY: 30
FORMULA: C21H20O13
RETENTIONTIME: 3.6371
IONMODE: Negative
Comment: registered in RIKEN PlaSMA
Num Peaks: 21
93.03982	32
152.64056	32
159.0443	32
178.99028	32
178.99788	34
193.00493	53
215.07196	36
228.02319	39
255.03186	29
270.01004	47
270.02127	55
271.02386	99
272.01791	70
287.00436	32
287.0235	60
315.99893	32
316.02399	1000
317.0239	147
317.03519	94
352.61609	63
418.88919	53

NAME: 6,7-Dihydroxycoumarin
PRECURSORMZ: 177.01933224783
PRECURSORTYPE: [M-H]-
INSTRUMENTTYPE: LC-ESI-QTOF
SMILES: OC1=CC2=C(C=CC(=O)O2)C=C1O
INCHIKEY: ILEDWLMCKZNDJK-UHFFFAOYSA-N
Ontology: 6,7-dihydroxycoumarins
COLLISIONENERGY: 50
FORMULA: C9H6O4
RETENTIONTIME: 2.866383
IONMODE: Negative
Comment: registered in RIKEN PlaSMA
Num Peaks: 1
81.03121	1000

NAME: Myricetin-3-O-galactoside
PRECURSORMZ: 479.08311424783
PRECURSORTYPE: [M-H]-
INSTRUMENTTYPE: LC-ESI-QTOF
SMILES: OCC1OC(OC2=C(OC3=CC(O)=CC(O)=C3C2=O)C2=CC(O)=C(O)C(O)=C2)C(O)C(O)C1O
INCHIKEY: FOHXFLPXBUAOJM-UHFFFAOYNA-N
Ontology: Flavonoid-3-O-glycosides
COLLISIONENERGY: 50
FORMULA: C21H20O13
RETENTIONTIME: 3.6371
IONMODE: Negative
Comment: registered in RIKEN PlaSMA
Num Peaks: 11
124.01971	153
135.00735	212
151.00395	186
215.02148	169
216.00775	161
242.02412	576
243.02232	169
260.02393	153
270.70166	169
271.02094	1000
287.01578	169

NAME: 6,7-Dihydroxycoumarin
PRECURSORMZ: 177.01933224783
PRECURSORTYPE: [M-H]-
INSTRUMENTTYPE: LC-ESI-QTOF
SMILES: OC1=CC2=C(C=CC(=O)O2)C=C1O
INCHIKEY: ILEDWLMCKZNDJK-UHFFFAOYSA-N
Ontology: 6,7-dihydroxycoumarins
COLLISIONENERGY: 10
FORMULA: C9H6O4
RETENTIONTIME: 2.866383
IONMODE: Negative
Comment: registered in RIKEN PlaSMA
Num Peaks: 12
89.0335	12
89.03792	32
105.03452	50
107.009	11
121.03507	9
124.10848	13
133.02553	135
134.02963	11
149.01721	10
149.02475	10
177.01942	1000
177.15294	10

NAME: Myricetin-3-O-galactoside
PRECURSORMZ: 479.08311424783
PRECURSORTYPE: [M-H]-
INSTRUMENTTYPE: LC-ESI-QTOF
SMILES: OCC1OC(OC2=C(OC3=CC(O)=CC(O)=C3C2=O)C2=CC(O)=C(O)C(O)=C2)C(O)C(O)C1O
INCHIKEY: FOHXFLPXBUAOJM-UHFFFAOYNA-N
Ontology: Flavonoid-3-O-glycosides
COLLISIONENERGY: 10
FORMULA: C21H20O13
RETENTIONTIME: 3.6371
IONMODE: Negative
Comment: registered in RIKEN PlaSMA
Num Peaks: 14
124.01616	75
151.01076	91
242.01515	78
245.04115	88
271.01776	163
271.02951	157
271.08392	103
272.026	66
272.03625	66
287.01483	63
316.01724	1000
316.03604	66
479.06885	401
479.08713	172

NAME: 6,7-Dihydroxycoumarin
PRECURSORMZ: 177.01933224783
PRECURSORTYPE: [M-H]-
INSTRUMENTTYPE: LC-ESI-QTOF
SMILES: OC1=CC2=C(C=CC(=O)O2)C=C1O
INCHIKEY: ILEDWLMCKZNDJK-UHFFFAOYSA-N
Ontology: 6,7-dihydroxycoumarins
COLLISIONENERGY: 10
FORMULA: C9H6O4
RETENTIONTIME: 2.866383
IONMODE: Negative
Comment: registered in RIKEN PlaSMA
Num Peaks: 8
77.03544	7
89.03633	5
105.03458	17
107.87163	8
123.042	5
133.02856	59
149.02727	11
177.01817	1000

NAME: Myricetin-3-O-galactoside
PRECURSORMZ: 479.08311424783
PRECURSORTYPE: [M-H]-
INSTRUMENTTYPE: LC-ESI-QTOF
SMILES: OCC1OC(OC2=C(OC3=CC(O)=CC(O)=C3C2=O)C2=CC(O)=C(O)C(O)=C2)C(O)C(O)C1O
INCHIKEY: FOHXFLPXBUAOJM-UHFFFAOYNA-N
Ontology: Flavonoid-3-O-glycosides
COLLISIONENERGY: 10
FORMULA: C21H20O13
RETENTIONTIME: 3.6371
IONMODE: Negative
Comment: registered in RIKEN PlaSMA
Num Peaks: 9
178.99588	31
304.74393	29
315.06989	22
316.01605	24
316.03784	24
317.01614	56
318.03091	51
406.15451	32
479.08011	1000

NAME: 6,7-Dihydroxycoumarin
PRECURSORMZ: 177.01933224783
PRECURSORTYPE: [M-H]-
INSTRUMENTTYPE: LC-ESI-QTOF
SMILES: OC1=CC2=C(C=CC(=O)O2)C=C1O
INCHIKEY: ILEDWLMCKZNDJK-UHFFFAOYSA-N
Ontology: 6,7-dihydroxycoumarins
COLLISIONENERGY: 30
FORMULA: C9H6O4
RETENTIONTIME: 2.866383
IONMODE: Negative
Comment: registered in RIKEN PlaSMA
Num Peaks: 8
77.03668	136
89.03789	189
90.04682	174
93.033	1000
105.03374	159
133.02547	197
134.03265	258
177.01952	136

NAME: Myricetin-3-O-galactoside
PRECURSORMZ: 479.08311424783
PRECURSORTYPE: [M-H]-
INSTRUMENTTYPE: LC-ESI-QTOF
SMILES: OCC1OC(OC2=C(OC3=CC(O)=CC(O)=C3C2=O)C2=CC(O)=C(O)C(O)=C2)C(O)C(O)C1O
INCHIKEY: FOHXFLPXBUAOJM-UHFFFAOYNA-N
Ontology: Flavonoid-3-O-glycosides
COLLISIONENERGY: 30
FORMULA: C21H20O13
RETENTIONTIME: 3.6371
IONMODE: Negative
Comment: registered in RIKEN PlaSMA
Num Peaks: 25
108.01508	40
133.02408	105
147.0096	59
151.00008	70
152.01096	44
163.02251	42
177.05821	51
201.01521	62
214.02341	79
244.03896	42
259.01276	55
259.02304	59
259.03839	40
270.02066	112
271.01929	338
271.03574	101
272.01572	44
287.00922	51
287.02057	103
287.14011	44
288.02103	44
303.00415	62
316.01993	1000
317.02567	40
317.04117	48

NAME: 6,7-Dihydroxycoumarin
PRECURSORMZ: 177.01933224783
PRECURSORTYPE: [M-H]-
INSTRUMENTTYPE: LC-ESI-QTOF
SMILES: OC1=CC2=C(C=CC(=O)O2)C=C1O
INCHIKEY: ILEDWLMCKZNDJK-UHFFFAOYSA-N
Ontology: 6,7-dihydroxycoumarins
COLLISIONENERGY: 50
FORMULA: C9H6O4
RETENTIONTIME: 2.866383
IONMODE: Negative
Comment: registered in RIKEN PlaSMA
Num Peaks: 1
77.03753	1000

NAME: Myricetin-3-O-galactoside
PRECURSORMZ: 479.08311424783
PRECURSORTYPE: [M-H]-
INSTRUMENTTYPE: LC-ESI-QTOF
SMILES: OCC1OC(OC2=C(OC3=CC(O)=CC(O)=C3C2=O)C2=CC(O)=C(O)C(O)=C2)C(O)C(O)C1O
INCHIKEY: FOHXFLPXBUAOJM-UHFFFAOYNA-N
Ontology: Flavonoid-3-O-glycosides
COLLISIONENERGY: 50
FORMULA: C21H20O13
RETENTIONTIME: 3.6371
IONMODE: Negative
Comment: registered in RIKEN PlaSMA
Num Peaks: 24
68.20867	153
152.0141	182
153.0193	197
164.0042	175
164.01266	226
178.99402	197
187.03528	146
214.03632	161
215.02658	146
215.03627	153
227.02655	241
227.03865	314
229.01837	175
242.02185	168
243.02428	131
253.01653	226
260.00995	168
260.03128	197
270.01685	241
271.008	343
271.02435	1000
272.02695	197
287.02975	234
288.02179	540

NAME: Cyanidin-3-O-sophoroside
PRECURSORMZ: 609.14555981576
PRECURSORTYPE: [M-2H]-
INSTRUMENTTYPE: LC-ESI-QTOF
SMILES: OCC1OC(OC2C(OC3=C([O+]=C4C=C(O)C=C(O)C4=C3)C3=CC(O)=C(O)C=C3)OC(CO)C(O)C2O)C(O)C(O)C1O
INCHIKEY: SXYMMDGPXYVCER-UHFFFAOYNA-O
Ontology: Anthocyanidin-3-O-glycosides
COLLISIONENERGY: 10
FORMULA: C27H31O16
RETENTIONTIME: 2.786217
IONMODE: Negative
Comment: registered in RIKEN PlaSMA
Num Peaks: 53
142.56711	9
147.00343	9
148.01596	11
166.85782	29
171.04979	10
176.0036	9
177.02142	10
211.04462	17
212.04736	23
227.03197	11
229.01901	18
230.01175	11
239.02911	8
240.04337	13
242.017	9
243.02396	9
255.0285	57
255.04103	25
256.03769	61
257.03796	19
267.03305	13
270.02615	9
278.05722	11
281.04706	9
283.02267	78
284.03128	1000
285.03833	166
286.04193	22
296.02591	9
297.034	19
298.03418	25
309.03259	11
310.04205	15
311.05499	21
322.0448	9
325.03659	13
339.03549	23
339.05368	133
340.05139	10
350.08112	10
351.03912	24
351.05737	40
352.04968	8
357.0723	15
381.05884	8
409.0889	19
412.07172	8
429.07028	45
480.12482	9
565.15643	8
602.29358	23
609.14667	933
609.21368	14

NAME: 6,7-Dihydroxycoumarin-6-glucoside
PRECURSORMZ: 339.07215564783
PRECURSORTYPE: [M-H]-
INSTRUMENTTYPE: LC-ESI-QTOF
SMILES: OCC1OC(OC2=C(O)C=C3OC(=O)C=CC3=C2)C(O)C(O)C1O
INCHIKEY: XHCADAYNFIFUHF-UHFFFAOYNA-N
Ontology: Coumarin glycosides
COLLISIONENERGY: 10
FORMULA: C15H16O9
RETENTIONTIME: 2.871783
IONMODE: Negative
Comment: registered in RIKEN PlaSMA
Num Peaks: 10
89.04084	5
105.03414	16
133.02805	64
134.03316	8
148.01682	8
176.01051	16
177.0179	1000
178.02087	105
179.02524	20
339.07086	169

NAME: Myricetin-3-O-xyloside
PRECURSORMZ: 449.07254954783
PRECURSORTYPE: [M-H]-
INSTRUMENTTYPE: LC-ESI-QTOF
SMILES: OC1COC(OC2=C(OC3=CC(O)=CC(O)=C3C2=O)C2=CC(O)=C(O)C(O)=C2)C(O)C1O
INCHIKEY: SBEOEJNITMVWLK-UHFFFAOYNA-N
Ontology: Flavonoid-3-O-glycosides
COLLISIONENERGY: 10
FORMULA: C20H18O12
RETENTIONTIME: 3.868267
IONMODE: Negative
Comment: registered in RIKEN PlaSMA
Num Peaks: 58
107.0107	9
123.01321	6
124.00989	9
133.02744	6
137.02499	7
148.01553	8
151.00119	13
152.00185	12
152.01543	17
162.99786	5
166.01353	5
178.99736	30
179.99942	10
187.03224	5
188.03674	8
190.03374	5
191.03619	6
211.03609	7
214.01999	12
214.02917	25
219.03122	5
232.04364	10
232.09053	6
233.04262	12
234.03976	7
241.68898	6
242.00929	6
242.02594	18
243.02827	24
243.04964	6
244.02632	12
254.71739	6
259.00909	9
259.02032	16
259.03119	28
261.03815	10
270.01953	45
270.03156	10
271.02545	285
272.02963	32
287.01398	79
287.02356	98
288.01529	13
288.02887	49
299.01837	7
302.03128	5
313.0408	6
315.01611	9
315.03897	6
315.9808	8
316.02191	1000
317.02551	309
317.03671	82
318.02798	70
320.04138	5
341.01685	7
341.61047	8
449.07468	816

NAME: Kaempferol-3-O-galactoside-6''-rhamnoside-3'''-rha
PRECURSORMZ: 739.20910264783
PRECURSORTYPE: [M-H]-
INSTRUMENTTYPE: LC-ESI-QTOF
SMILES: CC1OC(OC2C(O)C(C)OC(OCC3OC(OC4=C(OC5=CC(O)=CC(O)=C5C4=O)C4=CC=C(O)C=C4)C(O)C(O)C3O)C2O)C(O)C(O)C1O
INCHIKEY: UYVBMGULWGRDQT-UHFFFAOYNA-N
Ontology: Flavonoid-3-O-glycosides
COLLISIONENERGY: 10
FORMULA: C33H40O19
RETENTIONTIME: 3.978883
IONMODE: Negative
Comment: registered in RIKEN PlaSMA
Num Peaks: 12
151.00278	7
229.05159	9
255.03276	16
257.03857	13
284.03238	193
285.03836	576
286.04254	74
286.05621	11
287.04306	20
327.0495	7
593.15289	5
739.20917	1000

NAME: 6-Methoxy-7-hydroxycoumarin
PRECURSORMZ: 191.03498224783
PRECURSORTYPE: [M-H]-
INSTRUMENTTYPE: LC-ESI-QTOF
SMILES: COC1=C(O)C=C2OC(=O)C=CC2=C1
INCHIKEY: RODXRVNMMDRFIK-UHFFFAOYSA-N
Ontology: 7-hydroxycoumarins
COLLISIONENERGY: 10
FORMULA: C10H8O4
RETENTIONTIME: 4.2333
IONMODE: Negative
Comment: registered in RIKEN PlaSMA
Num Peaks: 14
92.02671	6
104.02529	159
105.02654	7
120.01495	13
120.02242	34
148.01404	236
149.02196	20
150.01651	8
176.00975	1000
177.01242	70
178.00708	10
178.02092	11
190.65826	6
191.03102	248

NAME: Cyanidin-3-O-sophoroside
PRECURSORMZ: 609.14555981576
PRECURSORTYPE: [M-2H]-
INSTRUMENTTYPE: LC-ESI-QTOF
SMILES: OCC1OC(OC2C(OC3=C([O+]=C4C=C(O)C=C(O)C4=C3)C3=CC(O)=C(O)C=C3)OC(CO)C(O)C2O)C(O)C(O)C1O
INCHIKEY: SXYMMDGPXYVCER-UHFFFAOYNA-O
Ontology: Anthocyanidin-3-O-glycosides
COLLISIONENERGY: 10
FORMULA: C27H31O16
RETENTIONTIME: 2.786217
IONMODE: Negative
Comment: registered in RIKEN PlaSMA
Num Peaks: 9
284.03235	10
285.04013	9
309.02747	8
339.05283	7
340.05536	8
351.04962	6
429.09314	13
489.09882	7
609.14655	1000

NAME: 6,7-Dihydroxycoumarin-6-glucoside
PRECURSORMZ: 339.07215564783
PRECURSORTYPE: [M-H]-
INSTRUMENTTYPE: LC-ESI-QTOF
SMILES: OCC1OC(OC2=C(O)C=C3OC(=O)C=CC3=C2)C(O)C(O)C1O
INCHIKEY: XHCADAYNFIFUHF-UHFFFAOYNA-N
Ontology: Coumarin glycosides
COLLISIONENERGY: 10
FORMULA: C15H16O9
RETENTIONTIME: 2.871783
IONMODE: Negative
Comment: registered in RIKEN PlaSMA
Num Peaks: 4
177.01813	1000
178.02164	94
179.02435	15
339.07071	762

NAME: Kaempferol-3-O-galactoside-6''-rhamnoside-3'''-rha
PRECURSORMZ: 739.20910264783
PRECURSORTYPE: [M-H]-
INSTRUMENTTYPE: LC-ESI-QTOF
SMILES: CC1OC(OC2C(O)C(C)OC(OCC3OC(OC4=C(OC5=CC(O)=CC(O)=C5C4=O)C4=CC=C(O)C=C4)C(O)C(O)C3O)C2O)C(O)C(O)C1O
INCHIKEY: UYVBMGULWGRDQT-UHFFFAOYNA-N
Ontology: Flavonoid-3-O-glycosides
COLLISIONENERGY: 10
FORMULA: C33H40O19
RETENTIONTIME: 3.978883
IONMODE: Negative
Comment: registered in RIKEN PlaSMA
Num Peaks: 3
285.03775	6
285.04764	5
739.21002	1000

NAME: 6-Methoxy-7-hydroxycoumarin
PRECURSORMZ: 191.03498224783
PRECURSORTYPE: [M-H]-
INSTRUMENTTYPE: LC-ESI-QTOF
SMILES: COC1=C(O)C=C2OC(=O)C=CC2=C1
INCHIKEY: RODXRVNMMDRFIK-UHFFFAOYSA-N
Ontology: 7-hydroxycoumarins
COLLISIONENERGY: 10
FORMULA: C10H8O4
RETENTIONTIME: 4.2333
IONMODE: Negative
Comment: registered in RIKEN PlaSMA
Num Peaks: 8
104.02602	22
148.01364	51
148.01933	25
149.01611	9
176.00967	1000
177.01326	115
178.01488	6
191.03313	367

NAME: Cyanidin-3-O-sophoroside
PRECURSORMZ: 609.14555981576
PRECURSORTYPE: [M-2H]-
INSTRUMENTTYPE: LC-ESI-QTOF
SMILES: OCC1OC(OC2C(OC3=C([O+]=C4C=C(O)C=C(O)C4=C3)C3=CC(O)=C(O)C=C3)OC(CO)C(O)C2O)C(O)C(O)C1O
INCHIKEY: SXYMMDGPXYVCER-UHFFFAOYNA-O
Ontology: Anthocyanidin-3-O-glycosides
COLLISIONENERGY: 30
FORMULA: C27H31O16
RETENTIONTIME: 2.786217
IONMODE: Negative
Comment: registered in RIKEN PlaSMA
Num Peaks: 47
108.02114	7
148.01109	13
161.02148	6
187.03125	6
188.04607	9
196.12088	8
200.05656	6
201.0284	6
203.03329	6
211.04138	13
212.03865	8
212.05286	10
225.05606	9
227.04446	12
229.01303	7
236.87964	6
241.04305	10
246.0741	6
255.02942	5
256.04437	8
257.04599	18
283.0239	51
284.03015	1000
285.03482	143
285.05231	19
286.02835	20
286.04303	39
288.04523	5
289.04639	6
291.03168	5
295.01474	8
295.07025	7
297.06601	6
309.04434	20
309.21191	5
310.04471	22
311.06479	6
312.06052	11
325.01984	8
327.04419	9
328.03958	5
339.03943	15
339.05353	33
340.05936	12
341.04965	6
351.04633	25
352.06168	6

NAME: 6,7-Dihydroxycoumarin-6-glucoside
PRECURSORMZ: 339.07215564783
PRECURSORTYPE: [M-H]-
INSTRUMENTTYPE: LC-ESI-QTOF
SMILES: OCC1OC(OC2=C(O)C=C3OC(=O)C=CC3=C2)C(O)C(O)C1O
INCHIKEY: XHCADAYNFIFUHF-UHFFFAOYNA-N
Ontology: Coumarin glycosides
COLLISIONENERGY: 30
FORMULA: C15H16O9
RETENTIONTIME: 2.871783
IONMODE: Negative
Comment: registered in RIKEN PlaSMA
Num Peaks: 13
89.03722	22
105.03278	52
106.04021	7
133.02713	158
134.03444	16
148.01141	9
149.02371	15
149.02937	6
176.00929	37
177.01804	1000
178.02081	125
179.01909	10
179.02705	8

NAME: Myricetin-3-O-xyloside
PRECURSORMZ: 449.07254954783
PRECURSORTYPE: [M-H]-
INSTRUMENTTYPE: LC-ESI-QTOF
SMILES: OC1COC(OC2=C(OC3=CC(O)=CC(O)=C3C2=O)C2=CC(O)=C(O)C(O)=C2)C(O)C1O
INCHIKEY: SBEOEJNITMVWLK-UHFFFAOYNA-N
Ontology: Flavonoid-3-O-glycosides
COLLISIONENERGY: 30
FORMULA: C20H18O12
RETENTIONTIME: 3.868267
IONMODE: Negative
Comment: registered in RIKEN PlaSMA
Num Peaks: 54
137.0179	13
138.02495	5
144.0596	7
150.99951	26
151.00926	13
152.01028	30
158.03322	5
162.9967	6
163.01132	11
163.99568	8
164.00978	23
164.98283	6
165.01562	13
177.01498	9
178.99741	92
186.03009	6
189.01538	6
189.99474	7
190.9966	8
201.96439	5
203.03355	8
214.02368	59
215.03154	5
216.03238	9
223.18112	6
227.02902	6
227.04497	7
232.04819	5
242.02097	38
242.03082	20
243.02759	42
244.03589	7
246.04671	6
259.02866	33
260.01733	10
261.03778	9
270.01743	188
271.02283	568
271.04742	12
271.18854	5
272.00015	5
272.0134	15
272.02777	45
273.01312	5
273.0293	15
280.93338	7
287.01901	252
288.01776	44
288.03275	13
316.02048	1000
316.09338	6
317.02734	298
318.02206	18
318.03445	12

NAME: Kaempferol-3-O-galactoside-6''-rhamnoside-3'''-rha
PRECURSORMZ: 739.20910264783
PRECURSORTYPE: [M-H]-
INSTRUMENTTYPE: LC-ESI-QTOF
SMILES: CC1OC(OC2C(O)C(C)OC(OCC3OC(OC4=C(OC5=CC(O)=CC(O)=C5C4=O)C4=CC=C(O)C=C4)C(O)C(O)C3O)C2O)C(O)C(O)C1O
INCHIKEY: UYVBMGULWGRDQT-UHFFFAOYNA-N
Ontology: Flavonoid-3-O-glycosides
COLLISIONENERGY: 30
FORMULA: C33H40O19
RETENTIONTIME: 3.978883
IONMODE: Negative
Comment: registered in RIKEN PlaSMA
Num Peaks: 14
151.00117	17
257.04279	14
259.05682	6
284.0314	244
285.03934	1000
286.04242	181
287.0397	14
287.04779	24
327.03998	17
327.05722	19
328.04715	5
593.14807	7
593.17084	5
739.20575	234

NAME: 6-Methoxy-7-hydroxycoumarin
PRECURSORMZ: 191.03498224783
PRECURSORTYPE: [M-H]-
INSTRUMENTTYPE: LC-ESI-QTOF
SMILES: COC1=C(O)C=C2OC(=O)C=CC2=C1
INCHIKEY: RODXRVNMMDRFIK-UHFFFAOYSA-N
Ontology: 7-hydroxycoumarins
COLLISIONENERGY: 30
FORMULA: C10H8O4
RETENTIONTIME: 4.2333
IONMODE: Negative
Comment: registered in RIKEN PlaSMA
Num Peaks: 11
92.02544	100
104.02599	1000
105.02988	42
119.01167	63
120.0174	125
120.02254	355
147.01212	44
148.00223	42
148.01225	336
148.02219	70
176.01707	88

NAME: Cyanidin-3-O-sophoroside
PRECURSORMZ: 609.14555981576
PRECURSORTYPE: [M-2H]-
INSTRUMENTTYPE: LC-ESI-QTOF
SMILES: OCC1OC(OC2C(OC3=C([O+]=C4C=C(O)C=C(O)C4=C3)C3=CC(O)=C(O)C=C3)OC(CO)C(O)C2O)C(O)C(O)C1O
INCHIKEY: SXYMMDGPXYVCER-UHFFFAOYNA-O
Ontology: Anthocyanidin-3-O-glycosides
COLLISIONENERGY: 50
FORMULA: C27H31O16
RETENTIONTIME: 2.786217
IONMODE: Negative
Comment: registered in RIKEN PlaSMA
Num Peaks: 66
92.02467	22
108.01492	31
109.02206	29
120.0178	34
138.75749	25
145.0278	26
146.03307	26
146.9973	27
147.00641	207
148.01393	297
149.02039	57
162.99741	25
164.87239	56
172.04729	33
174.03337	46
175.01222	26
183.04376	80
184.04916	21
185.01744	21
185.05699	27
187.03922	29
188.0423	121
188.05409	30
189.02031	45
194.02979	27
195.03311	34
195.04686	25
196.04288	34
196.05524	22
200.04587	78
211.03343	89
211.04381	96
212.04573	30
212.0522	59
213.03941	53
217.05487	56
218.04825	38
223.03981	43
224.03986	29
225.05606	45
227.02565	124
227.03658	122
229.05038	23
229.0584	35
236.05061	29
239.03741	241
240.02823	59
240.03964	101
240.04817	59
241.05098	66
242.00833	21
255.03021	868
256.03268	248
256.04794	86
257.0383	23
259.02829	24
265.01721	27
268.03186	25
269.0354	29
269.05026	27
282.05966	23
283.01736	192
283.03198	118
284.0311	1000
285.04172	118
296.01813	23

NAME: 6,7-Dihydroxycoumarin-6-glucoside
PRECURSORMZ: 339.07215564783
PRECURSORTYPE: [M-H]-
INSTRUMENTTYPE: LC-ESI-QTOF
SMILES: OCC1OC(OC2=C(O)C=C3OC(=O)C=CC3=C2)C(O)C(O)C1O
INCHIKEY: XHCADAYNFIFUHF-UHFFFAOYNA-N
Ontology: Coumarin glycosides
COLLISIONENERGY: 50
FORMULA: C15H16O9
RETENTIONTIME: 2.871783
IONMODE: Negative
Comment: registered in RIKEN PlaSMA
Num Peaks: 33
53.03938	21
77.03579	67
77.0396	58
79.01879	51
81.03618	18
89.03738	338
90.04156	184
93.03498	92
103.48642	17
104.0248	250
105.03246	548
106.03039	24
106.03692	34
107.00616	23
107.01234	77
108.01871	36
116.21396	27
120.0224	107
121.02242	16
121.03147	52
130.62982	29
131.01337	27
131.02267	20
133.02896	1000
134.03262	115
139.0379	19
148.01517	144
149.0239	179
176.0092	24
176.01772	17
177.01996	468
178.01984	19
178.03014	17

NAME: Myricetin-3-O-xyloside
PRECURSORMZ: 449.07254954783
PRECURSORTYPE: [M-H]-
INSTRUMENTTYPE: LC-ESI-QTOF
SMILES: OC1COC(OC2=C(OC3=CC(O)=CC(O)=C3C2=O)C2=CC(O)=C(O)C(O)=C2)C(O)C1O
INCHIKEY: SBEOEJNITMVWLK-UHFFFAOYNA-N
Ontology: Flavonoid-3-O-glycosides
COLLISIONENERGY: 50
FORMULA: C20H18O12
RETENTIONTIME: 3.868267
IONMODE: Negative
Comment: registered in RIKEN PlaSMA
Num Peaks: 102
83.01183	29
96.01876	50
107.00781	16
107.01243	21
108.02273	39
115.05187	27
117.02831	24
120.01788	19
123.00414	24
124.01572	101
124.02407	22
125.0202	70
125.02785	18
131.05019	22
134.99933	16
135.00604	22
136.01349	21
136.01848	62
138.0298	23
143.05562	16
145.03036	24
146.99968	36
150.00046	20
151.00177	121
152.0061	48
152.01456	53
155.05328	16
156.01932	25
158.0359	183
159.04518	66
162.99992	25
164.00815	20
164.01611	19
165.01181	17
165.01964	31
169.0284	26
169.03548	16
170.03291	18
171.0479	65
175.04004	110
176.05234	49
177.00763	27
178.01784	25
178.99593	51
182.04356	21
183.03862	41
185.0248	60
186.02687	21
186.03581	35
187.03082	91
187.04807	17
189.01204	48
190.02061	22
197.02048	17
197.02884	25
198.02763	61
199.04036	89
200.04208	16
200.08551	18
201.01933	20
202.0546	44
203.04091	206
213.01196	48
213.02626	67
214.02518	411
215.03403	260
215.05902	20
217.01889	16
218.00751	41
227.02664	23
227.03957	51
228.02559	16
228.04491	18
229.00774	58
229.02802	20
230.01729	20
231.02708	96
241.01152	54
241.02269	39
242.02214	218
242.03246	60
243.0172	60
243.02545	115
243.03519	116
244.02719	91
244.04037	43
245.04039	16
246.23656	27
259.01968	171
259.0322	119
260.02591	49
260.03714	28
271.02444	1000
272.02585	139
287.00269	44
287.0188	313
288.01263	65
288.09845	19
289.0094	21
289.02051	28
315.03665	31
322.05038	31

NAME: Kaempferol-3-O-galactoside-6''-rhamnoside-3'''-rha
PRECURSORMZ: 739.20910264783
PRECURSORTYPE: [M-H]-
INSTRUMENTTYPE: LC-ESI-QTOF
SMILES: CC1OC(OC2C(O)C(C)OC(OCC3OC(OC4=C(OC5=CC(O)=CC(O)=C5C4=O)C4=CC=C(O)C=C4)C(O)C(O)C3O)C2O)C(O)C(O)C1O
INCHIKEY: UYVBMGULWGRDQT-UHFFFAOYNA-N
Ontology: Flavonoid-3-O-glycosides
COLLISIONENERGY: 50
FORMULA: C33H40O19
RETENTIONTIME: 3.978883
IONMODE: Negative
Comment: registered in RIKEN PlaSMA
Num Peaks: 71
93.03095	7
107.01453	8
115.03851	9
135.01178	15
136.01012	11
136.0475	7
151.00014	21
153.01736	7
163.0047	25
164.00613	10
165.0154	7
165.02554	7
169.07808	6
171.04185	10
174.02946	7
184.05338	5
185.05829	18
185.31656	6
187.03854	32
188.69891	6
188.79941	6
189.05162	11
193.01443	5
195.04703	18
197.05418	7
197.06607	8
199.03687	10
199.04816	7
207.00021	8
211.02933	18
211.04288	13
213.04344	10
213.05698	33
214.0587	8
215.03378	13
216.04106	6
222.23291	6
223.04655	10
224.04674	19
227.03392	201
228.03632	34
228.04953	10
229.05093	159
230.05263	24
239.03365	19
240.04222	9
240.05197	8
241.04547	27
241.05623	9
242.04686	9
252.38313	6
255.02962	610
256.03586	156
256.12393	5
257.03326	43
257.04819	118
258.03903	12
258.05231	15
267.02005	13
267.03079	13
284.03146	1000
284.32187	9
285.03934	824
285.06714	10
286.03989	126
286.07288	6
287.04742	14
299.03897	7
299.05508	7
299.06598	5
327.0506	13

NAME: 6-Methoxy-7-hydroxycoumarin
PRECURSORMZ: 191.03498224783
PRECURSORTYPE: [M-H]-
INSTRUMENTTYPE: LC-ESI-QTOF
SMILES: COC1=C(O)C=C2OC(=O)C=CC2=C1
INCHIKEY: RODXRVNMMDRFIK-UHFFFAOYSA-N
Ontology: 7-hydroxycoumarins
COLLISIONENERGY: 50
FORMULA: C10H8O4
RETENTIONTIME: 4.2333
IONMODE: Negative
Comment: registered in RIKEN PlaSMA
Num Peaks: 1
104.01913	1000

NAME: Cyanidin-3-O-sophoroside
PRECURSORMZ: 609.14555981576
PRECURSORTYPE: [M-2H]-
INSTRUMENTTYPE: LC-ESI-QTOF
SMILES: OCC1OC(OC2C(OC3=C([O+]=C4C=C(O)C=C(O)C4=C3)C3=CC(O)=C(O)C=C3)OC(CO)C(O)C2O)C(O)C(O)C1O
INCHIKEY: SXYMMDGPXYVCER-UHFFFAOYNA-O
Ontology: Anthocyanidin-3-O-glycosides
COLLISIONENERGY: 10
FORMULA: C27H31O16
RETENTIONTIME: 2.786217
IONMODE: Negative
Comment: registered in RIKEN PlaSMA
Num Peaks: 49
109.02207	10
121.02786	9
136.0173	11
147.00272	10
148.01115	12
149.01385	12
170.0433	11
174.0305	10
176.00841	21
184.05681	15
196.04143	10
203.72868	10
212.03905	9
212.05272	26
213.00726	10
213.05409	10
214.02078	13
217.01015	10
224.04108	12
227.02007	10
227.04088	10
239.0354	10
240.0352	25
253.05211	12
255.0291	35
267.02502	9
281.01575	9
283.02167	50
283.05905	12
284.03201	913
284.05859	18
284.93161	10
285.03607	345
286.0401	25
286.05557	10
287.05865	11
293.04208	9
303.74942	9
309.03586	51
311.04419	32
339.04898	250
340.05051	42
351.0401	12
351.06161	19
352.04071	18
421.12427	9
430.09122	9
448.09988	12
609.14813	1000

NAME: 6,7-Dihydroxycoumarin-6-glucoside
PRECURSORMZ: 339.07215564783
PRECURSORTYPE: [M-H]-
INSTRUMENTTYPE: LC-ESI-QTOF
SMILES: OCC1OC(OC2=C(O)C=C3OC(=O)C=CC3=C2)C(O)C(O)C1O
INCHIKEY: XHCADAYNFIFUHF-UHFFFAOYNA-N
Ontology: Coumarin glycosides
COLLISIONENERGY: 10
FORMULA: C15H16O9
RETENTIONTIME: 2.871783
IONMODE: Negative
Comment: registered in RIKEN PlaSMA
Num Peaks: 10
89.03928	10
105.02923	6
105.03396	14
133.02826	52
148.01859	7
176.01172	8
177.01747	1000
178.02066	92
179.02815	7
339.06979	120

NAME: Myricetin-3-O-xyloside
PRECURSORMZ: 449.07254954783
PRECURSORTYPE: [M-H]-
INSTRUMENTTYPE: LC-ESI-QTOF
SMILES: OC1COC(OC2=C(OC3=CC(O)=CC(O)=C3C2=O)C2=CC(O)=C(O)C(O)=C2)C(O)C1O
INCHIKEY: SBEOEJNITMVWLK-UHFFFAOYNA-N
Ontology: Flavonoid-3-O-glycosides
COLLISIONENERGY: 10
FORMULA: C20H18O12
RETENTIONTIME: 3.868267
IONMODE: Negative
Comment: registered in RIKEN PlaSMA
Num Peaks: 55
100.79094	5
136.5032	5
137.02162	14
144.05949	8
151.00104	17
151.00758	7
153.04715	6
163.0038	6
164.00986	20
172.04695	5
176.04907	7
178.9915	25
178.99924	15
179.05275	9
182.03687	7
188.0464	6
192.00652	5
193.00359	5
198.02637	7
204.0329	5
207.03033	6
211.03206	6
214.02525	37
215.03632	6
219.02415	6
227.03078	12
231.02463	8
231.03427	6
232.04121	11
242.02562	29
243.02913	27
259.02353	53
260.03253	17
270.00769	19
270.01712	15
270.02979	7
271.02252	257
272.0239	40
272.04324	5
273.0336	7
287.01572	184
287.03827	7
287.85443	5
288.02267	32
289.25558	8
316.021	1000
317.02454	227
318.01587	13
318.02725	45
319.02905	15
327.00095	6
329.01324	5
381.01407	5
448.0611	6
449.07095	896

NAME: Kaempferol-3-O-galactoside-6''-rhamnoside-3'''-rha
PRECURSORMZ: 739.20910264783
PRECURSORTYPE: [M-H]-
INSTRUMENTTYPE: LC-ESI-QTOF
SMILES: CC1OC(OC2C(O)C(C)OC(OCC3OC(OC4=C(OC5=CC(O)=CC(O)=C5C4=O)C4=CC=C(O)C=C4)C(O)C(O)C3O)C2O)C(O)C(O)C1O
INCHIKEY: UYVBMGULWGRDQT-UHFFFAOYNA-N
Ontology: Flavonoid-3-O-glycosides
COLLISIONENERGY: 10
FORMULA: C33H40O19
RETENTIONTIME: 3.978883
IONMODE: Negative
Comment: registered in RIKEN PlaSMA
Num Peaks: 11
150.99889	5
228.65678	6
255.02977	23
257.04745	21
284.03134	184
285.03885	594
285.05991	7
286.04355	99
287.03705	13
739.20837	1000
739.26575	12

NAME: 6-Methoxy-7-hydroxycoumarin
PRECURSORMZ: 191.03498224783
PRECURSORTYPE: [M-H]-
INSTRUMENTTYPE: LC-ESI-QTOF
SMILES: COC1=C(O)C=C2OC(=O)C=CC2=C1
INCHIKEY: RODXRVNMMDRFIK-UHFFFAOYSA-N
Ontology: 7-hydroxycoumarins
COLLISIONENERGY: 10
FORMULA: C10H8O4
RETENTIONTIME: 4.2333
IONMODE: Negative
Comment: registered in RIKEN PlaSMA
Num Peaks: 18
73.67072	6
104.02463	178
104.04424	8
105.02525	5
105.02941	6
108.02378	8
120.0182	48
120.02605	8
148.01494	192
149.01633	25
149.02725	10
173.9518	14
176.00899	1000
176.03079	6
177.01248	59
177.01997	16
191.02992	90
191.03639	41

NAME: Cyanidin-3-O-sophoroside
PRECURSORMZ: 609.14555981576
PRECURSORTYPE: [M-2H]-
INSTRUMENTTYPE: LC-ESI-QTOF
SMILES: OCC1OC(OC2C(OC3=C([O+]=C4C=C(O)C=C(O)C4=C3)C3=CC(O)=C(O)C=C3)OC(CO)C(O)C2O)C(O)C(O)C1O
INCHIKEY: SXYMMDGPXYVCER-UHFFFAOYNA-O
Ontology: Anthocyanidin-3-O-glycosides
COLLISIONENERGY: 10
FORMULA: C27H31O16
RETENTIONTIME: 2.786217
IONMODE: Negative
Comment: registered in RIKEN PlaSMA
Num Peaks: 15
283.04416	5
284.02927	52
285.03986	19
286.02698	8
339.05026	56
340.05209	5
350.14322	5
351.0408	7
351.05029	12
353.05634	5
411.07822	5
430.10486	5
491.68341	7
609.14398	1000
609.19952	6

NAME: 6,7-Dihydroxycoumarin-6-glucoside
PRECURSORMZ: 339.07215564783
PRECURSORTYPE: [M-H]-
INSTRUMENTTYPE: LC-ESI-QTOF
SMILES: OCC1OC(OC2=C(O)C=C3OC(=O)C=CC3=C2)C(O)C(O)C1O
INCHIKEY: XHCADAYNFIFUHF-UHFFFAOYNA-N
Ontology: Coumarin glycosides
COLLISIONENERGY: 10
FORMULA: C15H16O9
RETENTIONTIME: 2.871783
IONMODE: Negative
Comment: registered in RIKEN PlaSMA
Num Peaks: 4
177.01814	1000
178.02078	92
179.02263	10
339.07037	765

NAME: Myricetin-3-O-xyloside
PRECURSORMZ: 449.07254954783
PRECURSORTYPE: [M-H]-
INSTRUMENTTYPE: LC-ESI-QTOF
SMILES: OC1COC(OC2=C(OC3=CC(O)=CC(O)=C3C2=O)C2=CC(O)=C(O)C(O)=C2)C(O)C1O
INCHIKEY: SBEOEJNITMVWLK-UHFFFAOYNA-N
Ontology: Flavonoid-3-O-glycosides
COLLISIONENERGY: 10
FORMULA: C20H18O12
RETENTIONTIME: 3.868267
IONMODE: Negative
Comment: registered in RIKEN PlaSMA
Num Peaks: 8
178.99194	9
179.00159	7
316.01044	57
316.02103	200
317.01987	30
317.03198	29
448.05585	5
449.07184	1000

NAME: Kaempferol-3-O-galactoside-6''-rhamnoside-3'''-rha
PRECURSORMZ: 739.20910264783
PRECURSORTYPE: [M-H]-
INSTRUMENTTYPE: LC-ESI-QTOF
SMILES: CC1OC(OC2C(O)C(C)OC(OCC3OC(OC4=C(OC5=CC(O)=CC(O)=C5C4=O)C4=CC=C(O)C=C4)C(O)C(O)C3O)C2O)C(O)C(O)C1O
INCHIKEY: UYVBMGULWGRDQT-UHFFFAOYNA-N
Ontology: Flavonoid-3-O-glycosides
COLLISIONENERGY: 10
FORMULA: C33H40O19
RETENTIONTIME: 3.978883
IONMODE: Negative
Comment: registered in RIKEN PlaSMA
Num Peaks: 2
285.03915	16
739.20844	1000

NAME: 6-Methoxy-7-hydroxycoumarin
PRECURSORMZ: 191.03498224783
PRECURSORTYPE: [M-H]-
INSTRUMENTTYPE: LC-ESI-QTOF
SMILES: COC1=C(O)C=C2OC(=O)C=CC2=C1
INCHIKEY: RODXRVNMMDRFIK-UHFFFAOYSA-N
Ontology: 7-hydroxycoumarins
COLLISIONENERGY: 10
FORMULA: C10H8O4
RETENTIONTIME: 4.2333
IONMODE: Negative
Comment: registered in RIKEN PlaSMA
Num Peaks: 9
102.94578	8
104.02714	11
148.01628	72
149.01402	9
176.00974	1000
177.01407	96
178.01457	12
191.03386	332
191.17978	5

NAME: Cyanidin-3-O-sophoroside
PRECURSORMZ: 609.14555981576
PRECURSORTYPE: [M-2H]-
INSTRUMENTTYPE: LC-ESI-QTOF
SMILES: OCC1OC(OC2C(OC3=C([O+]=C4C=C(O)C=C(O)C4=C3)C3=CC(O)=C(O)C=C3)OC(CO)C(O)C2O)C(O)C(O)C1O
INCHIKEY: SXYMMDGPXYVCER-UHFFFAOYNA-O
Ontology: Anthocyanidin-3-O-glycosides
COLLISIONENERGY: 30
FORMULA: C27H31O16
RETENTIONTIME: 2.786217
IONMODE: Negative
Comment: registered in RIKEN PlaSMA
Num Peaks: 51
109.02874	8
126.01866	11
147.0045	8
148.00954	10
149.01411	7
149.02176	8
151.05287	10
151.08463	16
173.02051	7
184.11621	6
185.06139	8
188.05029	13
189.01842	8
196.04797	7
204.02959	10
226.03598	13
227.03432	13
229.00859	6
239.03766	13
240.04184	44
242.05885	7
255.02089	29
255.05229	6
256.03485	14
267.02808	12
269.04108	7
279.8967	16
283.0249	9
283.03604	6
283.06696	18
284.02936	1000
285.03699	186
285.0603	10
286.03012	14
286.0488	14
295.05978	8
295.07785	9
297.03745	7
309.03131	19
309.04269	13
311.05563	21
323.04507	17
327.05417	6
339.03894	22
339.0582	26
340.0563	7
351.03363	14
351.04614	15
351.06058	6
426.97675	6
429.08765	7

NAME: 6,7-Dihydroxycoumarin-6-glucoside
PRECURSORMZ: 339.07215564783
PRECURSORTYPE: [M-H]-
INSTRUMENTTYPE: LC-ESI-QTOF
SMILES: OCC1OC(OC2=C(O)C=C3OC(=O)C=CC3=C2)C(O)C(O)C1O
INCHIKEY: XHCADAYNFIFUHF-UHFFFAOYNA-N
Ontology: Coumarin glycosides
COLLISIONENERGY: 30
FORMULA: C15H16O9
RETENTIONTIME: 2.871783
IONMODE: Negative
Comment: registered in RIKEN PlaSMA
Num Peaks: 13
77.03603	5
89.03699	9
104.02683	6
105.03367	59
107.01292	7
133.02837	162
134.03044	12
148.01633	10
149.02405	17
176.00757	28
177.01801	1000
178.02194	86
179.02014	9

NAME: Myricetin-3-O-xyloside
PRECURSORMZ: 449.07254954783
PRECURSORTYPE: [M-H]-
INSTRUMENTTYPE: LC-ESI-QTOF
SMILES: OC1COC(OC2=C(OC3=CC(O)=CC(O)=C3C2=O)C2=CC(O)=C(O)C(O)=C2)C(O)C1O
INCHIKEY: SBEOEJNITMVWLK-UHFFFAOYNA-N
Ontology: Flavonoid-3-O-glycosides
COLLISIONENERGY: 30
FORMULA: C20H18O12
RETENTIONTIME: 3.868267
IONMODE: Negative
Comment: registered in RIKEN PlaSMA
Num Peaks: 41
124.01664	11
137.01682	12
148.01512	11
151.00298	32
152.01367	8
164.01151	10
178.99808	58
182.00385	6
190.99928	11
192.00058	5
206.01923	9
214.02724	14
215.05251	7
227.04233	7
231.02525	11
242.01955	28
242.03203	16
242.97552	6
243.02405	23
244.03638	8
245.03618	5
259.01459	24
259.02661	15
260.03043	11
266.93372	10
270.01163	61
270.02252	64
271.02209	466
272.0166	29
272.03091	26
287.01953	199
288.02399	41
288.05084	8
292	7
292.07718	7
315.02335	8
316.02161	1000
317.01834	77
317.02927	97
318.0108	20
318.02933	21

NAME: Kaempferol-3-O-galactoside-6''-rhamnoside-3'''-rha
PRECURSORMZ: 739.20910264783
PRECURSORTYPE: [M-H]-
INSTRUMENTTYPE: LC-ESI-QTOF
SMILES: CC1OC(OC2C(O)C(C)OC(OCC3OC(OC4=C(OC5=CC(O)=CC(O)=C5C4=O)C4=CC=C(O)C=C4)C(O)C(O)C3O)C2O)C(O)C(O)C1O
INCHIKEY: UYVBMGULWGRDQT-UHFFFAOYNA-N
Ontology: Flavonoid-3-O-glycosides
COLLISIONENERGY: 30
FORMULA: C33H40O19
RETENTIONTIME: 3.978883
IONMODE: Negative
Comment: registered in RIKEN PlaSMA
Num Peaks: 10
151.00285	8
284.03171	243
285.03912	1000
286.04245	192
287.0462	26
327.05164	30
357.06427	7
593.14923	10
593.17419	7
739.20825	178

NAME: 6-Methoxy-7-hydroxycoumarin
PRECURSORMZ: 191.03498224783
PRECURSORTYPE: [M-H]-
INSTRUMENTTYPE: LC-ESI-QTOF
SMILES: COC1=C(O)C=C2OC(=O)C=CC2=C1
INCHIKEY: RODXRVNMMDRFIK-UHFFFAOYSA-N
Ontology: 7-hydroxycoumarins
COLLISIONENERGY: 30
FORMULA: C10H8O4
RETENTIONTIME: 4.2333
IONMODE: Negative
Comment: registered in RIKEN PlaSMA
Num Peaks: 10
104.02587	1000
105.02745	158
120.01379	112
120.02168	536
120.03033	67
121.02346	100
148.00471	82
148.01424	112
148.02013	148
176.005	139

NAME: Cyanidin-3-O-sophoroside
PRECURSORMZ: 609.14555981576
PRECURSORTYPE: [M-2H]-
INSTRUMENTTYPE: LC-ESI-QTOF
SMILES: OCC1OC(OC2C(OC3=C([O+]=C4C=C(O)C=C(O)C4=C3)C3=CC(O)=C(O)C=C3)OC(CO)C(O)C2O)C(O)C(O)C1O
INCHIKEY: SXYMMDGPXYVCER-UHFFFAOYNA-O
Ontology: Anthocyanidin-3-O-glycosides
COLLISIONENERGY: 50
FORMULA: C27H31O16
RETENTIONTIME: 2.786217
IONMODE: Negative
Comment: registered in RIKEN PlaSMA
Num Peaks: 53
106.01054	53
109.02801	94
119.01308	66
120.02095	68
130.03847	34
133.03006	41
139.04436	53
146.07135	72
146.95573	47
147.00977	70
148.00819	45
148.02364	55
149.02251	79
156.02199	38
159.03894	79
160.04782	40
167.04492	34
171.03778	41
173.05963	62
183.0405	77
184.05495	34
185.05447	77
186.02385	47
187.03702	45
188.03967	64
189.04112	62
189.05229	36
195.04559	75
197.05867	107
210.02202	36
210.03714	51
211.043	38
213.01625	47
223.03717	45
224.04784	45
227.03365	164
228.03735	41
239.03574	427
240.04451	149
241.04175	36
253.01207	38
254.05827	40
255.02689	992
256.03433	407
257.02719	40
263.03571	43
283.01733	203
283.02789	73
284.02658	1000
285.03091	77
285.04526	38
290.64615	98
311.05365	36

NAME: 6,7-Dihydroxycoumarin-6-glucoside
PRECURSORMZ: 339.07215564783
PRECURSORTYPE: [M-H]-
INSTRUMENTTYPE: LC-ESI-QTOF
SMILES: OCC1OC(OC2=C(O)C=C3OC(=O)C=CC3=C2)C(O)C(O)C1O
INCHIKEY: XHCADAYNFIFUHF-UHFFFAOYNA-N
Ontology: Coumarin glycosides
COLLISIONENERGY: 50
FORMULA: C15H16O9
RETENTIONTIME: 2.871783
IONMODE: Negative
Comment: registered in RIKEN PlaSMA
Num Peaks: 27
65.04226	22
77.03694	104
77.04188	76
81.03257	50
89.03855	518
92.0263	34
93.03223	46
102.74265	22
104.02371	256
105.03283	796
106.03796	38
107.0111	72
107.01691	27
109.02985	85
120.02171	190
121.02883	264
131.01562	68
133.02704	1000
133.04135	23
134.03162	68
148.01552	32
149.02225	116
150.02547	34
176.00896	55
177.01758	935
178.01643	46
178.68692	22

NAME: Myricetin-3-O-xyloside
PRECURSORMZ: 449.07254954783
PRECURSORTYPE: [M-H]-
INSTRUMENTTYPE: LC-ESI-QTOF
SMILES: OC1COC(OC2=C(OC3=CC(O)=CC(O)=C3C2=O)C2=CC(O)=C(O)C(O)=C2)C(O)C1O
INCHIKEY: SBEOEJNITMVWLK-UHFFFAOYNA-N
Ontology: Flavonoid-3-O-glycosides
COLLISIONENERGY: 50
FORMULA: C20H18O12
RETENTIONTIME: 3.868267
IONMODE: Negative
Comment: registered in RIKEN PlaSMA
Num Peaks: 101
65.0039	32
83.00689	28
94.0088	30
101.03934	22
107.01379	107
108.01652	41
109.02995	56
110.03156	26
124.01404	252
135.00031	18
135.00545	37
135.04576	27
136.0161	32
137.02319	143
141.65984	30
143.04767	97
146.03633	23
148.01251	22
149.01962	60
151.00412	213
152.00085	19
155.05424	32
155.81258	25
157.0193	25
157.03487	50
158.0368	234
159.04385	71
159.27803	19
160.04549	29
164.00455	102
164.01703	22
165.01443	36
168.18938	26
171.03708	45
171.04565	59
173.02643	23
174.03163	22
175.03728	48
175.05263	28
177.01779	26
177.02655	33
178.99231	34
182.03751	20
185.01961	119
185.03143	80
187.03702	183
188.04388	29
189.01683	74
189.04459	22
190.02431	28
190.98575	23
191.02892	19
191.03809	22
198.03075	37
199.03947	168
200.0435	29
201.01697	61
203.03252	198
204.04675	54
205.01384	66
213.01785	84
214.00432	27
214.02466	383
214.19337	22
215.03191	234
215.04536	37
216.02901	22
216.04163	23
227.03105	147
227.04709	59
229.00343	23
229.02122	26
230.01508	19
230.86464	26
231.01558	24
232.03166	24
241.0029	51
242.0209	192
243.01778	56
243.03201	372
244.02512	76
244.035	110
245.01234	29
245.03807	19
251.45374	29
257.00513	28
259.00705	85
259.02023	310
259.03189	152
260.02136	46
260.02844	20
260.04709	33
270.01221	19
271.02225	1000
271.04651	61
272.03128	53
273.03522	22
287.01749	482
288.02563	159
289.02335	23
316.02255	19

NAME: Kaempferol-3-O-galactoside-6''-rhamnoside-3'''-rha
PRECURSORMZ: 739.20910264783
PRECURSORTYPE: [M-H]-
INSTRUMENTTYPE: LC-ESI-QTOF
SMILES: CC1OC(OC2C(O)C(C)OC(OCC3OC(OC4=C(OC5=CC(O)=CC(O)=C5C4=O)C4=CC=C(O)C=C4)C(O)C(O)C3O)C2O)C(O)C(O)C1O
INCHIKEY: UYVBMGULWGRDQT-UHFFFAOYNA-N
Ontology: Flavonoid-3-O-glycosides
COLLISIONENERGY: 50
FORMULA: C33H40O19
RETENTIONTIME: 3.978883
IONMODE: Negative
Comment: registered in RIKEN PlaSMA
Num Peaks: 62
93.03579	9
107.01025	10
117.03607	6
130.03987	5
133.06236	6
135.00693	9
136.0153	13
137.02507	5
143.04858	7
151.00032	41
163.00052	21
164.00108	17
164.01279	10
165.01361	13
169.0688	31
171.03781	8
171.04683	14
178.99374	7
185.06689	12
187.0369	12
187.04613	9
189.05499	10
190.05679	9
195.04646	13
197.06056	22
199.03874	14
211.03413	17
211.04152	16
212.05675	6
213.05156	33
213.07512	6
215.03848	5
223.0479	8
223.95763	5
227.03297	201
228.03789	47
229.03781	30
229.05034	93
230.0378	6
230.05496	36
230.79187	6
239.03822	17
240.03635	12
241.04553	15
243.02065	6
255.028	720
256.03134	199
257.04221	160
258.05048	17
259.04395	5
267.01248	6
267.02744	13
283.02438	11
284.03159	1000
285.03735	869
286.01709	11
286.03989	147
286.0737	6
287.04117	46
287.05276	10
299.05655	8
327.05466	8

NAME: 6-Methoxy-7-hydroxycoumarin
PRECURSORMZ: 191.03498224783
PRECURSORTYPE: [M-H]-
INSTRUMENTTYPE: LC-ESI-QTOF
SMILES: COC1=C(O)C=C2OC(=O)C=CC2=C1
INCHIKEY: RODXRVNMMDRFIK-UHFFFAOYSA-N
Ontology: 7-hydroxycoumarins
COLLISIONENERGY: 50
FORMULA: C10H8O4
RETENTIONTIME: 4.2333
IONMODE: Negative
Comment: registered in RIKEN PlaSMA
Num Peaks: 2
91.02183	1000
104.02675	526

NAME: Cyanidin-3-O-sophoroside
PRECURSORMZ: 609.14555981576
PRECURSORTYPE: [M-2H]-
INSTRUMENTTYPE: LC-ESI-QTOF
SMILES: OCC1OC(OC2C(OC3=C([O+]=C4C=C(O)C=C(O)C4=C3)C3=CC(O)=C(O)C=C3)OC(CO)C(O)C2O)C(O)C(O)C1O
INCHIKEY: SXYMMDGPXYVCER-UHFFFAOYNA-O
Ontology: Anthocyanidin-3-O-glycosides
COLLISIONENERGY: 10
FORMULA: C27H31O16
RETENTIONTIME: 2.786217
IONMODE: Negative
Comment: registered in RIKEN PlaSMA
Num Peaks: 44
89.02305	10
125.02036	14
137.02248	10
147.00635	10
174.99261	9
177.007	10
183.0489	8
197.05614	13
202.02423	9
204.03441	11
211.03696	24
212.03729	17
227.0307	13
240.04271	13
255.02808	33
257.03955	22
268.02969	9
283.02173	30
283.03207	14
283.17999	8
284.03027	1000
284.05811	8
285.02945	104
285.04172	159
286.05969	13
295.04993	10
295.06433	9
300.04916	14
309.04312	19
310.03333	9
310.04816	12
333.03577	8
339.04797	72
339.05981	90
340.05728	10
341.05777	11
351.04681	22
352.0397	17
364.90717	13
381.06403	8
385.09048	9
387.05493	12
442.41055	11
609.14667	900

NAME: 6,7-Dihydroxycoumarin-6-glucoside
PRECURSORMZ: 339.07215564783
PRECURSORTYPE: [M-H]-
INSTRUMENTTYPE: LC-ESI-QTOF
SMILES: OCC1OC(OC2=C(O)C=C3OC(=O)C=CC3=C2)C(O)C(O)C1O
INCHIKEY: XHCADAYNFIFUHF-UHFFFAOYNA-N
Ontology: Coumarin glycosides
COLLISIONENERGY: 10
FORMULA: C15H16O9
RETENTIONTIME: 2.871783
IONMODE: Negative
Comment: registered in RIKEN PlaSMA
Num Peaks: 8
89.04137	5
105.02879	5
133.02873	54
149.02406	9
177.01764	1000
178.02075	88
179.02238	16
339.06985	154

NAME: Myricetin-3-O-xyloside
PRECURSORMZ: 449.07254954783
PRECURSORTYPE: [M-H]-
INSTRUMENTTYPE: LC-ESI-QTOF
SMILES: OC1COC(OC2=C(OC3=CC(O)=CC(O)=C3C2=O)C2=CC(O)=C(O)C(O)=C2)C(O)C1O
INCHIKEY: SBEOEJNITMVWLK-UHFFFAOYNA-N
Ontology: Flavonoid-3-O-glycosides
COLLISIONENERGY: 10
FORMULA: C20H18O12
RETENTIONTIME: 3.868267
IONMODE: Negative
Comment: registered in RIKEN PlaSMA
Num Peaks: 57
149.99675	5
151.00252	6
152.00595	8
159.04028	6
175.93246	6
177.97783	6
178.02162	6
178.99536	20
179.00381	43
180.00174	6
181.01303	12
186.69817	8
193.0125	6
200.29201	5
204.02982	7
206.02698	8
208.02805	8
214.02325	26
214.03198	17
229.05357	8
232.04308	7
237.04666	6
242.00703	19
242.02318	67
243.02995	9
243.03883	13
243.05461	9
251.15533	9
259.02527	29
260.02634	16
270.01471	54
270.02652	15
270.99988	7
271.01944	143
271.03296	76
271.04135	32
272.02194	26
272.03177	50
272.13934	7
273.03983	8
279.98361	5
287.01999	143
287.03909	7
288.01306	21
288.03119	9
289.04224	5
315.0069	20
315.51001	5
315.93671	10
316.02228	1000
316.19418	5
317.02829	291
317.05316	9
318.02536	81
319.03525	6
448.07983	10
449.0705	712

NAME: Kaempferol-3-O-galactoside-6''-rhamnoside-3'''-rha
PRECURSORMZ: 739.20910264783
PRECURSORTYPE: [M-H]-
INSTRUMENTTYPE: LC-ESI-QTOF
SMILES: CC1OC(OC2C(O)C(C)OC(OCC3OC(OC4=C(OC5=CC(O)=CC(O)=C5C4=O)C4=CC=C(O)C=C4)C(O)C(O)C3O)C2O)C(O)C(O)C1O
INCHIKEY: UYVBMGULWGRDQT-UHFFFAOYNA-N
Ontology: Flavonoid-3-O-glycosides
COLLISIONENERGY: 10
FORMULA: C33H40O19
RETENTIONTIME: 3.978883
IONMODE: Negative
Comment: registered in RIKEN PlaSMA
Num Peaks: 11
150.99989	9
255.02003	7
256.03094	6
257.04709	19
284.03189	201
285.03955	627
286.0423	125
287.03955	10
287.0527	6
327.05225	5
739.20972	1000

NAME: 6-Methoxy-7-hydroxycoumarin
PRECURSORMZ: 191.03498224783
PRECURSORTYPE: [M-H]-
INSTRUMENTTYPE: LC-ESI-QTOF
SMILES: COC1=C(O)C=C2OC(=O)C=CC2=C1
INCHIKEY: RODXRVNMMDRFIK-UHFFFAOYSA-N
Ontology: 7-hydroxycoumarins
COLLISIONENERGY: 10
FORMULA: C10H8O4
RETENTIONTIME: 4.2333
IONMODE: Negative
Comment: registered in RIKEN PlaSMA
Num Peaks: 13
74.69083	6
104.02509	171
105.02884	22
113.8647	5
120.01927	68
148.01443	253
149.01263	9
149.02051	6
149.02795	6
152.94189	9
176.01013	1000
177.01329	141
191.03545	165

NAME: Cyanidin-3-O-sophoroside
PRECURSORMZ: 609.14555981576
PRECURSORTYPE: [M-2H]-
INSTRUMENTTYPE: LC-ESI-QTOF
SMILES: OCC1OC(OC2C(OC3=C([O+]=C4C=C(O)C=C(O)C4=C3)C3=CC(O)=C(O)C=C3)OC(CO)C(O)C2O)C(O)C(O)C1O
INCHIKEY: SXYMMDGPXYVCER-UHFFFAOYNA-O
Ontology: Anthocyanidin-3-O-glycosides
COLLISIONENERGY: 10
FORMULA: C27H31O16
RETENTIONTIME: 2.786217
IONMODE: Negative
Comment: registered in RIKEN PlaSMA
Num Peaks: 13
81.9441	7
163.00316	6
284.03656	19
285.03299	6
339.03867	12
339.05804	24
340.05243	13
352.05884	6
437.08929	5
451.87775	9
551.07764	7
609.14557	1000
609.18854	9

NAME: 6,7-Dihydroxycoumarin-6-glucoside
PRECURSORMZ: 339.07215564783
PRECURSORTYPE: [M-H]-
INSTRUMENTTYPE: LC-ESI-QTOF
SMILES: OCC1OC(OC2=C(O)C=C3OC(=O)C=CC3=C2)C(O)C(O)C1O
INCHIKEY: XHCADAYNFIFUHF-UHFFFAOYNA-N
Ontology: Coumarin glycosides
COLLISIONENERGY: 10
FORMULA: C15H16O9
RETENTIONTIME: 2.871783
IONMODE: Negative
Comment: registered in RIKEN PlaSMA
Num Peaks: 4
177.0174	1000
178.02219	99
179.02733	12
339.07025	860

NAME: Myricetin-3-O-xyloside
PRECURSORMZ: 449.07254954783
PRECURSORTYPE: [M-H]-
INSTRUMENTTYPE: LC-ESI-QTOF
SMILES: OC1COC(OC2=C(OC3=CC(O)=CC(O)=C3C2=O)C2=CC(O)=C(O)C(O)=C2)C(O)C1O
INCHIKEY: SBEOEJNITMVWLK-UHFFFAOYNA-N
Ontology: Flavonoid-3-O-glycosides
COLLISIONENERGY: 10
FORMULA: C20H18O12
RETENTIONTIME: 3.868267
IONMODE: Negative
Comment: registered in RIKEN PlaSMA
Num Peaks: 6
178.99666	14
316.02103	178
317.01443	7
317.03091	17
447.05966	6
449.07153	1000

NAME: Kaempferol-3-O-galactoside-6''-rhamnoside-3'''-rha
PRECURSORMZ: 739.20910264783
PRECURSORTYPE: [M-H]-
INSTRUMENTTYPE: LC-ESI-QTOF
SMILES: CC1OC(OC2C(O)C(C)OC(OCC3OC(OC4=C(OC5=CC(O)=CC(O)=C5C4=O)C4=CC=C(O)C=C4)C(O)C(O)C3O)C2O)C(O)C(O)C1O
INCHIKEY: UYVBMGULWGRDQT-UHFFFAOYNA-N
Ontology: Flavonoid-3-O-glycosides
COLLISIONENERGY: 10
FORMULA: C33H40O19
RETENTIONTIME: 3.978883
IONMODE: Negative
Comment: registered in RIKEN PlaSMA
Num Peaks: 3
285.03491	15
739.20868	1000
739.26306	7

NAME: 6-Methoxy-7-hydroxycoumarin
PRECURSORMZ: 191.03498224783
PRECURSORTYPE: [M-H]-
INSTRUMENTTYPE: LC-ESI-QTOF
SMILES: COC1=C(O)C=C2OC(=O)C=CC2=C1
INCHIKEY: RODXRVNMMDRFIK-UHFFFAOYSA-N
Ontology: 7-hydroxycoumarins
COLLISIONENERGY: 10
FORMULA: C10H8O4
RETENTIONTIME: 4.2333
IONMODE: Negative
Comment: registered in RIKEN PlaSMA
Num Peaks: 9
104.02838	9
135.03851	6
148.01648	56
149.02003	6
176.01027	1000
177.01506	104
178.01065	7
178.02129	12
191.03453	315

NAME: Cyanidin-3-O-sophoroside
PRECURSORMZ: 609.14555981576
PRECURSORTYPE: [M-2H]-
INSTRUMENTTYPE: LC-ESI-QTOF
SMILES: OCC1OC(OC2C(OC3=C([O+]=C4C=C(O)C=C(O)C4=C3)C3=CC(O)=C(O)C=C3)OC(CO)C(O)C2O)C(O)C(O)C1O
INCHIKEY: SXYMMDGPXYVCER-UHFFFAOYNA-O
Ontology: Anthocyanidin-3-O-glycosides
COLLISIONENERGY: 30
FORMULA: C27H31O16
RETENTIONTIME: 2.786217
IONMODE: Negative
Comment: registered in RIKEN PlaSMA
Num Peaks: 54
119.03676	7
121.02548	6
125.02406	6
149.02271	10
185.47662	8
189.01128	8
197.06244	8
209.05016	7
210.39467	10
212.04251	7
212.05864	10
213.42622	7
214.99774	9
215.07286	7
216.03204	8
216.04434	8
217.00502	6
229.0121	6
230.02213	8
231.02438	14
239.02284	15
240.04265	17
241.01506	6
241.04591	7
250.27483	7
255.03073	14
256.04404	21
283.02014	32
283.03064	22
284.03018	1000
285.0322	262
286.0347	26
286.04944	9
287.04736	7
289.0358	6
293.04849	13
294.04578	12
296.0336	6
297.04117	14
300.9248	7
309.0368	51
311.04807	25
311.05823	17
312.05621	10
323.06012	7
327.0376	8
339.03641	18
339.05389	45
339.06882	8
340.05157	22
351.03784	17
351.05841	6
352.0387	8
429.07742	6

NAME: 6,7-Dihydroxycoumarin-6-glucoside
PRECURSORMZ: 339.07215564783
PRECURSORTYPE: [M-H]-
INSTRUMENTTYPE: LC-ESI-QTOF
SMILES: OCC1OC(OC2=C(O)C=C3OC(=O)C=CC3=C2)C(O)C(O)C1O
INCHIKEY: XHCADAYNFIFUHF-UHFFFAOYNA-N
Ontology: Coumarin glycosides
COLLISIONENERGY: 30
FORMULA: C15H16O9
RETENTIONTIME: 2.871783
IONMODE: Negative
Comment: registered in RIKEN PlaSMA
Num Peaks: 11
89.03885	14
104.02547	5
105.0326	44
107.01099	8
133.02823	164
134.03278	17
149.02283	36
176.01257	29
177.01721	1000
178.02179	98
179.02516	11

NAME: Myricetin-3-O-xyloside
PRECURSORMZ: 449.07254954783
PRECURSORTYPE: [M-H]-
INSTRUMENTTYPE: LC-ESI-QTOF
SMILES: OC1COC(OC2=C(OC3=CC(O)=CC(O)=C3C2=O)C2=CC(O)=C(O)C(O)=C2)C(O)C1O
INCHIKEY: SBEOEJNITMVWLK-UHFFFAOYNA-N
Ontology: Flavonoid-3-O-glycosides
COLLISIONENERGY: 30
FORMULA: C20H18O12
RETENTIONTIME: 3.868267
IONMODE: Negative
Comment: registered in RIKEN PlaSMA
Num Peaks: 64
116.06771	5
136.01877	7
137.02345	24
150.61745	7
151.00087	75
152.01088	13
158.03964	6
164.01599	8
165.02133	6
167.84332	5
175.03046	7
178.99622	49
179.00832	11
179.03703	5
191.03951	7
193.00899	8
203.0354	9
204.03633	10
208.89691	6
213.89442	6
214.02592	34
215.02359	5
215.0341	10
216.04784	13
227.04147	11
232.03392	7
241.02318	5
242.01584	37
242.02295	24
242.03793	5
243.02049	31
243.03439	12
244.02969	15
245.03793	5
246.00717	5
250.92735	5
252.3217	7
255.01663	6
259.03287	30
260.02206	15
260.04108	9
270.01569	91
270.02557	34
270.18726	5
271.0246	500
271.04636	5
272.02649	96
273.02988	5
278.90939	6
287.01251	99
287.0242	207
288.01721	42
288.03735	19
288.33749	8
289.01868	12
299.01419	5
302.92642	5
315.01358	13
315.02676	6
316.02222	1000
316.2424	11
317.0264	204
318.02716	53
330.02713	6

NAME: Kaempferol-3-O-galactoside-6''-rhamnoside-3'''-rha
PRECURSORMZ: 739.20910264783
PRECURSORTYPE: [M-H]-
INSTRUMENTTYPE: LC-ESI-QTOF
SMILES: CC1OC(OC2C(O)C(C)OC(OCC3OC(OC4=C(OC5=CC(O)=CC(O)=C5C4=O)C4=CC=C(O)C=C4)C(O)C(O)C3O)C2O)C(O)C(O)C1O
INCHIKEY: UYVBMGULWGRDQT-UHFFFAOYNA-N
Ontology: Flavonoid-3-O-glycosides
COLLISIONENERGY: 30
FORMULA: C33H40O19
RETENTIONTIME: 3.978883
IONMODE: Negative
Comment: registered in RIKEN PlaSMA
Num Peaks: 13
151.00127	9
257.03702	11
257.05148	6
284.03146	277
285.03922	1000
286.04318	206
287.03131	8
287.04269	18
297.03766	5
327.04269	7
327.05563	23
593.16614	5
739.20947	206

NAME: 6-Methoxy-7-hydroxycoumarin
PRECURSORMZ: 191.03498224783
PRECURSORTYPE: [M-H]-
INSTRUMENTTYPE: LC-ESI-QTOF
SMILES: COC1=C(O)C=C2OC(=O)C=CC2=C1
INCHIKEY: RODXRVNMMDRFIK-UHFFFAOYSA-N
Ontology: 7-hydroxycoumarins
COLLISIONENERGY: 30
FORMULA: C10H8O4
RETENTIONTIME: 4.2333
IONMODE: Negative
Comment: registered in RIKEN PlaSMA
Num Peaks: 8
92.02598	74
104.02614	1000
105.02701	69
120.0153	146
120.02205	379
147.00685	69
148.01642	297
176.01082	98

NAME: Cyanidin-3-O-sophoroside
PRECURSORMZ: 609.14555981576
PRECURSORTYPE: [M-2H]-
INSTRUMENTTYPE: LC-ESI-QTOF
SMILES: OCC1OC(OC2C(OC3=C([O+]=C4C=C(O)C=C(O)C4=C3)C3=CC(O)=C(O)C=C3)OC(CO)C(O)C2O)C(O)C(O)C1O
INCHIKEY: SXYMMDGPXYVCER-UHFFFAOYNA-O
Ontology: Anthocyanidin-3-O-glycosides
COLLISIONENERGY: 50
FORMULA: C27H31O16
RETENTIONTIME: 2.786217
IONMODE: Negative
Comment: registered in RIKEN PlaSMA
Num Peaks: 84
59.01114	33
64.91806	42
75.1183	26
93.71671	33
108.02025	79
109.02718	62
113.14226	50
130.03487	26
137.01744	42
137.02563	36
143.0416	29
147.00301	149
147.03778	30
148.01424	232
158.03041	29
159.04388	33
167.04921	46
169.02725	27
170.03027	34
175.04388	29
183.04243	96
183.05159	76
184.04451	29
184.05554	43
186.03362	70
186.05818	33
188.04555	54
190.0192	46
191.03903	26
193.4749	36
195.04085	39
196.05222	34
197.02013	33
198.02821	39
200.05058	29
201.0191	34
203.02231	27
210.02701	26
211.02641	32
211.03728	66
211.04567	99
211.39828	37
212.04243	181
214.04973	39
214.06296	80
223.03409	122
227.02489	39
227.03642	153
228.03493	72
228.04539	92
229.01073	34
230.03757	62
236.27913	27
237.02571	33
237.04314	29
238.05797	29
239.02016	37
239.03172	135
240.03236	138
241.01115	29
241.04597	56
241.0574	27
242.03127	33
254.01173	47
255.00789	36
255.03035	1000
255.04706	47
256.02405	155
256.0387	340
256.98727	30
257.03244	26
257.04684	76
258.02768	34
265.04849	32
267.03137	29
282.88406	43
283.01831	256
283.02905	150
284.03433	702
285.0322	74
285.04922	43
291.02005	26
296.04102	49
309.03802	39

NAME: 6,7-Dihydroxycoumarin-6-glucoside
PRECURSORMZ: 339.07215564783
PRECURSORTYPE: [M-H]-
INSTRUMENTTYPE: LC-ESI-QTOF
SMILES: OCC1OC(OC2=C(O)C=C3OC(=O)C=CC3=C2)C(O)C(O)C1O
INCHIKEY: XHCADAYNFIFUHF-UHFFFAOYNA-N
Ontology: Coumarin glycosides
COLLISIONENERGY: 50
FORMULA: C15H16O9
RETENTIONTIME: 2.871783
IONMODE: Negative
Comment: registered in RIKEN PlaSMA
Num Peaks: 27
67.64352	21
77.03941	179
81.03318	30
83.43065	31
87.72825	21
89.0384	238
89.79342	21
90.03918	22
93.03418	78
93.03735	36
104.02585	247
105.03262	509
106.03797	90
107.01076	78
120.02074	49
121.02251	53
121.0302	92
133.02867	1000
133.35876	22
134.02985	92
148.01712	219
148.2198	22
149.02365	240
176.01138	47
177.01678	745
177.03265	19
178.01814	44

NAME: Kaempferol-3-O-galactoside-6''-rhamnoside-3'''-rha
PRECURSORMZ: 739.20910264783
PRECURSORTYPE: [M-H]-
INSTRUMENTTYPE: LC-ESI-QTOF
SMILES: CC1OC(OC2C(O)C(C)OC(OCC3OC(OC4=C(OC5=CC(O)=CC(O)=C5C4=O)C4=CC=C(O)C=C4)C(O)C(O)C3O)C2O)C(O)C(O)C1O
INCHIKEY: UYVBMGULWGRDQT-UHFFFAOYNA-N
Ontology: Flavonoid-3-O-glycosides
COLLISIONENERGY: 50
FORMULA: C33H40O19
RETENTIONTIME: 3.978883
IONMODE: Negative
Comment: registered in RIKEN PlaSMA
Num Peaks: 61
89.02589	6
107.01098	13
108.01056	6
109.03326	5
131.04861	6
143.04887	7
149.02283	5
151.0018	22
152.0121	9
155.05321	5
156.05037	5
159.03978	5
163.00024	10
164.00339	7
164.01585	8
165.01422	17
169.06149	11
171.04727	6
171.96239	8
174.03333	5
178.88165	6
185.05116	8
185.06194	27
187.039	20
192.00288	6
199.03621	7
200.0435	9
202.0273	7
211.0338	20
211.04475	12
212.04503	8
213.05144	17
223.03757	9
227.03357	214
228.03917	35
229.04909	147
230.05643	12
239.02734	38
240.03682	15
241.04538	25
243.0276	5
255.02872	698
255.04956	15
256.01303	6
256.0304	130
256.04135	60
257.04156	139
257.06009	11
258.0426	13
260.07092	5
267.03284	11
284.03168	1000
285.03925	806
286.03918	103
286.06046	8
287.04205	5
287.05246	12
327.03397	8
328.05658	7
422.6293	6
447.09036	6

NAME: 6-Methoxy-7-hydroxycoumarin
PRECURSORMZ: 191.03498224783
PRECURSORTYPE: [M-H]-
INSTRUMENTTYPE: LC-ESI-QTOF
SMILES: COC1=C(O)C=C2OC(=O)C=CC2=C1
INCHIKEY: RODXRVNMMDRFIK-UHFFFAOYSA-N
Ontology: 7-hydroxycoumarins
COLLISIONENERGY: 50
FORMULA: C10H8O4
RETENTIONTIME: 4.2333
IONMODE: Negative
Comment: registered in RIKEN PlaSMA
Num Peaks: 1
119.01575	1000

NAME: Cyanidine-3-O-sambubioside
PRECURSORMZ: 579.13499521576
PRECURSORTYPE: [M-2H]-
INSTRUMENTTYPE: LC-ESI-QTOF
SMILES: OCC1OC(OC2=C([O+]=C3C=C(O)C=C(O)C3=C2)C2=CC(O)=C(O)C=C2)C(OC2OCC(O)C(O)C2O)C(O)C1O
INCHIKEY: ZPPQIOUITZSYAO-UHFFFAOYNA-O
Ontology: Anthocyanidin-3-O-glycosides
COLLISIONENERGY: 10
FORMULA: C26H29O15
RETENTIONTIME: 2.87875
IONMODE: Negative
Comment: registered in RIKEN PlaSMA
Num Peaks: 44
55.00427	10
147.0042	29
148.17123	13
163.00438	14
166.39227	12
177.01772	14
187.03377	12
188.04755	17
189.01637	36
202.10406	13
212.03915	13
212.04677	14
217.01567	11
223.03793	13
228.04071	33
235.77551	10
239.03081	29
255.02837	103
256.0347	35
267.02448	11
268.02859	11
279.68756	16
281.04077	12
283.00916	13
283.03149	58
283.05396	11
284.03137	1000
285.03159	151
285.04333	81
286.03436	23
293.03854	16
293.05695	12
309.03888	14
311.0441	10
324.0549	12
339.047	129
339.056	56
340.05191	14
351.05368	10
429.08093	38
460.09964	9
579.13275	681
579.17719	17
579.19849	23

NAME: Kaempferol-3-O-glucuronoside
PRECURSORMZ: 461.0725496
PRECURSORTYPE: [M-H]-
INSTRUMENTTYPE: LC-ESI-QTOF
SMILES: OC1C(O)C(OC2=C(OC3=CC(O)=CC(O)=C3C2=O)C2=CC=C(O)C=C2)OC(C1O)C(O)=O
INCHIKEY: FNTJVYCFNVUBOL-UHFFFAOYNA-N
Ontology: Flavonoid-3-O-glucuronides
COLLISIONENERGY: 10
FORMULA: C21H18O12
RETENTIONTIME: 4.343433
IONMODE: Negative
Comment: registered in RIKEN PlaSMA
Num Peaks: 69
68.99925	5
69.28734	9
71.01063	5
73.03378	7
85.02608	12
93.03304	6
95.01442	15
99.00549	23
102.99888	5
107.00986	8
109.02982	5
113.02312	105
114.0283	6
115.05496	5
119.00716	7
121.28101	5
129.0146	7
136.01202	5
145.05496	5
151.17503	6
154.03902	9
157.06616	14
159.03746	7
160.04581	5
163.00421	11
164.0197	6
169.05891	5
170.12125	5
173.46843	6
175.02448	57
176.0274	10
184.05977	6
185.06287	21
187.03622	20
189.01717	7
195.04485	9
197.06483	5
199.03627	16
202.07062	5
211.04222	13
211.91013	5
213.04868	16
213.05653	12
214.05176	6
227.04224	23
229.04553	91
230.0537	24
232.05899	7
236.99603	6
241.05766	15
255.02747	17
256.03082	12
256.04242	5
257.04907	48
258.03552	9
258.04788	7
267.02106	5
268.03653	6
274.3656	6
285.03955	1000
285.06946	6
286.04297	160
286.10727	5
287.04391	14
288.04492	12
288.06232	11
306.43048	7
307.63174	8
461.07129	214

NAME: Kaempferol-3-O-arabinoside
PRECURSORMZ: 417.0827203
PRECURSORTYPE: [M-H]-
INSTRUMENTTYPE: LC-ESI-QTOF
SMILES: OC1COC(OC2=C(OC3=CC(O)=CC(O)=C3C2=O)C2=CC=C(O)C=C2)C(O)C1O
INCHIKEY: RNVUDWOQYYWXBJ-UHFFFAOYNA-N
Ontology: Flavonoid-3-O-glycosides
COLLISIONENERGY: 10
FORMULA: C20H18O10
RETENTIONTIME: 4.4715
IONMODE: Negative
Comment: registered in RIKEN PlaSMA
Num Peaks: 57
127.72338	6
133.10854	7
140.9926	7
144.5829	7
148.99049	6
150.99944	28
163.00336	8
169.06053	7
177.01897	8
178.99178	6
178.9994	8
181.12584	6
183.03561	10
183.04208	11
183.05251	10
189.05313	7
190.9937	6
195.0471	8
200.04926	6
211.03554	10
211.04388	19
212.03897	6
213.05635	14
214.02342	6
216.03276	7
216.07803	7
226.01717	6
227.03473	383
228.03198	24
228.04095	49
228.06067	6
229.03281	7
229.04515	21
231.06544	6
231.48904	6
236.05948	8
240.03465	9
241.05096	8
243.02771	6
255.02817	608
255.05873	7
256.03165	127
257.02206	12
257.03201	6
257.0499	8
268.03671	7
278.47763	6
284.03241	896
285.03644	318
285.05844	14
286.03049	14
286.04117	52
317.44464	13
327.05618	11
412.67465	6
417.08133	1000
417.13968	7

NAME: Cyanidine-3-O-sambubioside
PRECURSORMZ: 579.13499521576
PRECURSORTYPE: [M-2H]-
INSTRUMENTTYPE: LC-ESI-QTOF
SMILES: OCC1OC(OC2=C([O+]=C3C=C(O)C=C(O)C3=C2)C2=CC(O)=C(O)C=C2)C(OC2OCC(O)C(O)C2O)C(O)C1O
INCHIKEY: ZPPQIOUITZSYAO-UHFFFAOYNA-O
Ontology: Anthocyanidin-3-O-glycosides
COLLISIONENERGY: 10
FORMULA: C26H29O15
RETENTIONTIME: 2.87875
IONMODE: Negative
Comment: registered in RIKEN PlaSMA
Num Peaks: 15
283.0224	9
284.03036	73
286.03912	8
339.04941	59
339.07251	19
352.05637	15
370.94968	6
431.06421	11
449.11319	8
465.63766	8
494.97882	8
502.60037	9
566.0296	13
571.13385	7
579.13647	1000

NAME: Kaempferol-3-O-glucuronoside
PRECURSORMZ: 461.0725496
PRECURSORTYPE: [M-H]-
INSTRUMENTTYPE: LC-ESI-QTOF
SMILES: OC1C(O)C(OC2=C(OC3=CC(O)=CC(O)=C3C2=O)C2=CC=C(O)C=C2)OC(C1O)C(O)=O
INCHIKEY: FNTJVYCFNVUBOL-UHFFFAOYNA-N
Ontology: Flavonoid-3-O-glucuronides
COLLISIONENERGY: 10
FORMULA: C21H18O12
RETENTIONTIME: 4.343433
IONMODE: Negative
Comment: registered in RIKEN PlaSMA
Num Peaks: 12
85.02873	28
99.00635	9
113.02391	70
114.0262	8
175.02368	47
285.04022	1000
285.06436	11
286.04309	187
287.03833	16
287.05576	10
361.88184	6
461.07452	640

NAME: Kaempferol-3-O-arabinoside
PRECURSORMZ: 417.0827203
PRECURSORTYPE: [M-H]-
INSTRUMENTTYPE: LC-ESI-QTOF
SMILES: OC1COC(OC2=C(OC3=CC(O)=CC(O)=C3C2=O)C2=CC=C(O)C=C2)C(O)C1O
INCHIKEY: RNVUDWOQYYWXBJ-UHFFFAOYNA-N
Ontology: Flavonoid-3-O-glycosides
COLLISIONENERGY: 10
FORMULA: C20H18O10
RETENTIONTIME: 4.4715
IONMODE: Negative
Comment: registered in RIKEN PlaSMA
Num Peaks: 6
284.02188	31
284.03403	115
285.03513	47
285.04947	17
286.03967	10
417.08231	1000

NAME: Cyanidine-3-O-sambubioside
PRECURSORMZ: 579.13499521576
PRECURSORTYPE: [M-2H]-
INSTRUMENTTYPE: LC-ESI-QTOF
SMILES: OCC1OC(OC2=C([O+]=C3C=C(O)C=C(O)C3=C2)C2=CC(O)=C(O)C=C2)C(OC2OCC(O)C(O)C2O)C(O)C1O
INCHIKEY: ZPPQIOUITZSYAO-UHFFFAOYNA-O
Ontology: Anthocyanidin-3-O-glycosides
COLLISIONENERGY: 30
FORMULA: C26H29O15
RETENTIONTIME: 2.87875
IONMODE: Negative
Comment: registered in RIKEN PlaSMA
Num Peaks: 38
147.00529	18
148.01741	8
163.00392	10
176.0036	9
197.06458	7
211.04269	7
225.02094	8
228.84648	6
229.01782	7
240.03162	8
240.04243	7
255.02563	7
255.03661	8
256.0246	11
256.03439	8
256.05386	6
257.04074	10
265.04587	6
268.0264	9
269.04922	7
272.0654	10
283.02277	60
284.03107	1000
284.07791	6
285.03741	296
295.06671	8
299.07483	12
309.04022	22
311.05762	6
312.03574	6
324.05237	6
327.04541	7
339.04517	6
351.05002	15
351.06607	6
352.04288	6
379.19958	7
459.0737	6

NAME: Kaempferol-3-O-glucuronoside
PRECURSORMZ: 461.0725496
PRECURSORTYPE: [M-H]-
INSTRUMENTTYPE: LC-ESI-QTOF
SMILES: OC1C(O)C(OC2=C(OC3=CC(O)=CC(O)=C3C2=O)C2=CC=C(O)C=C2)OC(C1O)C(O)=O
INCHIKEY: FNTJVYCFNVUBOL-UHFFFAOYNA-N
Ontology: Flavonoid-3-O-glucuronides
COLLISIONENERGY: 30
FORMULA: C21H18O12
RETENTIONTIME: 4.343433
IONMODE: Negative
Comment: registered in RIKEN PlaSMA
Num Peaks: 90
72.9888	11
72.99466	10
75.00655	10
85.0279	34
93.03076	18
99.00391	15
108.02266	12
109.02998	19
113.02279	33
115.00164	38
121.02725	11
122.00505	7
131.05124	10
135.01085	10
145.02438	7
145.05927	7
145.06874	8
149.97652	6
151.00017	57
159.04825	15
160.04417	14
162.99635	20
163.00259	55
164.00691	13
165.00797	8
170.06586	7
171.03772	7
171.0484	7
173.05266	9
173.06097	8
177.01688	8
179.04527	6
183.03033	7
185.05913	18
186.06319	6
187.03381	7
187.04066	7
189.05115	16
189.06	19
190.04826	9
195.04694	8
196.04243	7
196.05659	8
197.05388	25
198.037	6
199.02931	28
199.03859	23
200.04068	9
201.05927	20
211.04291	80
212.04932	20
213.04877	51
214.05411	14
223.03976	13
226.03543	13
227.02281	19
227.03613	42
228.03198	7
228.27917	9
228.53606	6
229.04749	259
230.04439	21
230.05327	19
230.32133	7
239.03189	19
240.02957	9
240.0455	6
240.05841	14
241.0452	39
241.83569	6
242.05872	11
243.02687	11
243.05138	9
256.03976	16
257.04004	94
257.05002	87
258.04745	32
258.12155	7
267.02597	18
268.03156	7
280.54153	10
281.69473	6
284.02655	34
284.82364	7
284.99283	7
285.03839	1000
286.0401	175
287.03564	8
287.05438	9
356.23273	8

NAME: Kaempferol-3-O-arabinoside
PRECURSORMZ: 417.0827203
PRECURSORTYPE: [M-H]-
INSTRUMENTTYPE: LC-ESI-QTOF
SMILES: OC1COC(OC2=C(OC3=CC(O)=CC(O)=C3C2=O)C2=CC=C(O)C=C2)C(O)C1O
INCHIKEY: RNVUDWOQYYWXBJ-UHFFFAOYNA-N
Ontology: Flavonoid-3-O-glycosides
COLLISIONENERGY: 30
FORMULA: C20H18O10
RETENTIONTIME: 4.4715
IONMODE: Negative
Comment: registered in RIKEN PlaSMA
Num Peaks: 37
107.01074	14
118.04443	12
132.02509	6
145.71141	5
151.00012	6
153.01883	15
162.99884	8
171.04796	5
187.04544	5
198.05031	6
199.03966	6
203.03416	11
211.0399	6
214.01471	5
218.04913	6
227.03508	397
228.0381	79
228.05577	13
229.04079	13
229.0506	11
240.03937	8
250.1178	6
253.06039	5
255.02855	1000
256.03262	194
257.03613	15
257.04803	6
257.06186	7
267.03552	5
283.85355	6
284.03119	377
284.08545	11
284.09564	5
285.03897	190
286.03043	6
286.04541	25
299.12653	6

NAME: Cyanidine-3-O-sambubioside
PRECURSORMZ: 579.13499521576
PRECURSORTYPE: [M-2H]-
INSTRUMENTTYPE: LC-ESI-QTOF
SMILES: OCC1OC(OC2=C([O+]=C3C=C(O)C=C(O)C3=C2)C2=CC(O)=C(O)C=C2)C(OC2OCC(O)C(O)C2O)C(O)C1O
INCHIKEY: ZPPQIOUITZSYAO-UHFFFAOYNA-O
Ontology: Anthocyanidin-3-O-glycosides
COLLISIONENERGY: 50
FORMULA: C26H29O15
RETENTIONTIME: 2.87875
IONMODE: Negative
Comment: registered in RIKEN PlaSMA
Num Peaks: 64
105.03419	60
108.02728	63
119.04856	41
120.01762	41
121.02528	30
135.0098	73
147.00307	43
147.0098	63
148.01692	68
149.02084	255
158.03975	41
172.00992	41
174.0219	38
174.03059	68
175.04015	58
183.03912	177
183.04793	83
187.03522	31
188.04988	107
189.0408	31
189.05086	88
195.04008	83
199.03799	35
200.04765	51
211.0359	217
211.05487	53
212.03917	119
212.05121	144
213.04263	58
214.01511	51
214.02628	48
215.04288	94
224.57469	58
225.04816	60
227.02945	150
227.04045	117
228.02473	31
237.0515	33
239.02336	81
239.03432	319
240.04247	169
240.06009	31
241.01321	64
241.037	40
251.03355	33
253.05263	50
254.01801	64
255.02802	1000
255.05064	40
256.03244	215
256.04297	55
256.07474	30
256.16431	41
256.23016	36
267.05664	46
283.01688	109
283.03107	79
284.01422	55
284.02658	137
284.0459	51
285.02176	41
285.03729	174
297.03183	33
311.04422	41

NAME: Kaempferol-3-O-glucuronoside
PRECURSORMZ: 461.0725496
PRECURSORTYPE: [M-H]-
INSTRUMENTTYPE: LC-ESI-QTOF
SMILES: OC1C(O)C(OC2=C(OC3=CC(O)=CC(O)=C3C2=O)C2=CC=C(O)C=C2)OC(C1O)C(O)=O
INCHIKEY: FNTJVYCFNVUBOL-UHFFFAOYNA-N
Ontology: Flavonoid-3-O-glucuronides
COLLISIONENERGY: 50
FORMULA: C21H18O12
RETENTIONTIME: 4.343433
IONMODE: Negative
Comment: registered in RIKEN PlaSMA
Num Peaks: 96
67.01378	97
67.02163	136
87.00759	78
87.01703	113
89.02343	78
91.02132	78
92.02615	121
93.03334	311
103.05168	105
107.01166	152
107.01869	163
108.01851	354
109.02605	93
109.03846	70
117.0317	257
117.03883	183
131.03711	78
131.05283	292
132.04941	78
135.04381	202
136.0152	78
136.02184	105
137.02054	86
137.26982	78
139.05644	101
139.88803	70
143.04901	545
143.5316	74
145.02335	156
148.0451	97
150.99794	82
151.99913	128
154.04359	82
155.03935	175
155.05115	97
156.05286	121
156.06139	187
157.06575	89
158.03172	105
158.04198	272
158.06619	78
158.09132	121
159.04091	86
159.06233	70
160.0466	136
163.00598	125
164.00238	74
165.01262	78
167.04688	105
168.05087	97
171.04123	319
173.01636	82
174.03023	101
183.04152	482
184.05257	331
185.02113	105
185.05757	494
187.0318	319
187.03833	1000
192.00111	101
195.03564	70
195.04861	257
196.04488	97
196.05765	74
197.05925	89
198.03264	86
201.03757	93
201.05016	268
210.03036	82
210.03911	101
211.03635	265
212.03885	82
214.02975	78
215.02107	160
215.03424	89
219.033	148
223.04382	109
223.05298	86
227.04062	288
227.0537	105
228.03749	132
228.04716	132
229.05067	101
230.04214	93
239.0386	183
241.04169	183
255.02524	187
255.04189	183
256.03073	109
256.04199	82
257.03998	113
268.02423	109
268.04019	89
285.04538	105
286.03229	241
286.04272	206

NAME: Kaempferol-3-O-arabinoside
PRECURSORMZ: 417.0827203
PRECURSORTYPE: [M-H]-
INSTRUMENTTYPE: LC-ESI-QTOF
SMILES: OC1COC(OC2=C(OC3=CC(O)=CC(O)=C3C2=O)C2=CC=C(O)C=C2)C(O)C1O
INCHIKEY: RNVUDWOQYYWXBJ-UHFFFAOYNA-N
Ontology: Flavonoid-3-O-glycosides
COLLISIONENERGY: 50
FORMULA: C20H18O10
RETENTIONTIME: 4.4715
IONMODE: Negative
Comment: registered in RIKEN PlaSMA
Num Peaks: 58
63.02645	8
88.51208	9
108.01904	15
117.03736	8
135.01149	13
137.00513	9
137.01469	9
139.0486	17
139.05653	10
141.03694	21
143.05074	38
150.99791	16
155.04727	8
157.02548	15
158.66393	8
159.03944	13
160.73689	19
166.02325	7
167.05415	13
168.24529	11
169.04417	12
182.03207	38
182.04054	10
183.04321	284
184.01523	10
184.04196	11
184.04849	13
185.01591	27
185.02176	60
187.03206	11
187.04051	12
188.04286	12
190.99443	8
198.03954	7
199.03391	24
201.53107	11
210.01955	19
210.03262	16
211.03635	46
211.05296	20
212.03093	25
213.01703	22
214.02087	9
214.03906	8
227.03372	1000
228.03764	110
228.15367	11
228.37415	14
229.03076	36
229.04301	9
230.04552	8
231.95139	7
238.01839	9
244.57968	13
255.02718	496
256.03525	115
257.04083	13
285.04633	8

NAME: Cyanidine-3-O-sambubioside
PRECURSORMZ: 579.13499521576
PRECURSORTYPE: [M-2H]-
INSTRUMENTTYPE: LC-ESI-QTOF
SMILES: OCC1OC(OC2=C([O+]=C3C=C(O)C=C(O)C3=C2)C2=CC(O)=C(O)C=C2)C(OC2OCC(O)C(O)C2O)C(O)C1O
INCHIKEY: ZPPQIOUITZSYAO-UHFFFAOYNA-O
Ontology: Anthocyanidin-3-O-glycosides
COLLISIONENERGY: 10
FORMULA: C26H29O15
RETENTIONTIME: 2.87875
IONMODE: Negative
Comment: registered in RIKEN PlaSMA
Num Peaks: 52
121.03423	19
147.00764	36
148.70799	15
187.37816	13
188.04785	26
189.02812	12
191.03017	15
211.03972	14
212.04323	10
212.45432	11
213.04741	12
214.66742	13
227.03717	22
229.01086	10
233.0367	17
240.03932	23
241.04372	17
254.07892	13
255.03174	50
256.03836	12
256.48645	23
257.03958	16
267.56415	12
269.04303	16
271.02368	10
278.03632	14
283.0242	80
284.03091	1000
285.03308	166
285.04614	62
286.02979	15
286.04337	47
289.13263	10
290.45157	11
309.03662	14
311.05716	23
311.22827	11
328.99252	12
339.04288	31
339.05603	52
340.04724	60
340.05902	17
344.80048	12
351.05225	11
421.11414	12
429.07236	14
429.10419	11
430.06784	15
431.09073	23
514.271	10
579.13318	769
579.15338	162

NAME: Kaempferol-3-O-glucuronoside
PRECURSORMZ: 461.0725496
PRECURSORTYPE: [M-H]-
INSTRUMENTTYPE: LC-ESI-QTOF
SMILES: OC1C(O)C(OC2=C(OC3=CC(O)=CC(O)=C3C2=O)C2=CC=C(O)C=C2)OC(C1O)C(O)=O
INCHIKEY: FNTJVYCFNVUBOL-UHFFFAOYNA-N
Ontology: Flavonoid-3-O-glucuronides
COLLISIONENERGY: 10
FORMULA: C21H18O12
RETENTIONTIME: 4.343433
IONMODE: Negative
Comment: registered in RIKEN PlaSMA
Num Peaks: 64
59.01442	6
72.98966	6
85.03049	23
88.16436	5
89.02459	7
93.03195	5
99.00571	11
101.0234	7
102.995	6
104.00929	7
113.0235	125
114.02275	16
115.00193	15
137.02762	6
143.05107	7
144.44675	5
145.00687	6
149.01328	7
150.99924	10
154.03568	9
155.04945	7
157.06032	7
162.99936	14
163.00766	13
168.05663	6
169.01649	10
172.04669	6
175.0188	24
175.02806	8
185.05078	6
185.0611	14
185.06897	11
186.05815	5
187.03677	23
189.05984	7
195.04169	12
199.03035	9
200.04335	6
211.03349	7
211.04015	10
213.04887	10
213.05861	20
227.0321	24
229.04953	106
230.04053	6
230.05125	21
230.06348	5
237.71529	9
239.03624	26
241.05713	9
243.03365	15
255.0179	6
255.03568	9
257.04572	50
258.04025	10
265.13803	8
267.0321	5
280.13248	5
285.03989	1000
286.04242	164
287.04218	13
287.05225	9
402.38168	9
461.06799	192

NAME: Kaempferol-3-O-arabinoside
PRECURSORMZ: 417.0827203
PRECURSORTYPE: [M-H]-
INSTRUMENTTYPE: LC-ESI-QTOF
SMILES: OC1COC(OC2=C(OC3=CC(O)=CC(O)=C3C2=O)C2=CC=C(O)C=C2)C(O)C1O
INCHIKEY: RNVUDWOQYYWXBJ-UHFFFAOYNA-N
Ontology: Flavonoid-3-O-glycosides
COLLISIONENERGY: 10
FORMULA: C20H18O10
RETENTIONTIME: 4.4715
IONMODE: Negative
Comment: registered in RIKEN PlaSMA
Num Peaks: 50
129.0376	10
139.05316	10
141.08	6
141.40622	7
151.00275	29
156.05084	6
163.00729	5
164.995	6
167.05182	13
175.6058	5
183.0343	10
183.04636	16
185.05922	9
187.03731	7
187.0708	9
190.99947	6
193.04596	6
210.03284	5
213.06776	9
219.02202	6
227.0352	286
228.03966	62
229.05347	13
230.03442	8
230.05258	5
230.22644	9
231.0652	5
255.02823	518
256.01791	9
256.03076	90
256.0437	26
256.34985	5
257.03424	11
258.00049	5
266.06918	5
269.03329	7
271.39697	7
283.013	6
284.03006	691
284.05209	21
285.03699	312
285.87305	6
286.0296	7
286.0433	17
286.06491	6
287.03796	9
327.03748	5
327.056	17
357.06573	5
417.08194	1000

NAME: Cyanidine-3-O-sambubioside
PRECURSORMZ: 579.13499521576
PRECURSORTYPE: [M-2H]-
INSTRUMENTTYPE: LC-ESI-QTOF
SMILES: OCC1OC(OC2=C([O+]=C3C=C(O)C=C(O)C3=C2)C2=CC(O)=C(O)C=C2)C(OC2OCC(O)C(O)C2O)C(O)C1O
INCHIKEY: ZPPQIOUITZSYAO-UHFFFAOYNA-O
Ontology: Anthocyanidin-3-O-glycosides
COLLISIONENERGY: 10
FORMULA: C26H29O15
RETENTIONTIME: 2.87875
IONMODE: Negative
Comment: registered in RIKEN PlaSMA
Num Peaks: 15
284.035	47
285.03467	13
285.04459	18
286.04407	11
319.05316	5
339.04019	13
339.05664	55
340.05121	22
351.04077	11
392.98856	8
429.0817	10
459.09457	6
460.09329	7
565.83673	6
579.13507	1000

NAME: Kaempferol-3-O-glucuronoside
PRECURSORMZ: 461.0725496
PRECURSORTYPE: [M-H]-
INSTRUMENTTYPE: LC-ESI-QTOF
SMILES: OC1C(O)C(OC2=C(OC3=CC(O)=CC(O)=C3C2=O)C2=CC=C(O)C=C2)OC(C1O)C(O)=O
INCHIKEY: FNTJVYCFNVUBOL-UHFFFAOYNA-N
Ontology: Flavonoid-3-O-glucuronides
COLLISIONENERGY: 10
FORMULA: C21H18O12
RETENTIONTIME: 4.343433
IONMODE: Negative
Comment: registered in RIKEN PlaSMA
Num Peaks: 15
59.01961	6
85.02987	8
102.9989	8
113.02388	119
147.0294	6
157.0166	10
175.02153	65
175.03084	13
178.99947	5
285.03879	1000
285.06598	5
286.04279	152
287.03882	11
287.05106	6
461.07034	674

NAME: Kaempferol-3-O-arabinoside
PRECURSORMZ: 417.0827203
PRECURSORTYPE: [M-H]-
INSTRUMENTTYPE: LC-ESI-QTOF
SMILES: OC1COC(OC2=C(OC3=CC(O)=CC(O)=C3C2=O)C2=CC=C(O)C=C2)C(O)C1O
INCHIKEY: RNVUDWOQYYWXBJ-UHFFFAOYNA-N
Ontology: Flavonoid-3-O-glycosides
COLLISIONENERGY: 10
FORMULA: C20H18O10
RETENTIONTIME: 4.4715
IONMODE: Negative
Comment: registered in RIKEN PlaSMA
Num Peaks: 4
284.0303	106
285.04199	44
286.03757	10
417.08087	1000

NAME: Cyanidine-3-O-sambubioside
PRECURSORMZ: 579.13499521576
PRECURSORTYPE: [M-2H]-
INSTRUMENTTYPE: LC-ESI-QTOF
SMILES: OCC1OC(OC2=C([O+]=C3C=C(O)C=C(O)C3=C2)C2=CC(O)=C(O)C=C2)C(OC2OCC(O)C(O)C2O)C(O)C1O
INCHIKEY: ZPPQIOUITZSYAO-UHFFFAOYNA-O
Ontology: Anthocyanidin-3-O-glycosides
COLLISIONENERGY: 30
FORMULA: C26H29O15
RETENTIONTIME: 2.87875
IONMODE: Negative
Comment: registered in RIKEN PlaSMA
Num Peaks: 48
109.02525	7
117.01624	6
146.98975	11
147.00868	34
163.00703	6
189.04755	7
189.05815	9
190.03304	7
191.02992	7
197.01741	8
211.03723	7
214.48495	9
217.01999	8
224.19173	7
227.02847	13
228.02798	8
228.41339	7
229.01425	7
230.04619	18
240.03972	23
241.01622	8
241.05275	6
251.47318	9
253.05441	7
255.02815	26
256.02499	15
256.03763	25
271.68124	9
281.0481	6
283.02893	52
284.03085	1000
285.03738	230
286.0368	16
286.0564	6
291.5842	7
293.05344	7
297.04581	8
309.0434	29
312.03696	6
323.05582	8
339.03394	9
339.05331	35
340.05759	18
352.0509	9
383.45978	9
485.13315	11
569.12683	11
579.13959	21

NAME: Kaempferol-3-O-glucuronoside
PRECURSORMZ: 461.0725496
PRECURSORTYPE: [M-H]-
INSTRUMENTTYPE: LC-ESI-QTOF
SMILES: OC1C(O)C(OC2=C(OC3=CC(O)=CC(O)=C3C2=O)C2=CC=C(O)C=C2)OC(C1O)C(O)=O
INCHIKEY: FNTJVYCFNVUBOL-UHFFFAOYNA-N
Ontology: Flavonoid-3-O-glucuronides
COLLISIONENERGY: 30
FORMULA: C21H18O12
RETENTIONTIME: 4.343433
IONMODE: Negative
Comment: registered in RIKEN PlaSMA
Num Peaks: 86
59.01141	8
71.01144	7
73.02759	6
75.00919	7
83.00823	18
85.02682	12
87.01075	15
93.03321	18
99.01012	15
101.0239	11
104.00738	10
113.02036	37
113.02991	9
117.01894	21
121.02953	6
123.00327	16
135.00568	20
135.01321	6
145.06395	16
151.00223	20
155.04762	6
162.99623	27
163.00928	22
164.20589	10
165.01941	19
168.05573	7
169.02885	6
171.03806	8
173.02299	23
173.05852	9
175.01997	11
185.0558	12
185.06313	15
186.07091	20
187.03841	68
189.0508	22
195.03343	6
195.04199	14
196.048	6
197.02467	6
197.06876	8
198.065	11
199.03584	40
200.04317	13
200.04979	8
201.0529	6
211.04031	32
212.04655	34
213.05269	36
215.02644	16
215.04683	11
215.50146	6
223.03868	8
227.03618	57
227.47913	6
228.03854	9
229.04849	264
229.07051	7
230.05441	28
230.33827	6
239.03409	6
239.04515	19
240.04028	26
241.04935	38
243.02373	13
244.03578	7
255.02905	7
256.02875	42
256.03961	16
257.04233	233
258.04492	41
258.0766	7
265.64575	7
267.01819	13
267.02936	8
272.29999	8
284.0278	27
285.03827	1000
285.06326	6
286.02344	12
286.03998	110
286.06342	13
286.42404	6
287.04498	10
287.05261	6
334.92075	6

NAME: Kaempferol-3-O-arabinoside
PRECURSORMZ: 417.0827203
PRECURSORTYPE: [M-H]-
INSTRUMENTTYPE: LC-ESI-QTOF
SMILES: OC1COC(OC2=C(OC3=CC(O)=CC(O)=C3C2=O)C2=CC=C(O)C=C2)C(O)C1O
INCHIKEY: RNVUDWOQYYWXBJ-UHFFFAOYNA-N
Ontology: Flavonoid-3-O-glycosides
COLLISIONENERGY: 30
FORMULA: C20H18O10
RETENTIONTIME: 4.4715
IONMODE: Negative
Comment: registered in RIKEN PlaSMA
Num Peaks: 31
96.02005	10
151.00359	5
179.99603	5
183.04004	9
185.06052	5
187.03275	12
190.98515	6
208.85989	6
211.0425	11
211.05499	7
214.01718	5
215.02779	6
223.03831	11
226.02426	6
227.03372	411
228.02884	16
228.04243	35
229.05359	14
229.06253	13
239.0224	15
239.03479	14
255.02892	1000
256.03418	148
257.0296	13
257.05493	6
267.03336	7
284.03149	464
285.03485	171
286.04022	12
287.04883	8
311.72046	5

NAME: Cyanidine-3-O-sambubioside
PRECURSORMZ: 579.13499521576
PRECURSORTYPE: [M-2H]-
INSTRUMENTTYPE: LC-ESI-QTOF
SMILES: OCC1OC(OC2=C([O+]=C3C=C(O)C=C(O)C3=C2)C2=CC(O)=C(O)C=C2)C(OC2OCC(O)C(O)C2O)C(O)C1O
INCHIKEY: ZPPQIOUITZSYAO-UHFFFAOYNA-O
Ontology: Anthocyanidin-3-O-glycosides
COLLISIONENERGY: 50
FORMULA: C26H29O15
RETENTIONTIME: 2.87875
IONMODE: Negative
Comment: registered in RIKEN PlaSMA
Num Peaks: 62
118.02744	41
120.01839	86
121.02579	66
133.16476	37
136.01094	43
147.00049	37
147.0107	187
147.04033	37
148.01273	129
148.02228	43
150.02177	82
157.03041	97
158.03819	51
168.06136	37
170.03845	55
172.04994	53
182.02705	47
183.04488	138
185.04532	37
189.04164	60
195.04332	47
196.0509	109
199.03197	47
199.04163	150
200.04388	298
200.05905	74
211.03261	51
211.04413	43
212.03636	107
212.0455	290
213.00713	94
213.02101	55
213.03979	39
213.05161	41
214.01497	62
214.02261	70
223.0405	97
224.04362	43
226.03035	97
227.03142	343
228.03049	41
228.0378	37
229.037	64
237.052	37
239.02299	80
239.03812	43
240.03247	129
240.04713	82
250.0215	68
255.02637	1000
256.03525	351
256.05173	47
262.03018	55
266.01663	45
283.01895	203
283.03223	234
284.02444	148
284.03354	158
285.02301	55
285.04068	164
286.02637	86
297.05356	49

NAME: Kaempferol-3-O-glucuronoside
PRECURSORMZ: 461.0725496
PRECURSORTYPE: [M-H]-
INSTRUMENTTYPE: LC-ESI-QTOF
SMILES: OC1C(O)C(OC2=C(OC3=CC(O)=CC(O)=C3C2=O)C2=CC=C(O)C=C2)OC(C1O)C(O)=O
INCHIKEY: FNTJVYCFNVUBOL-UHFFFAOYNA-N
Ontology: Flavonoid-3-O-glucuronides
COLLISIONENERGY: 50
FORMULA: C21H18O12
RETENTIONTIME: 4.343433
IONMODE: Negative
Comment: registered in RIKEN PlaSMA
Num Peaks: 89
59.01437	71
71.00999	90
72.99136	106
85.61117	90
87.00863	177
92.0307	96
93.03346	196
99.0111	151
108.01518	74
113.02328	90
115.05634	96
116.05981	87
117.02391	80
117.02939	241
131.04828	71
132.02405	64
135.00873	138
136.01842	87
137.02432	289
138.02927	58
141.0687	273
143.0466	68
143.05165	196
145.02821	180
147.03677	77
151.0052	96
151.04042	122
154.04305	354
155.05086	148
156.05232	199
156.05933	80
157.06404	154
158.03871	145
159.04187	695
159.05054	283
160.04457	58
160.05269	148
162.99904	232
165.01126	58
165.01826	84
167.04115	273
169.06172	58
170.03331	90
171.03896	132
171.04721	87
173.02969	103
178.7937	68
182.03545	77
183.03441	77
183.04099	167
183.04912	228
183.05814	119
184.04942	58
184.05588	64
185.04958	84
185.06575	376
187.02496	58
187.04092	338
188.03555	90
189.04022	58
189.06058	64
190.99467	84
195.03708	138
195.04404	154
197.06425	154
201.05426	113
201.0688	80
211.03185	325
211.03867	1000
212.04736	77
212.05602	64
213.01311	61
213.04909	90
215.03297	64
227.02747	424
227.04025	244
228.03198	58
229.04222	267
229.0558	180
231.0522	64
240.03712	58
240.26331	58
241.06236	64
243.02733	96
255.02975	376
272.53979	64
285.03418	572
285.04593	302
286.04346	58

NAME: Kaempferol-3-O-arabinoside
PRECURSORMZ: 417.0827203
PRECURSORTYPE: [M-H]-
INSTRUMENTTYPE: LC-ESI-QTOF
SMILES: OC1COC(OC2=C(OC3=CC(O)=CC(O)=C3C2=O)C2=CC=C(O)C=C2)C(O)C1O
INCHIKEY: RNVUDWOQYYWXBJ-UHFFFAOYNA-N
Ontology: Flavonoid-3-O-glycosides
COLLISIONENERGY: 50
FORMULA: C20H18O10
RETENTIONTIME: 4.4715
IONMODE: Negative
Comment: registered in RIKEN PlaSMA
Num Peaks: 68
91.02001	9
95.55985	7
104.02886	11
108.01539	8
131.05273	16
132.01869	6
132.0247	12
135.0085	8
136.00784	11
136.0143	13
139.05504	28
143.04417	10
149.01973	11
151.01311	8
155.04532	10
156.04918	13
157.02036	7
158.04004	14
159.04401	34
159.05339	8
160.04076	10
160.37227	7
162.99619	10
163.00418	9
167.03957	10
167.04604	18
168.05708	9
169.05713	9
172.0504	14
182.03281	24
182.04117	48
183.04373	330
183.15027	7
184.04207	11
184.04956	7
185.01305	8
185.02673	50
185.0493	13
187.03432	16
187.04193	19
187.45961	13
188.04057	10
190.99834	9
197.06329	18
198.03822	9
199.04373	8
201.04726	8
202.02394	14
210.09061	10
211.04167	128
212.04735	8
212.56361	9
213.01184	20
213.02031	23
226.02155	16
226.98738	8
227.03358	1000
228.03865	198
228.05006	27
229.02998	8
229.04247	11
241.06104	7
255.02985	423
256.02118	36
256.03265	140
269.06601	12
270.41852	8
285.04465	9

NAME: Cyanidine-3-O-sambubioside
PRECURSORMZ: 579.13499521576
PRECURSORTYPE: [M-2H]-
INSTRUMENTTYPE: LC-ESI-QTOF
SMILES: OCC1OC(OC2=C([O+]=C3C=C(O)C=C(O)C3=C2)C2=CC(O)=C(O)C=C2)C(OC2OCC(O)C(O)C2O)C(O)C1O
INCHIKEY: ZPPQIOUITZSYAO-UHFFFAOYNA-O
Ontology: Anthocyanidin-3-O-glycosides
COLLISIONENERGY: 10
FORMULA: C26H29O15
RETENTIONTIME: 2.87875
IONMODE: Negative
Comment: registered in RIKEN PlaSMA
Num Peaks: 43
147.14471	21
148.01819	11
154.27892	9
164.00529	15
174.75615	14
196.04375	11
196.05045	9
212.04477	39
228.04263	10
233.04303	11
239.0246	29
239.03543	15
240.03462	14
255.03061	50
255.04007	24
256.03406	16
256.04382	9
259.06418	12
270.0361	12
282.88004	11
283.02313	61
283.03387	58
284.0321	1000
285.02853	77
285.04111	135
286.02377	10
286.04556	20
291.03735	14
296.27765	10
305.75204	10
309.03848	41
311.06052	46
339.01068	14
339.02936	25
339.052	72
340.03384	18
340.05249	12
340.06613	21
352.04816	10
357.05945	9
412.06946	9
429.07605	16
579.1366	768

NAME: Kaempferol-3-O-glucuronoside
PRECURSORMZ: 461.0725496
PRECURSORTYPE: [M-H]-
INSTRUMENTTYPE: LC-ESI-QTOF
SMILES: OC1C(O)C(OC2=C(OC3=CC(O)=CC(O)=C3C2=O)C2=CC=C(O)C=C2)OC(C1O)C(O)=O
INCHIKEY: FNTJVYCFNVUBOL-UHFFFAOYNA-N
Ontology: Flavonoid-3-O-glucuronides
COLLISIONENERGY: 10
FORMULA: C21H18O12
RETENTIONTIME: 4.343433
IONMODE: Negative
Comment: registered in RIKEN PlaSMA
Num Peaks: 51
71.0099	7
85.02586	9
89.02212	10
95.01205	16
99.00812	7
100.01311	5
103.00407	15
111.00255	7
113.02232	113
137.02071	8
155.05043	5
156.05354	5
159.04242	18
162.99991	25
165.0192	5
171.04594	16
175.02007	12
175.0264	26
176.02898	6
179.05307	6
185.05948	11
187.03186	26
187.05223	6
188.03951	10
192.00302	12
195.03719	15
196.1178	6
199.04155	7
211.03384	9
212.04764	9
213.06308	7
214.05608	7
215.03709	6
229.04965	76
230.05511	10
239.0388	8
241.0488	21
242.04991	6
255.02914	7
256.03775	10
256.98853	6
257.04391	24
258.03915	15
267.02667	16
285.03992	1000
286.04205	217
287.03857	16
287.05206	24
298.72165	6
309.06512	6
461.07315	243

NAME: Kaempferol-3-O-arabinoside
PRECURSORMZ: 417.0827203
PRECURSORTYPE: [M-H]-
INSTRUMENTTYPE: LC-ESI-QTOF
SMILES: OC1COC(OC2=C(OC3=CC(O)=CC(O)=C3C2=O)C2=CC=C(O)C=C2)C(O)C1O
INCHIKEY: RNVUDWOQYYWXBJ-UHFFFAOYNA-N
Ontology: Flavonoid-3-O-glycosides
COLLISIONENERGY: 10
FORMULA: C20H18O10
RETENTIONTIME: 4.4715
IONMODE: Negative
Comment: registered in RIKEN PlaSMA
Num Peaks: 44
107.01868	9
125.01949	6
143.05768	6
146.03503	8
150.99974	12
159.04623	6
178.99374	6
181.01479	7
187.03337	5
192.03467	7
196.05481	6
207.02504	10
212.03741	5
226.70219	6
227.03334	396
228.03198	16
228.04118	18
228.24081	5
229.033	8
229.04039	20
233.48163	6
239.03688	5
240.04407	8
242.05342	5
245.61295	6
255.02803	488
255.30309	8
256.03091	107
257.03226	12
257.04626	13
261.00732	7
283.0192	9
284.03195	832
285.03662	314
286.01144	6
286.03961	41
287.03781	16
287.05573	11
310.03708	7
314.06967	6
327.04373	10
327.05646	6
416.92273	9
417.08118	1000

NAME: Cyanidine-3-O-sambubioside
PRECURSORMZ: 579.13499521576
PRECURSORTYPE: [M-2H]-
INSTRUMENTTYPE: LC-ESI-QTOF
SMILES: OCC1OC(OC2=C([O+]=C3C=C(O)C=C(O)C3=C2)C2=CC(O)=C(O)C=C2)C(OC2OCC(O)C(O)C2O)C(O)C1O
INCHIKEY: ZPPQIOUITZSYAO-UHFFFAOYNA-O
Ontology: Anthocyanidin-3-O-glycosides
COLLISIONENERGY: 10
FORMULA: C26H29O15
RETENTIONTIME: 2.87875
IONMODE: Negative
Comment: registered in RIKEN PlaSMA
Num Peaks: 13
140.81648	5
255.03177	10
284.03204	66
285.03778	7
309.0347	5
339.04932	45
339.06787	6
340.05341	6
429.09082	6
451.20151	8
508.91913	6
578.12506	15
579.13629	1000

NAME: Kaempferol-3-O-glucuronoside
PRECURSORMZ: 461.0725496
PRECURSORTYPE: [M-H]-
INSTRUMENTTYPE: LC-ESI-QTOF
SMILES: OC1C(O)C(OC2=C(OC3=CC(O)=CC(O)=C3C2=O)C2=CC=C(O)C=C2)OC(C1O)C(O)=O
INCHIKEY: FNTJVYCFNVUBOL-UHFFFAOYNA-N
Ontology: Flavonoid-3-O-glucuronides
COLLISIONENERGY: 10
FORMULA: C21H18O12
RETENTIONTIME: 4.343433
IONMODE: Negative
Comment: registered in RIKEN PlaSMA
Num Peaks: 13
85.03239	6
99.00416	5
103.00114	7
113.02211	60
114.02792	5
117.01567	14
175.02341	85
176.03108	7
213.78371	6
285.03967	1000
286.04141	191
287.04868	35
461.07306	630

NAME: Kaempferol-3-O-arabinoside
PRECURSORMZ: 417.0827203
PRECURSORTYPE: [M-H]-
INSTRUMENTTYPE: LC-ESI-QTOF
SMILES: OC1COC(OC2=C(OC3=CC(O)=CC(O)=C3C2=O)C2=CC=C(O)C=C2)C(O)C1O
INCHIKEY: RNVUDWOQYYWXBJ-UHFFFAOYNA-N
Ontology: Flavonoid-3-O-glycosides
COLLISIONENERGY: 10
FORMULA: C20H18O10
RETENTIONTIME: 4.4715
IONMODE: Negative
Comment: registered in RIKEN PlaSMA
Num Peaks: 4
284.03214	151
285.03891	77
286.04053	7
417.08148	1000

NAME: Cyanidine-3-O-sambubioside
PRECURSORMZ: 579.13499521576
PRECURSORTYPE: [M-2H]-
INSTRUMENTTYPE: LC-ESI-QTOF
SMILES: OCC1OC(OC2=C([O+]=C3C=C(O)C=C(O)C3=C2)C2=CC(O)=C(O)C=C2)C(OC2OCC(O)C(O)C2O)C(O)C1O
INCHIKEY: ZPPQIOUITZSYAO-UHFFFAOYNA-O
Ontology: Anthocyanidin-3-O-glycosides
COLLISIONENERGY: 30
FORMULA: C26H29O15
RETENTIONTIME: 2.87875
IONMODE: Negative
Comment: registered in RIKEN PlaSMA
Num Peaks: 52
50.00961	8
136.01285	15
147.00728	27
149.01956	7
160.02411	15
162.92744	7
179.10384	6
189.01984	13
189.05687	11
190.00961	11
190.2048	9
196.04863	7
201.0213	9
212.04089	8
213.88278	9
214.02257	9
217.01474	13
229.04738	15
240.0432	7
241.04227	14
242.04958	11
255.026	18
255.03658	16
256.03351	7
263.04895	7
267.01785	6
271.01682	13
282.05206	7
282.50961	11
283.02286	56
283.06104	9
284.03113	1000
285.03271	225
285.05811	11
286.03983	23
294.98349	14
296.06088	9
297.02774	8
298.05231	9
309.03598	25
309.05051	9
311.04483	8
311.05945	24
312.04413	9
312.08896	8
323.05475	16
338.03516	7
339.05249	26
340.0419	7
340.05347	15
341.06464	12
505.34506	7

NAME: Kaempferol-3-O-glucuronoside
PRECURSORMZ: 461.0725496
PRECURSORTYPE: [M-H]-
INSTRUMENTTYPE: LC-ESI-QTOF
SMILES: OC1C(O)C(OC2=C(OC3=CC(O)=CC(O)=C3C2=O)C2=CC=C(O)C=C2)OC(C1O)C(O)=O
INCHIKEY: FNTJVYCFNVUBOL-UHFFFAOYNA-N
Ontology: Flavonoid-3-O-glucuronides
COLLISIONENERGY: 30
FORMULA: C21H18O12
RETENTIONTIME: 4.343433
IONMODE: Negative
Comment: registered in RIKEN PlaSMA
Num Peaks: 93
71.01315	20
83.01138	23
85.02362	7
85.02876	23
87.01011	8
93.03228	31
95.0085	15
95.01422	7
99.00353	9
103.0028	6
107.01105	19
108.01583	14
113.02039	23
113.02747	8
117.02177	8
117.03348	9
121.03195	9
134.09784	10
136.0217	10
143.05779	9
144.04669	7
145.06689	20
151.00313	36
155.04535	7
157.03023	16
158.04558	7
158.07275	14
159.04053	8
161.03043	13
162.53395	14
163.00154	45
164.00482	28
165.01915	13
167.05367	14
169.05836	12
169.07718	10
170.06805	8
171.04382	27
173.02139	21
173.06464	28
182.03816	6
183.03596	9
185.06091	29
187.04155	57
187.06725	7
188.0381	7
189.05019	14
195.0442	41
196.05106	15
197.05475	23
199.04227	7
199.05673	8
201.04561	6
202.05455	8
204.60477	8
211.04128	37
213.05476	84
214.0238	16
215.02834	8
215.03973	9
216.35461	6
223.03989	7
227.02513	8
227.03531	14
228.03671	16
228.05249	16
229.04855	245
230.05777	39
230.74718	6
231.05316	9
239.01889	11
239.03586	14
239.05391	9
240.04106	21
240.32814	6
241.04013	7
241.05196	35
242.04901	8
243.02934	9
245.04286	6
255.03273	19
256.0336	25
256.92926	9
257.04407	179
258.048	27
258.27805	6
267.03375	18
268.03644	15
284.02927	6
285.03781	1000
286.04355	206
288.03519	6
366.45612	9

NAME: Kaempferol-3-O-arabinoside
PRECURSORMZ: 417.0827203
PRECURSORTYPE: [M-H]-
INSTRUMENTTYPE: LC-ESI-QTOF
SMILES: OC1COC(OC2=C(OC3=CC(O)=CC(O)=C3C2=O)C2=CC=C(O)C=C2)C(O)C1O
INCHIKEY: RNVUDWOQYYWXBJ-UHFFFAOYNA-N
Ontology: Flavonoid-3-O-glycosides
COLLISIONENERGY: 30
FORMULA: C20H18O10
RETENTIONTIME: 4.4715
IONMODE: Negative
Comment: registered in RIKEN PlaSMA
Num Peaks: 41
93.03127	6
93.04088	7
125.01923	6
156.05643	6
162.99812	8
165.01369	6
166.07045	8
174.31786	9
185.25371	7
189.05106	6
196.05402	9
203.62047	5
211.03741	8
211.0761	8
213.05362	5
214.01604	7
214.02791	6
224.04771	7
227.03395	505
228.03639	48
228.04761	14
228.0591	8
228.25247	6
229.04654	37
239.02704	6
241.04477	6
255.02827	1000
255.8956	6
256.03018	215
257.0289	20
257.04462	28
258.05026	14
269.74774	6
284.0321	494
284.09518	6
285.03995	297
286.03268	21
286.04752	25
287.04105	12
299.06674	6
326.8645	7

NAME: Cyanidine-3-O-sambubioside
PRECURSORMZ: 579.13499521576
PRECURSORTYPE: [M-2H]-
INSTRUMENTTYPE: LC-ESI-QTOF
SMILES: OCC1OC(OC2=C([O+]=C3C=C(O)C=C(O)C3=C2)C2=CC(O)=C(O)C=C2)C(OC2OCC(O)C(O)C2O)C(O)C1O
INCHIKEY: ZPPQIOUITZSYAO-UHFFFAOYNA-O
Ontology: Anthocyanidin-3-O-glycosides
COLLISIONENERGY: 50
FORMULA: C26H29O15
RETENTIONTIME: 2.87875
IONMODE: Negative
Comment: registered in RIKEN PlaSMA
Num Peaks: 61
108.01656	38
110.03227	38
133.03003	24
146.03661	51
147.00487	231
148.00871	29
148.01434	95
149.02213	105
156.05217	42
157.02676	24
168.06122	24
170.03792	78
172.01613	22
172.0563	41
176.00681	45
183.0425	61
187.03889	66
188.04785	55
195.04649	35
195.05754	62
198.02577	25
199.02992	35
199.05588	27
200.01959	25
200.0448	75
211.03737	170
212.04044	26
212.0499	33
213.04895	21
214.02138	44
214.32002	25
215.04634	28
217.0475	28
222.02388	39
225.04134	33
227.0193	21
227.03365	154
228.02892	52
228.04819	55
239.03033	126
240.035	31
240.04555	101
240.47908	39
244.03241	25
253.05377	27
255.02945	1000
256.03644	316
257.03146	44
266.00473	28
267.03549	34
268.05759	34
283.01544	45
283.02322	111
283.03391	94
284.01712	24
284.03262	113
284.04614	24
284.09995	28
285.01907	24
285.03241	54
311.06906	29

NAME: Kaempferol-3-O-glucuronoside
PRECURSORMZ: 461.0725496
PRECURSORTYPE: [M-H]-
INSTRUMENTTYPE: LC-ESI-QTOF
SMILES: OC1C(O)C(OC2=C(OC3=CC(O)=CC(O)=C3C2=O)C2=CC=C(O)C=C2)OC(C1O)C(O)=O
INCHIKEY: FNTJVYCFNVUBOL-UHFFFAOYNA-N
Ontology: Flavonoid-3-O-glucuronides
COLLISIONENERGY: 50
FORMULA: C21H18O12
RETENTIONTIME: 4.343433
IONMODE: Negative
Comment: registered in RIKEN PlaSMA
Num Peaks: 90
54.5984	80
83.01466	108
88.00649	76
89.04092	73
89.44593	64
93.0312	169
93.03512	73
94.03839	89
95.03822	127
99.01144	96
103.00012	64
103.05939	153
104.02985	131
108.01437	80
108.0218	121
109.0276	268
110.02591	70
117.03419	452
118.04273	175
121.02542	70
127.05072	86
130.0377	67
130.04527	197
131.04132	61
131.04663	86
133.02655	64
135.00528	61
136.01625	64
138.04576	92
143.04337	331
143.0524	277
145.02888	92
147.04446	102
154.04733	108
156.05693	210
157.02827	64
157.05917	70
157.06949	331
157.81743	105
158.03622	80
159.04274	873
159.07156	92
161.03218	67
165.01785	83
167.04677	169
167.05281	115
168.05618	182
169.02274	80
169.05759	223
170.07039	57
171.04703	264
172.05917	64
173.01849	76
174.02074	111
179.81924	83
183.04646	449
184.05083	127
185.01901	67
185.05595	191
185.06461	226
186.03607	137
186.06532	73
187.0341	287
188.05037	70
201.0522	67
201.05943	89
203.77089	111
210.04297	67
211.03107	159
211.04318	325
211.0528	102
212.04411	185
213.01624	172
213.0509	242
214.02841	80
215.02841	57
223.03635	67
227.02776	197
227.03792	481
229.05069	1000
239.02777	80
239.03702	64
240.02922	102
240.04198	357
255.02069	76
255.0403	115
256.03714	201
285.03271	296
286.05252	105
294.62289	105

NAME: Kaempferol-3-O-arabinoside
PRECURSORMZ: 417.0827203
PRECURSORTYPE: [M-H]-
INSTRUMENTTYPE: LC-ESI-QTOF
SMILES: OC1COC(OC2=C(OC3=CC(O)=CC(O)=C3C2=O)C2=CC=C(O)C=C2)C(O)C1O
INCHIKEY: RNVUDWOQYYWXBJ-UHFFFAOYNA-N
Ontology: Flavonoid-3-O-glycosides
COLLISIONENERGY: 50
FORMULA: C20H18O10
RETENTIONTIME: 4.4715
IONMODE: Negative
Comment: registered in RIKEN PlaSMA
Num Peaks: 61
83.01221	9
93.03002	10
93.0342	8
93.0538	8
117.03123	32
128.06172	12
129.03503	20
132.01999	11
136.0148	25
143.04468	10
143.05202	19
144.04366	10
144.05727	10
145.02379	8
145.06551	8
154.04608	8
155.04951	18
161.01906	9
163.00237	13
167.04854	11
171.04494	40
172.0407	9
175.02472	11
182.03625	104
183.04282	274
184.05022	72
185.02031	88
185.07141	9
186.03061	9
187.02504	9
187.03609	10
188.77277	8
197.04959	8
199.03221	8
199.03896	9
200.04071	7
201.05869	11
210.02467	11
210.03586	16
211.04005	89
212.02843	10
212.04126	15
213.0188	14
213.026	14
214.02339	8
225.57472	10
226.93196	8
227.03479	1000
228.03612	85
228.04614	23
229.03816	13
237.02055	8
250.58652	8
255.0294	387
256.0314	86
257.03522	8
282.99817	13
283.03857	11
285.03519	12
303.63141	8
417.09406	8

NAME: Cyanidin-3-O-sambubioside-5-O-glucoside
PRECURSORMZ: 741.18781861576
PRECURSORTYPE: [M-2H]-
INSTRUMENTTYPE: LC-ESI-QTOF
SMILES: OCC1OC(OC2=CC(O)=CC3=[O+]C(=C(OC4OC(CO)C(O)C(O)C4OC4OCC(O)C(O)C4O)C=C23)C2=CC(O)=C(O)C=C2)C(O)C(O)C1O
INCHIKEY: OLBLWNPOURNBCY-UHFFFAOYNA-O
Ontology: Anthocyanidin-5-O-glycosides
COLLISIONENERGY: 10
FORMULA: C32H39O20
RETENTIONTIME: 2.486433
IONMODE: Negative
Comment: registered in RIKEN PlaSMA
Num Peaks: 23
227.03548	31
266.03131	65
267.91016	55
283.02457	175
284.02036	170
284.03232	175
284.04559	33
298.03619	28
311.0506	57
338.04922	36
340.05756	31
348.21249	31
446.07834	309
447.09537	68
447.13104	33
535.15735	55
579.14081	1000
579.18079	36
580.12579	254
581.11945	36
581.14044	38
741.19421	318
741.23438	38

NAME: Cyanidin-3-O-alpha-arabinoside
PRECURSORMZ: 417.08217171576
PRECURSORTYPE: [M-2H]-
INSTRUMENTTYPE: LC-ESI-QTOF
SMILES: OC1COC(OC2=C([O+]=C3C=C(O)C=C(O)C3=C2)C2=CC(O)=C(O)C=C2)C(O)C1O
INCHIKEY: KUCVMQMKRICXJC-UHFFFAOYNA-O
Ontology: Flavonoid-3-O-glycosides
COLLISIONENERGY: 10
FORMULA: C20H19O10
RETENTIONTIME: 3.026517
IONMODE: Negative
Comment: registered in RIKEN PlaSMA
Num Peaks: 36
94.77128	39
108.01965	39
125.02702	24
143.05257	34
147.03865	27
171.40884	24
182.03844	30
184.04501	25
186.04826	21
196.0471	39
200.0704	44
211.03537	28
211.04463	24
212.03757	33
212.05435	36
213.04044	28
227.02846	55
239.0298	24
240.03749	21
255.019	27
255.03333	24
256.02542	28
256.03735	68
256.23367	26
257.04742	25
271.05872	23
283.03159	24
284.03262	1000
285.03671	299
286.03467	51
287.03513	30
288.30884	21
297.04071	31
381.38837	43
417.07852	93
417.10916	31

NAME: Peonidin-3-O-beta-galactoside
PRECURSORMZ: 461.10893504783
PRECURSORTYPE: [M-H]-
INSTRUMENTTYPE: LC-ESI-QTOF
SMILES: COC1=C(O)C=CC(=C1)C1=C(OC2OC(CO)C(O)C(O)C2O)C=C2C([O-])=CC(O)=CC2=[O+]1
INCHIKEY: ZZWPMFROUHHAKY-UHFFFAOYNA-N
Ontology: Anthocyanidin-3-O-glycosides
COLLISIONENERGY: 10
FORMULA: C22H22O11
RETENTIONTIME: 3.125733
IONMODE: Negative
Comment: registered in RIKEN PlaSMA
Num Peaks: 55
147.01181	68
148.02187	22
162.0275	18
174.03905	21
185.02122	19
188.04468	16
190.99112	27
194.08649	16
203.0343	17
211.03929	72
227.02664	21
227.04068	26
228.04401	18
229.04881	26
239.0312	86
240.03809	67
240.0504	17
242.05098	21
243.06764	22
253.01189	31
255.02708	102
255.06099	20
256.03409	73
257.04379	26
268.04547	27
271.08157	21
272.07394	21
273.0723	17
281.08548	19
282.0126	31
283.02707	412
284.01709	16
284.03271	153
285.02518	18
285.04257	18
286.03439	21
286.05359	30
298.04684	1000
298.98853	22
299.02692	40
299.05484	848
300.05963	127
301.06699	39
301.07919	38
311.05392	19
313.06631	28
337.06631	20
341.07285	76
342.06186	29
353.06116	18
371.0752	16
383.06375	37
398.86545	16
425.09061	21
461.11066	662

NAME: isorhamnetin-3-O-galactoside-6''-rhamnoside
PRECURSORMZ: 623.16175854783
PRECURSORTYPE: [M-H]-
INSTRUMENTTYPE: LC-ESI-QTOF
SMILES: COC1=C(O)C=CC(=C1)C1=C(OC2OC(COC3OC(C)C(O)C(O)C3O)C(O)C(O)C2O)C(=O)C2=C(O)C=C(O)C=C2O1
INCHIKEY: UIDGLYUNOUKLBM-UHFFFAOYNA-N
Ontology: Flavonoid-3-O-glycosides
COLLISIONENERGY: 10
FORMULA: C28H32O16
RETENTIONTIME: 4.16575
IONMODE: Negative
Comment: registered in RIKEN PlaSMA
Num Peaks: 22
151.00024	10
240.29974	5
255.03476	5
258.04593	6
270.01965	7
271.02063	43
285.04272	13
287.04883	8
299.00961	50
299.01785	154
300.02533	93
301.02399	6
313.03543	12
314.04303	368
315.0481	332
316.05273	75
317.05481	8
357.05396	22
357.96857	5
387.064	9
521.29388	7
623.16168	1000

NAME: 2'-Hydroxyflavanone
PRECURSORMZ: 239.07136774783
PRECURSORTYPE: [M-H]-
INSTRUMENTTYPE: LC-ESI-QTOF
SMILES: OC1=CC=CC=C1C1CC(=O)C2=CC=CC=C2O1
INCHIKEY: KZKWCKFDCPVDFJ-UHFFFAOYNA-N
Ontology: Flavanones
COLLISIONENERGY: 10
FORMULA: C15H12O3
RETENTIONTIME: 7.4525
IONMODE: Negative
Comment: registered in RIKEN PlaSMA
Num Peaks: 10
93.03279	138
94.03951	11
117.033	64
119.04868	1000
120.0527	72
121.02866	13
133.02811	45
145.02768	20
195.07695	7
239.07059	227

NAME: Cyanidin-3-O-sambubioside-5-O-glucoside
PRECURSORMZ: 741.18781861576
PRECURSORTYPE: [M-2H]-
INSTRUMENTTYPE: LC-ESI-QTOF
SMILES: OCC1OC(OC2=CC(O)=CC3=[O+]C(=C(OC4OC(CO)C(O)C(O)C4OC4OCC(O)C(O)C4O)C=C23)C2=CC(O)=C(O)C=C2)C(O)C(O)C1O
INCHIKEY: OLBLWNPOURNBCY-UHFFFAOYNA-O
Ontology: Anthocyanidin-5-O-glycosides
COLLISIONENERGY: 10
FORMULA: C32H39O20
RETENTIONTIME: 2.486433
IONMODE: Negative
Comment: registered in RIKEN PlaSMA
Num Peaks: 8
345.97736	30
579.13397	671
580.13348	172
581.13397	66
581.15381	25
652.16486	39
673.69366	36
741.19763	1000

NAME: Cyanidin-3-O-alpha-arabinoside
PRECURSORMZ: 417.08217171576
PRECURSORTYPE: [M-2H]-
INSTRUMENTTYPE: LC-ESI-QTOF
SMILES: OC1COC(OC2=C([O+]=C3C=C(O)C=C(O)C3=C2)C2=CC(O)=C(O)C=C2)C(O)C1O
INCHIKEY: KUCVMQMKRICXJC-UHFFFAOYNA-O
Ontology: Flavonoid-3-O-glycosides
COLLISIONENERGY: 10
FORMULA: C20H19O10
RETENTIONTIME: 3.026517
IONMODE: Negative
Comment: registered in RIKEN PlaSMA
Num Peaks: 10
125.02427	61
284.02991	595
285.0119	18
285.03833	304
286.03589	75
286.04733	57
327.05359	63
328.05386	49
357.05203	19
417.07706	1000

NAME: Peonidin-3-O-beta-galactoside
PRECURSORMZ: 461.10893504783
PRECURSORTYPE: [M-H]-
INSTRUMENTTYPE: LC-ESI-QTOF
SMILES: COC1=C(O)C=CC(=C1)C1=C(OC2OC(CO)C(O)C(O)C2O)C=C2C([O-])=CC(O)=CC2=[O+]1
INCHIKEY: ZZWPMFROUHHAKY-UHFFFAOYNA-N
Ontology: Anthocyanidin-3-O-glycosides
COLLISIONENERGY: 10
FORMULA: C22H22O11
RETENTIONTIME: 3.125733
IONMODE: Negative
Comment: registered in RIKEN PlaSMA
Num Peaks: 35
111.00938	10
115.07061	6
129.01912	17
129.02528	10
146.79221	10
204.03375	8
240.04251	8
240.08142	8
242.05449	8
292.30325	10
297.04361	8
298.04514	137
299.05676	305
300.05237	35
300.06754	35
301.05872	25
301.07031	28
302.08124	7
313.0665	20
314.07443	8
325.06454	7
341.0802	14
342.05887	7
349.3837	7
371.07419	21
372.07858	11
380.32565	6
411.86981	6
413.11185	7
425.08679	10
429.07477	12
443.11163	7
453.27872	10
461.1113	1000
461.14359	12

NAME: 2'-Hydroxyflavanone
PRECURSORMZ: 239.07136774783
PRECURSORTYPE: [M-H]-
INSTRUMENTTYPE: LC-ESI-QTOF
SMILES: OC1=CC=CC=C1C1CC(=O)C2=CC=CC=C2O1
INCHIKEY: KZKWCKFDCPVDFJ-UHFFFAOYNA-N
Ontology: Flavanones
COLLISIONENERGY: 10
FORMULA: C15H12O3
RETENTIONTIME: 7.4525
IONMODE: Negative
Comment: registered in RIKEN PlaSMA
Num Peaks: 14
93.033	207
94.03649	17
117.02821	6
117.03269	12
119.04851	650
120.05209	51
121.02601	6
133.02794	53
134.0341	12
145.02057	8
145.02916	28
146.03998	5
195.08066	49
239.06967	1000

NAME: Cyanidin-3-O-sambubioside-5-O-glucoside
PRECURSORMZ: 741.18781861576
PRECURSORTYPE: [M-2H]-
INSTRUMENTTYPE: LC-ESI-QTOF
SMILES: OCC1OC(OC2=CC(O)=CC3=[O+]C(=C(OC4OC(CO)C(O)C(O)C4OC4OCC(O)C(O)C4O)C=C23)C2=CC(O)=C(O)C=C2)C(O)C(O)C1O
INCHIKEY: OLBLWNPOURNBCY-UHFFFAOYNA-O
Ontology: Anthocyanidin-5-O-glycosides
COLLISIONENERGY: 30
FORMULA: C32H39O20
RETENTIONTIME: 2.486433
IONMODE: Negative
Comment: registered in RIKEN PlaSMA
Num Peaks: 29
281.0351	46
283.02359	162
284.02722	223
284.04776	121
285.04099	112
286.04309	94
308.76025	38
309.03412	135
309.04791	60
310.04547	96
326.03458	50
327.04669	40
339.04126	110
339.05533	81
340.05612	104
351.04016	42
351.05597	119
351.07483	52
390.51068	54
446.05991	60
446.0889	1000
447.08725	135
447.1011	65
448.09433	56
525.3858	50
579.11536	144
579.13361	519
580.11884	71
580.17279	50

NAME: Cyanidin-3-O-alpha-arabinoside
PRECURSORMZ: 417.08217171576
PRECURSORTYPE: [M-2H]-
INSTRUMENTTYPE: LC-ESI-QTOF
SMILES: OC1COC(OC2=C([O+]=C3C=C(O)C=C(O)C3=C2)C2=CC(O)=C(O)C=C2)C(O)C1O
INCHIKEY: KUCVMQMKRICXJC-UHFFFAOYNA-O
Ontology: Flavonoid-3-O-glycosides
COLLISIONENERGY: 30
FORMULA: C20H19O10
RETENTIONTIME: 3.026517
IONMODE: Negative
Comment: registered in RIKEN PlaSMA
Num Peaks: 33
119.01019	38
125.01858	48
147.00377	74
147.01369	38
148.00859	99
148.01599	51
148.04753	44
153.06372	63
161.05151	38
169.0497	61
172.05237	99
173.02264	48
187.03166	46
188.04651	40
188.05573	46
199.04381	91
212.0506	88
213.02335	34
213.04904	48
217.04904	84
223.03688	86
228.047	38
239.03735	63
240.04616	57
241.04941	51
255.02904	242
256.03494	82
266.01422	50
283.01682	51
283.02628	124
283.06595	55
284.03073	1000
285.03204	305

NAME: Peonidin-3-O-beta-galactoside
PRECURSORMZ: 461.10893504783
PRECURSORTYPE: [M-H]-
INSTRUMENTTYPE: LC-ESI-QTOF
SMILES: COC1=C(O)C=CC(=C1)C1=C(OC2OC(CO)C(O)C(O)C2O)C=C2C([O-])=CC(O)=CC2=[O+]1
INCHIKEY: ZZWPMFROUHHAKY-UHFFFAOYNA-N
Ontology: Anthocyanidin-3-O-glycosides
COLLISIONENERGY: 30
FORMULA: C22H22O11
RETENTIONTIME: 3.125733
IONMODE: Negative
Comment: registered in RIKEN PlaSMA
Num Peaks: 51
124.01594	26
133.02888	21
147.00507	41
149.02525	36
150.02022	26
150.02782	15
153.24379	16
175.00403	22
188.04672	18
191.02766	39
198.02661	15
211.04057	79
212.04456	35
216.71985	20
218.10605	15
225.04553	15
227.02284	16
227.03313	44
227.06055	14
239.03113	137
240.00818	26
240.03003	41
240.04123	70
241.0468	16
242.02444	38
242.05809	19
243.0578	25
243.06721	16
255.02217	35
255.03677	95
256.03192	19
256.0452	54
256.06937	23
257.03693	27
257.04953	18
259.0405	14
268.03818	14
270.05807	40
280.03983	18
283.02411	1000
284.02835	278
285.02484	44
285.03879	76
286.03268	19
298.04526	486
299.04535	67
299.05609	159
300.04788	39
300.05817	80
310.06207	14
313.06491	14

NAME: isorhamnetin-3-O-galactoside-6''-rhamnoside
PRECURSORMZ: 623.16175854783
PRECURSORTYPE: [M-H]-
INSTRUMENTTYPE: LC-ESI-QTOF
SMILES: COC1=C(O)C=CC(=C1)C1=C(OC2OC(COC3OC(C)C(O)C(O)C3O)C(O)C(O)C2O)C(=O)C2=C(O)C=C(O)C=C2O1
INCHIKEY: UIDGLYUNOUKLBM-UHFFFAOYNA-N
Ontology: Flavonoid-3-O-glycosides
COLLISIONENERGY: 30
FORMULA: C28H32O16
RETENTIONTIME: 4.16575
IONMODE: Negative
Comment: registered in RIKEN PlaSMA
Num Peaks: 35
101.02217	7
121.70464	7
150.99696	20
151.00194	9
152.00912	8
169.01837	6
227.03212	6
243.02451	17
267.0687	6
271.01746	32
271.02789	24
271.57443	6
285.03336	19
285.04675	14
286.04044	22
286.05893	6
287.05295	10
287.0668	7
294.07019	8
299.01599	204
300.0235	145
301.03104	25
314.04156	1000
314.50778	11
315.04831	871
316.04691	65
316.05951	96
317.06305	20
329.05994	8
342.03745	6
357.05548	27
401.27411	5
532.95703	7
623.15411	153
623.18646	29

NAME: 2'-Hydroxyflavanone
PRECURSORMZ: 239.07136774783
PRECURSORTYPE: [M-H]-
INSTRUMENTTYPE: LC-ESI-QTOF
SMILES: OC1=CC=CC=C1C1CC(=O)C2=CC=CC=C2O1
INCHIKEY: KZKWCKFDCPVDFJ-UHFFFAOYNA-N
Ontology: Flavanones
COLLISIONENERGY: 30
FORMULA: C15H12O3
RETENTIONTIME: 7.4525
IONMODE: Negative
Comment: registered in RIKEN PlaSMA
Num Peaks: 11
91.05293	8
93.03213	70
105.03552	5
106.03713	6
117.02911	23
117.03734	12
119.0487	1000
120.05262	99
121.05123	6
133.02312	9
133.0311	7

NAME: Cyanidin-3-O-sambubioside-5-O-glucoside
PRECURSORMZ: 741.18781861576
PRECURSORTYPE: [M-2H]-
INSTRUMENTTYPE: LC-ESI-QTOF
SMILES: OCC1OC(OC2=CC(O)=CC3=[O+]C(=C(OC4OC(CO)C(O)C(O)C4OC4OCC(O)C(O)C4O)C=C23)C2=CC(O)=C(O)C=C2)C(O)C(O)C1O
INCHIKEY: OLBLWNPOURNBCY-UHFFFAOYNA-O
Ontology: Anthocyanidin-5-O-glycosides
COLLISIONENERGY: 50
FORMULA: C32H39O20
RETENTIONTIME: 2.486433
IONMODE: Negative
Comment: registered in RIKEN PlaSMA
Num Peaks: 27
125.0252	25
137.13968	30
211.04483	23
214.03198	27
218.00665	44
227.02881	72
227.03662	21
228.04372	85
229.01933	37
240.04076	42
240.50909	25
255.02022	61
255.0368	68
256.03165	26
271.02191	37
283.02362	1000
284.02808	248
284.03702	128
285.0397	59
286.03201	25
286.04953	44
309.04007	113
310.04849	26
312.05969	23
327.03223	39
446.07956	47
446.09714	27

NAME: Cyanidin-3-O-alpha-arabinoside
PRECURSORMZ: 417.08217171576
PRECURSORTYPE: [M-2H]-
INSTRUMENTTYPE: LC-ESI-QTOF
SMILES: OC1COC(OC2=C([O+]=C3C=C(O)C=C(O)C3=C2)C2=CC(O)=C(O)C=C2)C(O)C1O
INCHIKEY: KUCVMQMKRICXJC-UHFFFAOYNA-O
Ontology: Flavonoid-3-O-glycosides
COLLISIONENERGY: 50
FORMULA: C20H19O10
RETENTIONTIME: 3.026517
IONMODE: Negative
Comment: registered in RIKEN PlaSMA
Num Peaks: 26
104.02499	141
114.0429	200
119.00877	148
119.01409	148
136.01414	170
169.02518	170
170.02884	156
171.03751	230
172.04909	193
172.06616	170
174.03186	133
183.04562	178
184.05328	296
195.0446	215
210.03157	156
211.03998	1000
212.04224	281
213.01035	281
227.02803	400
228.04561	178
239.0247	133
239.03986	133
240.03249	230
254.0186	222
255.03731	156
283.02283	185

NAME: Peonidin-3-O-beta-galactoside
PRECURSORMZ: 461.10893504783
PRECURSORTYPE: [M-H]-
INSTRUMENTTYPE: LC-ESI-QTOF
SMILES: COC1=C(O)C=CC(=C1)C1=C(OC2OC(CO)C(O)C(O)C2O)C=C2C([O-])=CC(O)=CC2=[O+]1
INCHIKEY: ZZWPMFROUHHAKY-UHFFFAOYNA-N
Ontology: Anthocyanidin-3-O-glycosides
COLLISIONENERGY: 50
FORMULA: C22H22O11
RETENTIONTIME: 3.125733
IONMODE: Negative
Comment: registered in RIKEN PlaSMA
Num Peaks: 52
115.05426	31
119.00791	41
120.01777	78
122.03126	66
139.04376	43
139.056	43
139.06285	31
143.05112	80
147.00049	39
148.00861	39
154.0401	104
155.04955	148
167.04475	155
171.04166	245
173.07065	32
182.03706	99
182.04401	36
183.04109	255
184.04306	36
185.01993	83
186.02887	39
188.04575	44
196.05602	37
197.06126	34
199.03276	37
199.04559	162
209.02579	31
210.01677	44
211.0309	349
211.04619	139
212.03931	122
212.41605	37
213.01076	66
217.04286	48
223.02707	46
226.02232	78
227.03394	1000
228.04059	250
231.05779	46
238.01646	85
239.0399	226
255.02347	88
255.03441	259
256.03696	80
258.04449	56
266.01123	34
267.02423	31
282.03168	49
283.0152	34
283.02444	46
284.03467	75
299.05881	100

NAME: isorhamnetin-3-O-galactoside-6''-rhamnoside
PRECURSORMZ: 623.16175854783
PRECURSORTYPE: [M-H]-
INSTRUMENTTYPE: LC-ESI-QTOF
SMILES: COC1=C(O)C=CC(=C1)C1=C(OC2OC(COC3OC(C)C(O)C(O)C3O)C(O)C(O)C2O)C(=O)C2=C(O)C=C(O)C=C2O1
INCHIKEY: UIDGLYUNOUKLBM-UHFFFAOYNA-N
Ontology: Flavonoid-3-O-glycosides
COLLISIONENERGY: 50
FORMULA: C28H32O16
RETENTIONTIME: 4.16575
IONMODE: Negative
Comment: registered in RIKEN PlaSMA
Num Peaks: 97
73.02645	9
107.01532	12
115.68291	6
121.02705	8
128.98726	6
135.01134	6
145.02864	7
148.01779	10
151.00432	63
152.00264	10
155.04498	13
155.05057	8
157.03372	7
161.01909	9
162.02934	9
164.00633	8
165.01265	7
167.0433	9
167.05022	8
171.04332	13
172.05914	15
175.0345	10
183.03893	16
184.05409	7
188.04889	10
190.36481	6
192.00459	6
199.03642	79
199.0453	25
200.05096	16
201.00948	5
201.04776	11
204.02946	12
207.28036	6
211.03191	8
211.04459	5
212.04289	15
215.02492	12
215.04013	18
216.03296	5
219.05341	6
224.34444	8
226.03378	16
227.03305	78
227.04791	11
228.03606	14
229.01292	7
230.01213	7
239.03195	8
241.01759	6
242.01045	7
242.02776	9
243.03056	345
243.07779	9
243.78546	6
244.02576	16
244.039	41
245.02786	7
253.04916	8
255.02321	85
255.0358	177
255.92609	10
256.02066	21
256.03519	25
257.03168	12
257.0451	66
259.06235	7
265.05331	7
270.00195	31
270.01718	73
271.02301	535
272.02924	148
272.46677	8
283.01746	10
284.02423	12
285.03351	37
285.0451	59
286.04474	38
286.06619	14
287.05597	35
288.29562	5
288.69138	7
297.04102	8
297.52933	5
297.99771	7
299.01889	1000
300.02484	462
301.02286	42
301.03329	56
302.04449	8
314.04062	87
314.05743	15
315.03375	23
315.05185	121
316.05673	20
500.43741	6
615.48297	6

NAME: 2'-Hydroxyflavanone
PRECURSORMZ: 239.07136774783
PRECURSORTYPE: [M-H]-
INSTRUMENTTYPE: LC-ESI-QTOF
SMILES: OC1=CC=CC=C1C1CC(=O)C2=CC=CC=C2O1
INCHIKEY: KZKWCKFDCPVDFJ-UHFFFAOYNA-N
Ontology: Flavanones
COLLISIONENERGY: 50
FORMULA: C15H12O3
RETENTIONTIME: 7.4525
IONMODE: Negative
Comment: registered in RIKEN PlaSMA
Num Peaks: 8
67.01408	37
92.02472	53
93.03443	127
117.02979	74
117.03528	39
119.04921	1000
120.05582	41
152.21112	92

NAME: Cyanidin-3-O-sambubioside-5-O-glucoside
PRECURSORMZ: 741.18781861576
PRECURSORTYPE: [M-2H]-
INSTRUMENTTYPE: LC-ESI-QTOF
SMILES: OCC1OC(OC2=CC(O)=CC3=[O+]C(=C(OC4OC(CO)C(O)C(O)C4OC4OCC(O)C(O)C4O)C=C23)C2=CC(O)=C(O)C=C2)C(O)C(O)C1O
INCHIKEY: OLBLWNPOURNBCY-UHFFFAOYNA-O
Ontology: Anthocyanidin-5-O-glycosides
COLLISIONENERGY: 10
FORMULA: C32H39O20
RETENTIONTIME: 2.486433
IONMODE: Negative
Comment: registered in RIKEN PlaSMA
Num Peaks: 25
187.31879	32
227.04329	29
283.02051	143
283.03165	30
284.0307	241
284.04327	97
285.03375	94
286.03867	81
319.05002	40
339.04431	84
351.05478	35
352.06485	62
357.53983	30
429.09061	60
432.09909	29
446.08182	246
447.07941	68
579.13239	1000
579.15393	190
580.13385	233
580.16937	76
581.14282	114
724.7655	33
741.17426	333
741.1994	268

NAME: Cyanidin-3-O-alpha-arabinoside
PRECURSORMZ: 417.08217171576
PRECURSORTYPE: [M-2H]-
INSTRUMENTTYPE: LC-ESI-QTOF
SMILES: OC1COC(OC2=C([O+]=C3C=C(O)C=C(O)C3=C2)C2=CC(O)=C(O)C=C2)C(O)C1O
INCHIKEY: KUCVMQMKRICXJC-UHFFFAOYNA-O
Ontology: Flavonoid-3-O-glycosides
COLLISIONENERGY: 10
FORMULA: C20H19O10
RETENTIONTIME: 3.026517
IONMODE: Negative
Comment: registered in RIKEN PlaSMA
Num Peaks: 18
133.02281	28
183.04501	23
189.02438	24
200.0378	32
200.19739	31
201.00992	31
211.04494	57
227.03052	24
239.03659	29
240.03178	24
255.02831	49
283.00769	27
283.07684	29
284.02982	1000
285.02832	106
285.04349	163
286.03781	109
417.07874	378

NAME: Peonidin-3-O-beta-galactoside
PRECURSORMZ: 461.10893504783
PRECURSORTYPE: [M-H]-
INSTRUMENTTYPE: LC-ESI-QTOF
SMILES: COC1=C(O)C=CC(=C1)C1=C(OC2OC(CO)C(O)C(O)C2O)C=C2C([O-])=CC(O)=CC2=[O+]1
INCHIKEY: ZZWPMFROUHHAKY-UHFFFAOYNA-N
Ontology: Anthocyanidin-3-O-glycosides
COLLISIONENERGY: 10
FORMULA: C22H22O11
RETENTIONTIME: 3.125733
IONMODE: Negative
Comment: registered in RIKEN PlaSMA
Num Peaks: 47
88.00433	17
119.01331	18
129.02541	29
147.0103	20
164.01122	17
183.03934	24
208.05176	17
209.02036	17
210.02811	20
211.03798	40
212.01015	19
212.04579	17
217.56398	17
227.0284	58
228.03693	16
239.03185	44
240.0372	46
243.06642	20
244.06305	21
255.02693	79
255.06207	16
256.03363	49
257.03818	20
257.05405	17
265.01657	17
274.74295	24
282.01736	32
283.02103	421
284.03012	69
285.02655	42
291.43118	25
297.04211	24
298.04581	1000
299.03812	60
299.05557	644
300.05133	92
300.06519	34
301.05579	46
301.07144	17
312.08148	24
313.06091	99
313.07455	37
314.07404	23
323.03537	31
341.06674	47
343.36475	17
461.10629	683

NAME: isorhamnetin-3-O-galactoside-6''-rhamnoside
PRECURSORMZ: 623.16175854783
PRECURSORTYPE: [M-H]-
INSTRUMENTTYPE: LC-ESI-QTOF
SMILES: COC1=C(O)C=CC(=C1)C1=C(OC2OC(COC3OC(C)C(O)C(O)C3O)C(O)C(O)C2O)C(=O)C2=C(O)C=C(O)C=C2O1
INCHIKEY: UIDGLYUNOUKLBM-UHFFFAOYNA-N
Ontology: Flavonoid-3-O-glycosides
COLLISIONENERGY: 10
FORMULA: C28H32O16
RETENTIONTIME: 4.16575
IONMODE: Negative
Comment: registered in RIKEN PlaSMA
Num Peaks: 21
151.00043	12
219.06059	6
243.02629	13
244.03293	7
257.04156	9
271.02167	49
271.05316	6
272.03094	15
285.04053	8
287.06027	10
299.01767	117
300.02365	70
301.02798	7
313.0296	6
313.07056	5
314.0408	290
315.04803	281
316.04825	37
316.06393	11
317.05008	7
623.16034	1000

NAME: 2'-Hydroxyflavanone
PRECURSORMZ: 239.07136774783
PRECURSORTYPE: [M-H]-
INSTRUMENTTYPE: LC-ESI-QTOF
SMILES: OC1=CC=CC=C1C1CC(=O)C2=CC=CC=C2O1
INCHIKEY: KZKWCKFDCPVDFJ-UHFFFAOYNA-N
Ontology: Flavanones
COLLISIONENERGY: 10
FORMULA: C15H12O3
RETENTIONTIME: 7.4525
IONMODE: Negative
Comment: registered in RIKEN PlaSMA
Num Peaks: 11
93.03255	170
117.03404	28
119.04836	1000
120.05095	110
121.03057	8
133.02626	43
145.02592	20
195.07675	8
195.08484	6
221.05803	6
239.0679	227

NAME: Cyanidin-3-O-sambubioside-5-O-glucoside
PRECURSORMZ: 741.18781861576
PRECURSORTYPE: [M-2H]-
INSTRUMENTTYPE: LC-ESI-QTOF
SMILES: OCC1OC(OC2=CC(O)=CC3=[O+]C(=C(OC4OC(CO)C(O)C(O)C4OC4OCC(O)C(O)C4O)C=C23)C2=CC(O)=C(O)C=C2)C(O)C(O)C1O
INCHIKEY: OLBLWNPOURNBCY-UHFFFAOYNA-O
Ontology: Anthocyanidin-5-O-glycosides
COLLISIONENERGY: 10
FORMULA: C32H39O20
RETENTIONTIME: 2.486433
IONMODE: Negative
Comment: registered in RIKEN PlaSMA
Num Peaks: 9
471.09283	20
579.12805	635
579.16162	68
580.13458	223
580.15979	58
581.15106	20
585.84839	21
741.18964	1000
741.23682	55

NAME: Cyanidin-3-O-alpha-arabinoside
PRECURSORMZ: 417.08217171576
PRECURSORTYPE: [M-2H]-
INSTRUMENTTYPE: LC-ESI-QTOF
SMILES: OC1COC(OC2=C([O+]=C3C=C(O)C=C(O)C3=C2)C2=CC(O)=C(O)C=C2)C(O)C1O
INCHIKEY: KUCVMQMKRICXJC-UHFFFAOYNA-O
Ontology: Flavonoid-3-O-glycosides
COLLISIONENERGY: 10
FORMULA: C20H19O10
RETENTIONTIME: 3.026517
IONMODE: Negative
Comment: registered in RIKEN PlaSMA
Num Peaks: 8
284.03067	158
284.04739	21
285.03772	200
297.04135	28
307.03168	21
399.0524	24
417.08017	1000
417.10889	22

NAME: Peonidin-3-O-beta-galactoside
PRECURSORMZ: 461.10893504783
PRECURSORTYPE: [M-H]-
INSTRUMENTTYPE: LC-ESI-QTOF
SMILES: COC1=C(O)C=CC(=C1)C1=C(OC2OC(CO)C(O)C(O)C2O)C=C2C([O-])=CC(O)=CC2=[O+]1
INCHIKEY: ZZWPMFROUHHAKY-UHFFFAOYNA-N
Ontology: Anthocyanidin-3-O-glycosides
COLLISIONENERGY: 10
FORMULA: C22H22O11
RETENTIONTIME: 3.125733
IONMODE: Negative
Comment: registered in RIKEN PlaSMA
Num Peaks: 25
129.01828	11
159.03902	8
224.80756	7
249.06078	7
249.35202	16
256.08243	8
295.39688	8
297.04153	9
298.01614	9
298.0448	229
299.05319	243
299.87799	10
300.05887	75
300.07568	12
301.06842	35
301.08542	32
311.04132	7
313.06903	19
313.08051	10
316.14676	8
341.07089	7
353.04611	11
383.08176	14
416.01163	9
461.10828	1000

NAME: isorhamnetin-3-O-galactoside-6''-rhamnoside
PRECURSORMZ: 623.16175854783
PRECURSORTYPE: [M-H]-
INSTRUMENTTYPE: LC-ESI-QTOF
SMILES: COC1=C(O)C=CC(=C1)C1=C(OC2OC(COC3OC(C)C(O)C(O)C3O)C(O)C(O)C2O)C(=O)C2=C(O)C=C(O)C=C2O1
INCHIKEY: UIDGLYUNOUKLBM-UHFFFAOYNA-N
Ontology: Flavonoid-3-O-glycosides
COLLISIONENERGY: 10
FORMULA: C28H32O16
RETENTIONTIME: 4.16575
IONMODE: Negative
Comment: registered in RIKEN PlaSMA
Num Peaks: 3
315.03888	9
315.0546	10
623.16168	1000

NAME: 2'-Hydroxyflavanone
PRECURSORMZ: 239.07136774783
PRECURSORTYPE: [M-H]-
INSTRUMENTTYPE: LC-ESI-QTOF
SMILES: OC1=CC=CC=C1C1CC(=O)C2=CC=CC=C2O1
INCHIKEY: KZKWCKFDCPVDFJ-UHFFFAOYNA-N
Ontology: Flavanones
COLLISIONENERGY: 10
FORMULA: C15H12O3
RETENTIONTIME: 7.4525
IONMODE: Negative
Comment: registered in RIKEN PlaSMA
Num Peaks: 13
93.03362	203
94.03526	16
117.03093	21
119.04874	621
120.05195	70
121.02554	6
133.02655	47
145.02809	38
180.05586	8
195.07225	16
195.08131	31
196.08565	7
239.07063	1000

NAME: Cyanidin-3-O-sambubioside-5-O-glucoside
PRECURSORMZ: 741.18781861576
PRECURSORTYPE: [M-2H]-
INSTRUMENTTYPE: LC-ESI-QTOF
SMILES: OCC1OC(OC2=CC(O)=CC3=[O+]C(=C(OC4OC(CO)C(O)C(O)C4OC4OCC(O)C(O)C4O)C=C23)C2=CC(O)=C(O)C=C2)C(O)C(O)C1O
INCHIKEY: OLBLWNPOURNBCY-UHFFFAOYNA-O
Ontology: Anthocyanidin-5-O-glycosides
COLLISIONENERGY: 30
FORMULA: C32H39O20
RETENTIONTIME: 2.486433
IONMODE: Negative
Comment: registered in RIKEN PlaSMA
Num Peaks: 29
179.0374	43
271.91992	57
283.02335	38
283.03708	43
284.02859	433
285.03448	90
285.04959	45
287.06061	49
309.03262	104
310.0495	35
339.05341	117
340.0575	33
340.07321	45
340.13657	49
350.04248	64
352.04788	61
383.05661	49
446.06531	223
446.08682	1000
447.08246	167
461.11432	57
578.52899	35
579.10052	35
579.12549	115
579.15344	122
580.11304	31
580.13245	31
580.16162	37
741.21021	31

NAME: Cyanidin-3-O-alpha-arabinoside
PRECURSORMZ: 417.08217171576
PRECURSORTYPE: [M-2H]-
INSTRUMENTTYPE: LC-ESI-QTOF
SMILES: OC1COC(OC2=C([O+]=C3C=C(O)C=C(O)C3=C2)C2=CC(O)=C(O)C=C2)C(O)C1O
INCHIKEY: KUCVMQMKRICXJC-UHFFFAOYNA-O
Ontology: Flavonoid-3-O-glycosides
COLLISIONENERGY: 30
FORMULA: C20H19O10
RETENTIONTIME: 3.026517
IONMODE: Negative
Comment: registered in RIKEN PlaSMA
Num Peaks: 23
125.02419	65
147.01393	87
175.00514	35
175.04074	49
177.01106	59
188.04297	49
189.06099	104
200.04318	65
212.04655	63
213.04858	87
225.01556	37
238.02303	51
240.03714	39
240.05951	61
255.03897	281
256.03976	108
257.0394	37
283.01334	142
283.03384	39
284.02875	1000
285.02298	132
285.03604	303
285.04599	85

NAME: Peonidin-3-O-beta-galactoside
PRECURSORMZ: 461.10893504783
PRECURSORTYPE: [M-H]-
INSTRUMENTTYPE: LC-ESI-QTOF
SMILES: COC1=C(O)C=CC(=C1)C1=C(OC2OC(CO)C(O)C(O)C2O)C=C2C([O-])=CC(O)=CC2=[O+]1
INCHIKEY: ZZWPMFROUHHAKY-UHFFFAOYNA-N
Ontology: Anthocyanidin-3-O-glycosides
COLLISIONENERGY: 30
FORMULA: C22H22O11
RETENTIONTIME: 3.125733
IONMODE: Negative
Comment: registered in RIKEN PlaSMA
Num Peaks: 49
115.24103	16
135.06708	19
140.74843	14
147.00644	62
151.01059	23
167.14136	18
184.0473	40
191.03391	16
195.04582	14
211.03777	62
212.04506	28
213.02351	24
216.03387	19
223.05341	15
223.80354	21
225.04608	19
227.02664	20
227.03543	37
228.04042	38
230.04854	28
239.01982	22
239.03465	108
240.03513	84
240.04694	104
241.02922	14
241.04764	26
242.04228	16
242.05713	17
242.06911	23
254.06308	18
255.03145	227
255.05666	28
256.03461	182
256.6449	22
257.03647	26
258.04221	22
271.05792	16
283.02335	1000
284.00421	14
284.02795	318
285.04059	36
285.55145	16
286.02673	22
298.03473	158
298.04645	702
298.07288	26
299.05362	210
300.0538	42
307.72672	18

NAME: isorhamnetin-3-O-galactoside-6''-rhamnoside
PRECURSORMZ: 623.16175854783
PRECURSORTYPE: [M-H]-
INSTRUMENTTYPE: LC-ESI-QTOF
SMILES: COC1=C(O)C=CC(=C1)C1=C(OC2OC(COC3OC(C)C(O)C(O)C3O)C(O)C(O)C2O)C(=O)C2=C(O)C=C(O)C=C2O1
INCHIKEY: UIDGLYUNOUKLBM-UHFFFAOYNA-N
Ontology: Flavonoid-3-O-glycosides
COLLISIONENERGY: 30
FORMULA: C28H32O16
RETENTIONTIME: 4.16575
IONMODE: Negative
Comment: registered in RIKEN PlaSMA
Num Peaks: 38
107.01189	8
125.02061	9
151.00182	11
151.00844	10
178.99448	10
181.01022	7
192.00156	6
205.04996	8
213.05904	6
243.0313	17
247.05409	7
256.02994	8
256.04141	11
271.01025	6
271.02499	49
272.02698	7
285.02893	10
285.03879	8
286.0433	30
287.05167	6
299.02078	209
300.02454	110
301.02084	18
313.03271	6
314.04239	1000
315.04977	937
316.04883	165
317.05362	40
324.03226	15
329.06317	9
329.07809	8
357.06076	12
358.06061	8
369.07361	6
477.10992	9
591.14154	7
623.16138	120
623.19519	19

NAME: 2'-Hydroxyflavanone
PRECURSORMZ: 239.07136774783
PRECURSORTYPE: [M-H]-
INSTRUMENTTYPE: LC-ESI-QTOF
SMILES: OC1=CC=CC=C1C1CC(=O)C2=CC=CC=C2O1
INCHIKEY: KZKWCKFDCPVDFJ-UHFFFAOYNA-N
Ontology: Flavanones
COLLISIONENERGY: 30
FORMULA: C15H12O3
RETENTIONTIME: 7.4525
IONMODE: Negative
Comment: registered in RIKEN PlaSMA
Num Peaks: 9
91.05474	6
93.03369	57
94.03788	6
117.03339	62
118.03847	7
119.04895	1000
120.0535	90
133.02666	23
239.07057	7

NAME: Cyanidin-3-O-sambubioside-5-O-glucoside
PRECURSORMZ: 741.18781861576
PRECURSORTYPE: [M-2H]-
INSTRUMENTTYPE: LC-ESI-QTOF
SMILES: OCC1OC(OC2=CC(O)=CC3=[O+]C(=C(OC4OC(CO)C(O)C(O)C4OC4OCC(O)C(O)C4O)C=C23)C2=CC(O)=C(O)C=C2)C(O)C(O)C1O
INCHIKEY: OLBLWNPOURNBCY-UHFFFAOYNA-O
Ontology: Anthocyanidin-5-O-glycosides
COLLISIONENERGY: 50
FORMULA: C32H39O20
RETENTIONTIME: 2.486433
IONMODE: Negative
Comment: registered in RIKEN PlaSMA
Num Peaks: 24
82.06487	28
111.88617	24
183.04103	23
212.04979	34
217.00824	22
223.03397	42
226.33333	30
227.03896	189
228.03555	32
228.0452	30
233.07005	22
238.01756	31
239.03676	22
241.04774	30
255.02171	66
255.03186	49
266.03171	24
283.0242	1000
284.02808	451
285.03922	53
309.0358	25
327.03766	29
328.05869	23
446.11551	28

NAME: Cyanidin-3-O-alpha-arabinoside
PRECURSORMZ: 417.08217171576
PRECURSORTYPE: [M-2H]-
INSTRUMENTTYPE: LC-ESI-QTOF
SMILES: OC1COC(OC2=C([O+]=C3C=C(O)C=C(O)C3=C2)C2=CC(O)=C(O)C=C2)C(O)C1O
INCHIKEY: KUCVMQMKRICXJC-UHFFFAOYNA-O
Ontology: Flavonoid-3-O-glycosides
COLLISIONENERGY: 50
FORMULA: C20H19O10
RETENTIONTIME: 3.026517
IONMODE: Negative
Comment: registered in RIKEN PlaSMA
Num Peaks: 25
53.26092	176
143.04968	277
145.02371	160
146.03484	235
148.01637	294
149.02097	168
167.04199	193
171.04395	218
172.05305	227
175.03592	193
183.03795	420
183.04892	370
185.0181	353
195.04565	193
196.05344	168
199.03716	462
211.03395	731
213.01454	218
213.04927	244
215.04428	168
228.03476	311
239.03723	160
255.03253	1000
267.02469	244
267.03635	168

NAME: Peonidin-3-O-beta-galactoside
PRECURSORMZ: 461.10893504783
PRECURSORTYPE: [M-H]-
INSTRUMENTTYPE: LC-ESI-QTOF
SMILES: COC1=C(O)C=CC(=C1)C1=C(OC2OC(CO)C(O)C(O)C2O)C=C2C([O-])=CC(O)=CC2=[O+]1
INCHIKEY: ZZWPMFROUHHAKY-UHFFFAOYNA-N
Ontology: Anthocyanidin-3-O-glycosides
COLLISIONENERGY: 50
FORMULA: C22H22O11
RETENTIONTIME: 3.125733
IONMODE: Negative
Comment: registered in RIKEN PlaSMA
Num Peaks: 62
108.02194	82
109.02525	59
119.01111	100
120.01587	61
127.06146	66
137.02119	74
143.04715	51
146.03671	90
148.01555	118
148.02164	64
154.81787	64
155.04802	136
157.02864	49
159.04114	233
167.04204	105
168.05266	56
171.04692	64
172.04135	74
172.05656	46
182.04477	51
183.04298	302
183.06137	87
184.04446	64
187.02789	61
188.03783	77
189.01456	46
193.02798	54
195.04364	125
196.04762	187
198.02988	82
199.03262	258
200.04402	281
203.38368	51
210.02278	51
210.03017	146
211.02798	87
211.03537	286
211.04483	315
211.05168	120
211.99974	46
212.0374	248
213.01434	77
213.02428	51
213.05711	82
214.02603	72
226.03006	156
227.02446	435
227.03233	1000
228.03745	148
228.04646	56
237.02026	61
237.0518	46
238.02205	64
239.02913	174
239.04169	90
240.02676	51
241.04027	123
255.02794	824
255.0491	118
256.03049	235
266.00955	64
284.03192	100

NAME: isorhamnetin-3-O-galactoside-6''-rhamnoside
PRECURSORMZ: 623.16175854783
PRECURSORTYPE: [M-H]-
INSTRUMENTTYPE: LC-ESI-QTOF
SMILES: COC1=C(O)C=CC(=C1)C1=C(OC2OC(COC3OC(C)C(O)C(O)C3O)C(O)C(O)C2O)C(=O)C2=C(O)C=C(O)C=C2O1
INCHIKEY: UIDGLYUNOUKLBM-UHFFFAOYNA-N
Ontology: Flavonoid-3-O-glycosides
COLLISIONENERGY: 50
FORMULA: C28H32O16
RETENTIONTIME: 4.16575
IONMODE: Negative
Comment: registered in RIKEN PlaSMA
Num Peaks: 112
79.01933	8
101.03902	7
107.00703	7
107.01346	20
119.01699	9
136.01564	6
141.63582	5
145.02621	14
145.03453	5
146.00876	7
147.04257	7
149.02003	6
150.99663	49
151.00543	39
152.00569	8
158.03185	8
159.04785	6
163.00017	8
163.00897	16
164.00406	6
167.04286	13
169.02251	6
171.04749	8
171.26538	6
174.02715	8
174.74767	11
175.03845	6
175.0475	6
175.07451	10
175.51143	7
176.05367	6
183.04231	14
185.02641	11
186.02905	8
187.02625	6
192.00238	14
194.23119	6
194.44843	9
197.37802	6
199.03818	20
200.0545	17
200.22003	6
201.01094	7
203.03552	16
206.80688	7
209.01543	6
210.06447	8
211.03349	14
212.05008	5
215.03735	45
216.03365	11
217.05063	12
220.67827	9
221.35783	6
226.02246	12
227.02838	86
227.04079	17
228.04105	16
228.08226	7
229.01123	8
229.05376	5
230.01778	6
232.02779	6
238.86784	8
242.02371	20
242.04945	5
243.03043	333
243.05743	6
244.03394	33
245.03752	33
248.82903	8
255.02351	127
255.03345	88
255.98782	6
256.01859	7
256.03363	20
257.02551	7
257.04535	118
257.42337	5
258.05716	7
270.00983	18
270.02026	42
270.04382	8
271.0249	731
271.15143	5
272.02829	171
272.67377	5
273.01532	13
273.0242	14
273.03845	22
274.02951	10
279.04593	7
281.84061	7
284.04248	8
285.03836	141
285.98184	8
286.04761	29
288.07397	7
288.59149	7
295.70731	14
299.01813	1000
300.02393	494
301.02823	89
301.33939	8
301.53464	6
302.04407	11
305.46103	5
313.03934	7
314.04257	154
315.0437	83
316.04669	19
316.06256	20

NAME: 2'-Hydroxyflavanone
PRECURSORMZ: 239.07136774783
PRECURSORTYPE: [M-H]-
INSTRUMENTTYPE: LC-ESI-QTOF
SMILES: OC1=CC=CC=C1C1CC(=O)C2=CC=CC=C2O1
INCHIKEY: KZKWCKFDCPVDFJ-UHFFFAOYNA-N
Ontology: Flavanones
COLLISIONENERGY: 50
FORMULA: C15H12O3
RETENTIONTIME: 7.4525
IONMODE: Negative
Comment: registered in RIKEN PlaSMA
Num Peaks: 6
77.04173	66
93.03197	138
93.03761	105
117.03115	266
118.03516	75
119.04969	1000

NAME: Cyanidin-3-O-sambubioside-5-O-glucoside
PRECURSORMZ: 741.18781861576
PRECURSORTYPE: [M-2H]-
INSTRUMENTTYPE: LC-ESI-QTOF
SMILES: OCC1OC(OC2=CC(O)=CC3=[O+]C(=C(OC4OC(CO)C(O)C(O)C4OC4OCC(O)C(O)C4O)C=C23)C2=CC(O)=C(O)C=C2)C(O)C(O)C1O
INCHIKEY: OLBLWNPOURNBCY-UHFFFAOYNA-O
Ontology: Anthocyanidin-5-O-glycosides
COLLISIONENERGY: 10
FORMULA: C32H39O20
RETENTIONTIME: 2.486433
IONMODE: Negative
Comment: registered in RIKEN PlaSMA
Num Peaks: 30
56.10311	45
231.03647	26
269.04025	28
269.04996	60
283.02066	117
283.03088	104
284.02856	341
285.03522	90
285.04675	44
308.02777	25
310.04465	35
311.05945	29
326.03766	25
339.03656	26
339.05157	72
351.04877	35
409.60971	35
446.08319	173
447.09827	55
448.07788	24
553.12097	23
579.1377	1000
579.18188	50
580.1366	194
581.14996	29
582.14386	24
646.95477	25
741.17023	109
741.19904	250
741.21478	98

NAME: Cyanidin-3-O-alpha-arabinoside
PRECURSORMZ: 417.08217171576
PRECURSORTYPE: [M-2H]-
INSTRUMENTTYPE: LC-ESI-QTOF
SMILES: OC1COC(OC2=C([O+]=C3C=C(O)C=C(O)C3=C2)C2=CC(O)=C(O)C=C2)C(O)C1O
INCHIKEY: KUCVMQMKRICXJC-UHFFFAOYNA-O
Ontology: Flavonoid-3-O-glycosides
COLLISIONENERGY: 10
FORMULA: C20H19O10
RETENTIONTIME: 3.026517
IONMODE: Negative
Comment: registered in RIKEN PlaSMA
Num Peaks: 19
125.02435	18
147.0062	28
148.00874	23
148.01625	52
171.03967	26
184.03889	18
211.04749	43
215.02452	38
216.04083	18
240.0387	21
255.02031	30
257.03723	24
267.04117	19
284.03146	1000
285.03473	319
286.04538	19
299.05301	28
417.07013	48
417.09042	163

NAME: Peonidin-3-O-beta-galactoside
PRECURSORMZ: 461.10893504783
PRECURSORTYPE: [M-H]-
INSTRUMENTTYPE: LC-ESI-QTOF
SMILES: COC1=C(O)C=CC(=C1)C1=C(OC2OC(CO)C(O)C(O)C2O)C=C2C([O-])=CC(O)=CC2=[O+]1
INCHIKEY: ZZWPMFROUHHAKY-UHFFFAOYNA-N
Ontology: Anthocyanidin-3-O-glycosides
COLLISIONENERGY: 10
FORMULA: C22H22O11
RETENTIONTIME: 3.125733
IONMODE: Negative
Comment: registered in RIKEN PlaSMA
Num Peaks: 58
108.0166	28
136.01649	24
147.00313	17
149.0247	19
151.00417	34
162.02676	18
166.01866	17
167.05095	17
173.06346	26
177.67065	17
184.05817	32
186.16409	17
187.03911	20
189.00876	17
196.53275	46
211.03674	37
211.05072	17
215.0275	19
217.00563	25
226.02583	19
227.01251	29
227.0329	138
228.02834	22
233.04468	17
238.02499	19
239.04054	19
239.07524	20
240.04265	43
242.01529	19
243.02968	30
246.75693	20
255.02838	189
256.0271	22
256.04703	49
256.064	18
258.04755	18
259.06198	38
268.04437	23
283.02628	481
284.01221	21
284.02588	107
284.03497	92
285.03192	52
285.0463	53
286.03857	18
291.88254	23
298.04791	1000
299.0553	892
300.04437	23
300.35559	17
301.06311	19
301.55664	17
310.13654	19
340.1698	33
342.07455	19
356.03983	20
443.10306	22
461.11072	589

NAME: isorhamnetin-3-O-galactoside-6''-rhamnoside
PRECURSORMZ: 623.16175854783
PRECURSORTYPE: [M-H]-
INSTRUMENTTYPE: LC-ESI-QTOF
SMILES: COC1=C(O)C=CC(=C1)C1=C(OC2OC(COC3OC(C)C(O)C(O)C3O)C(O)C(O)C2O)C(=O)C2=C(O)C=C(O)C=C2O1
INCHIKEY: UIDGLYUNOUKLBM-UHFFFAOYNA-N
Ontology: Flavonoid-3-O-glycosides
COLLISIONENERGY: 10
FORMULA: C28H32O16
RETENTIONTIME: 4.16575
IONMODE: Negative
Comment: registered in RIKEN PlaSMA
Num Peaks: 22
150.9995	12
228.96922	6
243.0318	22
255.01889	6
257.03955	10
271.01984	21
271.03589	6
284.03665	7
285.0452	15
286.04517	6
287.06067	17
299.01822	108
300.02469	38
300.0369	26
301.02725	11
314.04333	263
315.04953	343
316.04819	33
316.06174	15
357.06308	16
389.06558	6
623.16388	1000

NAME: 2'-Hydroxyflavanone
PRECURSORMZ: 239.07136774783
PRECURSORTYPE: [M-H]-
INSTRUMENTTYPE: LC-ESI-QTOF
SMILES: OC1=CC=CC=C1C1CC(=O)C2=CC=CC=C2O1
INCHIKEY: KZKWCKFDCPVDFJ-UHFFFAOYNA-N
Ontology: Flavanones
COLLISIONENERGY: 10
FORMULA: C15H12O3
RETENTIONTIME: 7.4525
IONMODE: Negative
Comment: registered in RIKEN PlaSMA
Num Peaks: 11
93.03329	187
94.03762	13
117.03067	36
119.04853	1000
120.05196	70
121.02686	9
133.0224	20
133.02905	41
145.02768	21
195.07912	16
239.07098	276

NAME: Cyanidin-3-O-sambubioside-5-O-glucoside
PRECURSORMZ: 741.18781861576
PRECURSORTYPE: [M-2H]-
INSTRUMENTTYPE: LC-ESI-QTOF
SMILES: OCC1OC(OC2=CC(O)=CC3=[O+]C(=C(OC4OC(CO)C(O)C(O)C4OC4OCC(O)C(O)C4O)C=C23)C2=CC(O)=C(O)C=C2)C(O)C(O)C1O
INCHIKEY: OLBLWNPOURNBCY-UHFFFAOYNA-O
Ontology: Anthocyanidin-5-O-glycosides
COLLISIONENERGY: 10
FORMULA: C32H39O20
RETENTIONTIME: 2.486433
IONMODE: Negative
Comment: registered in RIKEN PlaSMA
Num Peaks: 7
579.13672	754
580.08789	39
580.12946	144
580.15826	70
581.14825	94
581.17157	28
741.18866	1000

NAME: Cyanidin-3-O-alpha-arabinoside
PRECURSORMZ: 417.08217171576
PRECURSORTYPE: [M-2H]-
INSTRUMENTTYPE: LC-ESI-QTOF
SMILES: OC1COC(OC2=C([O+]=C3C=C(O)C=C(O)C3=C2)C2=CC(O)=C(O)C=C2)C(O)C1O
INCHIKEY: KUCVMQMKRICXJC-UHFFFAOYNA-O
Ontology: Flavonoid-3-O-glycosides
COLLISIONENERGY: 10
FORMULA: C20H19O10
RETENTIONTIME: 3.026517
IONMODE: Negative
Comment: registered in RIKEN PlaSMA
Num Peaks: 10
125.02077	18
284.03055	361
284.05814	13
285.04013	139
286.04501	13
297.04437	18
327.0484	15
357.06577	13
417.08426	1000
417.14154	15

NAME: Peonidin-3-O-beta-galactoside
PRECURSORMZ: 461.10893504783
PRECURSORTYPE: [M-H]-
INSTRUMENTTYPE: LC-ESI-QTOF
SMILES: COC1=C(O)C=CC(=C1)C1=C(OC2OC(CO)C(O)C(O)C2O)C=C2C([O-])=CC(O)=CC2=[O+]1
INCHIKEY: ZZWPMFROUHHAKY-UHFFFAOYNA-N
Ontology: Anthocyanidin-3-O-glycosides
COLLISIONENERGY: 10
FORMULA: C22H22O11
RETENTIONTIME: 3.125733
IONMODE: Negative
Comment: registered in RIKEN PlaSMA
Num Peaks: 28
159.58429	7
181.78593	10
182.98737	7
187.69438	7
191.04002	14
203.04367	10
247.37958	8
283.01822	8
297.67661	9
298.05005	243
299.05728	225
300.0574	105
301.06235	30
301.07416	39
301.08603	8
302.06476	7
311.04266	10
312.0603	16
313.06604	42
333.62637	13
341.06671	30
344.77032	13
354.14673	14
371.0849	8
433.11581	9
443.11383	15
444.11057	7
461.10858	1000

NAME: isorhamnetin-3-O-galactoside-6''-rhamnoside
PRECURSORMZ: 623.16175854783
PRECURSORTYPE: [M-H]-
INSTRUMENTTYPE: LC-ESI-QTOF
SMILES: COC1=C(O)C=CC(=C1)C1=C(OC2OC(COC3OC(C)C(O)C(O)C3O)C(O)C(O)C2O)C(=O)C2=C(O)C=C(O)C=C2O1
INCHIKEY: UIDGLYUNOUKLBM-UHFFFAOYNA-N
Ontology: Flavonoid-3-O-glycosides
COLLISIONENERGY: 10
FORMULA: C28H32O16
RETENTIONTIME: 4.16575
IONMODE: Negative
Comment: registered in RIKEN PlaSMA
Num Peaks: 2
315.04828	6
623.16418	1000

NAME: 2'-Hydroxyflavanone
PRECURSORMZ: 239.07136774783
PRECURSORTYPE: [M-H]-
INSTRUMENTTYPE: LC-ESI-QTOF
SMILES: OC1=CC=CC=C1C1CC(=O)C2=CC=CC=C2O1
INCHIKEY: KZKWCKFDCPVDFJ-UHFFFAOYNA-N
Ontology: Flavanones
COLLISIONENERGY: 10
FORMULA: C15H12O3
RETENTIONTIME: 7.4525
IONMODE: Negative
Comment: registered in RIKEN PlaSMA
Num Peaks: 12
93.03309	206
94.03608	16
117.03267	22
119.04864	582
120.05214	58
121.02496	10
121.0573	5
133.02661	39
145.02661	36
177.07181	6
195.07855	41
239.07013	1000

NAME: Cyanidin-3-O-sambubioside-5-O-glucoside
PRECURSORMZ: 741.18781861576
PRECURSORTYPE: [M-2H]-
INSTRUMENTTYPE: LC-ESI-QTOF
SMILES: OCC1OC(OC2=CC(O)=CC3=[O+]C(=C(OC4OC(CO)C(O)C(O)C4OC4OCC(O)C(O)C4O)C=C23)C2=CC(O)=C(O)C=C2)C(O)C(O)C1O
INCHIKEY: OLBLWNPOURNBCY-UHFFFAOYNA-O
Ontology: Anthocyanidin-5-O-glycosides
COLLISIONENERGY: 30
FORMULA: C32H39O20
RETENTIONTIME: 2.486433
IONMODE: Negative
Comment: registered in RIKEN PlaSMA
Num Peaks: 28
276.37689	40
283.02014	88
284.01852	160
284.034	403
285.02835	148
285.04773	38
286.04404	37
309.03262	85
309.04785	40
310.03528	33
311.0463	35
325.04044	47
326.05588	42
327.04434	60
339.04218	35
340.04718	45
351.05252	82
393.06696	35
446.08755	1000
447.08957	63
448.09344	30
487.48984	45
513.11145	65
579.13452	353
580.10828	33
580.13135	195
582.14874	30
621.15802	47

NAME: Cyanidin-3-O-alpha-arabinoside
PRECURSORMZ: 417.08217171576
PRECURSORTYPE: [M-2H]-
INSTRUMENTTYPE: LC-ESI-QTOF
SMILES: OC1COC(OC2=C([O+]=C3C=C(O)C=C(O)C3=C2)C2=CC(O)=C(O)C=C2)C(O)C1O
INCHIKEY: KUCVMQMKRICXJC-UHFFFAOYNA-O
Ontology: Flavonoid-3-O-glycosides
COLLISIONENERGY: 30
FORMULA: C20H19O10
RETENTIONTIME: 3.026517
IONMODE: Negative
Comment: registered in RIKEN PlaSMA
Num Peaks: 42
108.01918	38
109.02682	78
125.02439	131
147.00462	76
148.01781	36
163.00261	40
171.0383	42
176.82877	55
183.04706	69
184.05061	33
188.045	35
189.05737	36
196.04778	78
196.05525	45
200.04759	36
201.06076	33
211.47954	47
212.04552	93
212.05849	60
213.04848	36
214.06613	36
223.02954	36
227.03769	69
229.05457	36
239.02782	36
239.04147	96
240.04131	122
240.05338	55
241.04623	36
255.02376	155
255.03809	40
256.04437	111
257.04666	35
267.06836	44
268.03491	38
283.02374	151
283.62326	33
284.03189	1000
284.51566	33
285.021	47
285.03906	362
339.05731	42

NAME: Peonidin-3-O-beta-galactoside
PRECURSORMZ: 461.10893504783
PRECURSORTYPE: [M-H]-
INSTRUMENTTYPE: LC-ESI-QTOF
SMILES: COC1=C(O)C=CC(=C1)C1=C(OC2OC(CO)C(O)C(O)C2O)C=C2C([O-])=CC(O)=CC2=[O+]1
INCHIKEY: ZZWPMFROUHHAKY-UHFFFAOYNA-N
Ontology: Anthocyanidin-3-O-glycosides
COLLISIONENERGY: 30
FORMULA: C22H22O11
RETENTIONTIME: 3.125733
IONMODE: Negative
Comment: registered in RIKEN PlaSMA
Num Peaks: 54
109.02623	17
121.02554	13
147.01357	56
147.04329	12
149.02023	23
162.99783	12
165.0195	19
177.02528	17
190.9942	15
195.04659	14
198.03702	20
199.25218	12
201.01591	15
208.63548	12
212.02995	14
212.04817	28
224.03964	15
224.05176	17
226.66551	13
227.01939	18
227.02565	34
227.03555	29
228.04158	17
231.0602	12
239.02177	44
239.03178	53
239.04181	15
240.03	43
240.04382	111
241.04286	22
241.05417	31
242.02399	19
243.02238	12
254.05009	19
254.0609	14
255.02138	85
255.03519	102
256.02948	35
256.0386	19
265.00623	20
266.0163	14
270.05127	22
279.04407	20
282.02121	15
283.02319	1000
284.03165	403
285.0213	20
285.03583	80
298.03915	190
298.05298	307
299.05002	182
300.05579	92
313.07318	12
461.10138	19

NAME: isorhamnetin-3-O-galactoside-6''-rhamnoside
PRECURSORMZ: 623.16175854783
PRECURSORTYPE: [M-H]-
INSTRUMENTTYPE: LC-ESI-QTOF
SMILES: COC1=C(O)C=CC(=C1)C1=C(OC2OC(COC3OC(C)C(O)C(O)C3O)C(O)C(O)C2O)C(=O)C2=C(O)C=C(O)C=C2O1
INCHIKEY: UIDGLYUNOUKLBM-UHFFFAOYNA-N
Ontology: Flavonoid-3-O-glycosides
COLLISIONENERGY: 30
FORMULA: C28H32O16
RETENTIONTIME: 4.16575
IONMODE: Negative
Comment: registered in RIKEN PlaSMA
Num Peaks: 38
125.02335	6
151.00299	37
171.01743	7
204.05199	9
205.04399	7
243.02466	9
243.034	12
255.0257	12
260.9686	5
270.04785	16
270.98682	6
271.01654	10
271.02908	11
271.04727	5
285.02969	9
285.04211	9
286.0444	20
287.04971	24
289.07254	10
299.01874	261
299.05643	7
300.02762	120
301.02841	29
303.03854	5
304.67606	5
313.04065	9
314.04099	1000
315.04901	927
315.08279	9
316.05328	214
317.04581	27
317.06311	10
328.0531	5
329.05853	11
357.05673	24
358.0546	5
362.7627	6
623.15765	185

NAME: 2'-Hydroxyflavanone
PRECURSORMZ: 239.07136774783
PRECURSORTYPE: [M-H]-
INSTRUMENTTYPE: LC-ESI-QTOF
SMILES: OC1=CC=CC=C1C1CC(=O)C2=CC=CC=C2O1
INCHIKEY: KZKWCKFDCPVDFJ-UHFFFAOYNA-N
Ontology: Flavanones
COLLISIONENERGY: 30
FORMULA: C15H12O3
RETENTIONTIME: 7.4525
IONMODE: Negative
Comment: registered in RIKEN PlaSMA
Num Peaks: 8
64.69489	7
93.03285	61
94.03936	9
117.03326	59
118.03766	7
119.04828	1000
120.05073	115
121.05601	6

NAME: Cyanidin-3-O-sambubioside-5-O-glucoside
PRECURSORMZ: 741.18781861576
PRECURSORTYPE: [M-2H]-
INSTRUMENTTYPE: LC-ESI-QTOF
SMILES: OCC1OC(OC2=CC(O)=CC3=[O+]C(=C(OC4OC(CO)C(O)C(O)C4OC4OCC(O)C(O)C4O)C=C23)C2=CC(O)=C(O)C=C2)C(O)C(O)C1O
INCHIKEY: OLBLWNPOURNBCY-UHFFFAOYNA-O
Ontology: Anthocyanidin-5-O-glycosides
COLLISIONENERGY: 50
FORMULA: C32H39O20
RETENTIONTIME: 2.486433
IONMODE: Negative
Comment: registered in RIKEN PlaSMA
Num Peaks: 25
147.00238	28
176.00829	55
176.022	27
183.03662	27
188.04791	49
201.0269	25
228.03355	31
229.0123	32
241.00586	32
255.03018	71
256.03757	52
283.02313	1000
284.02365	182
284.0387	143
285.03323	97
286.00189	32
286.03021	39
287.00543	29
296.0271	27
309.03049	32
309.04117	28
310.04062	25
313.04395	27
446.0596	29
447.10226	45

NAME: Cyanidin-3-O-alpha-arabinoside
PRECURSORMZ: 417.08217171576
PRECURSORTYPE: [M-2H]-
INSTRUMENTTYPE: LC-ESI-QTOF
SMILES: OC1COC(OC2=C([O+]=C3C=C(O)C=C(O)C3=C2)C2=CC(O)=C(O)C=C2)C(O)C1O
INCHIKEY: KUCVMQMKRICXJC-UHFFFAOYNA-O
Ontology: Flavonoid-3-O-glycosides
COLLISIONENERGY: 50
FORMULA: C20H19O10
RETENTIONTIME: 3.026517
IONMODE: Negative
Comment: registered in RIKEN PlaSMA
Num Peaks: 22
108.01617	200
119.00918	242
119.01418	305
120.01952	316
121.03391	253
147.00252	442
147.01054	495
148.01884	284
155.05164	295
156.01437	200
157.05748	284
171.04042	537
173.05878	232
183.03889	284
184.04773	211
195.04974	189
199.03261	547
211.03622	1000
212.03372	421
212.04912	211
214.02065	200
227.03221	800

NAME: Peonidin-3-O-beta-galactoside
PRECURSORMZ: 461.10893504783
PRECURSORTYPE: [M-H]-
INSTRUMENTTYPE: LC-ESI-QTOF
SMILES: COC1=C(O)C=CC(=C1)C1=C(OC2OC(CO)C(O)C(O)C2O)C=C2C([O-])=CC(O)=CC2=[O+]1
INCHIKEY: ZZWPMFROUHHAKY-UHFFFAOYNA-N
Ontology: Anthocyanidin-3-O-glycosides
COLLISIONENERGY: 50
FORMULA: C22H22O11
RETENTIONTIME: 3.125733
IONMODE: Negative
Comment: registered in RIKEN PlaSMA
Num Peaks: 67
109.02753	44
119.01492	202
123.04634	52
127.05505	50
139.05771	94
141.03564	56
143.04073	71
145.0244	44
146.03746	46
147.00951	54
148.01958	40
152.06212	44
154.04308	85
155.05421	83
157.01994	60
161.02713	38
167.05211	188
169.02682	98
181.02303	69
182.03651	48
183.04597	452
184.04257	69
185.01459	44
185.02577	106
187.0457	40
188.04697	48
195.04735	96
196.0528	54
199.02905	38
199.04187	117
200.14819	46
201.02217	50
209.01756	42
210.03137	138
210.04092	98
210.50456	38
211.03549	510
211.04869	129
212.0141	48
212.04681	265
213.01291	44
214.02379	140
216.04758	75
223.04051	50
226.02562	42
227.0361	1000
228.03069	46
228.04269	52
237.02658	52
238.02365	102
239.03357	165
239.04327	115
240.04015	44
241.04387	46
252.04401	46
253.00648	48
254.01962	106
255.02678	546
256.0256	46
256.0433	42
257.01996	42
266.01907	85
282.01813	42
283.02606	90
284.03418	46
288.77655	42
297.0351	56

NAME: isorhamnetin-3-O-galactoside-6''-rhamnoside
PRECURSORMZ: 623.16175854783
PRECURSORTYPE: [M-H]-
INSTRUMENTTYPE: LC-ESI-QTOF
SMILES: COC1=C(O)C=CC(=C1)C1=C(OC2OC(COC3OC(C)C(O)C(O)C3O)C(O)C(O)C2O)C(=O)C2=C(O)C=C(O)C=C2O1
INCHIKEY: UIDGLYUNOUKLBM-UHFFFAOYNA-N
Ontology: Flavonoid-3-O-glycosides
COLLISIONENERGY: 50
FORMULA: C28H32O16
RETENTIONTIME: 4.16575
IONMODE: Negative
Comment: registered in RIKEN PlaSMA
Num Peaks: 100
107.01551	24
119.04965	7
123.04996	17
124.01789	9
125.03526	5
135.00415	12
136.01225	5
141.03041	8
145.0305	19
146.03236	6
151.00394	39
153.00174	6
155.05272	6
159.04549	6
160.23091	9
161.01944	20
162.00151	6
162.03264	6
165.02376	6
167.04173	6
167.05179	13
171.04019	6
171.04729	10
171.0537	8
172.50075	6
173.02689	7
174.03302	5
182.03252	9
183.04417	13
184.04533	16
185.01651	8
186.02991	8
186.90742	5
187.03981	8
189.01979	6
199.00198	6
199.04066	61
200.03688	19
200.18013	6
201.04144	11
203.03252	13
208.19324	6
211.04988	8
212.04242	8
215.03737	13
216.04178	11
217.58633	9
219.07152	5
225.0179	6
227.03697	149
228.03476	8
229.01154	5
230.01184	9
240.03333	5
241.21803	10
242.02333	59
243.02902	445
244.03027	72
245.0349	27
254.03163	6
255.02646	267
255.78618	9
256.03409	78
257.04697	136
258.0416	11
259.05951	12
267.5549	6
270.01642	35
270.02985	7
270.76923	8
271.02338	637
272.01355	21
272.02609	105
272.03574	105
272.05002	16
272.33823	9
272.48474	5
272.97986	18
273.02692	6
273.04391	6
279.99164	9
285.03439	137
285.05099	46
286.04068	24
287.05978	16
299.01852	1000
299.24225	8
300.02295	416
301.02786	50
303.04352	6
314.03976	99
315.03574	19
315.05026	53
315.09439	8
316.04065	21
316.05746	12
317.05194	11
321.04086	6
369.11972	8
386.74182	6

NAME: 2'-Hydroxyflavanone
PRECURSORMZ: 239.07136774783
PRECURSORTYPE: [M-H]-
INSTRUMENTTYPE: LC-ESI-QTOF
SMILES: OC1=CC=CC=C1C1CC(=O)C2=CC=CC=C2O1
INCHIKEY: KZKWCKFDCPVDFJ-UHFFFAOYNA-N
Ontology: Flavanones
COLLISIONENERGY: 50
FORMULA: C15H12O3
RETENTIONTIME: 7.4525
IONMODE: Negative
Comment: registered in RIKEN PlaSMA
Num Peaks: 8
91.05578	195
93.03373	68
117.02948	273
117.03617	68
118.03556	78
119.04815	1000
120.04472	92
120.05347	498

NAME: Peonidin-3,5-O-di-beta-glucoside
PRECURSORMZ: 623.16120991576
PRECURSORTYPE: [M-2H]-
INSTRUMENTTYPE: LC-ESI-QTOF
SMILES: COC1=C(O)C=CC(=C1)C1=C(OC2OC(CO)C(O)C(O)C2O)C=C2C(OC3OC(CO)C(O)C(O)C3O)=CC(O)=CC2=[O+]1
INCHIKEY: IPVSUYLZIAYTOK-UHFFFAOYNA-O
Ontology: Anthocyanidin-5-O-glycosides
COLLISIONENERGY: 10
FORMULA: C28H33O16
RETENTIONTIME: 2.783517
IONMODE: Negative
Comment: registered in RIKEN PlaSMA
Num Peaks: 20
177.01343	159
189.00674	55
283.02863	55
284.03061	67
284.04697	55
299.05331	1000
300.04132	61
300.05521	189
301.06439	61
460.10364	162
461.09637	192
461.11267	311
462.09845	67
462.13641	55
466.08679	73
533.99701	64
622.92834	70
623.1377	122
623.15997	232
623.18304	58

NAME: Cyanidin-3-O-rhamnoside
PRECURSORMZ: 431.09782181576
PRECURSORTYPE: [M-2H]-
INSTRUMENTTYPE: LC-ESI-QTOF
SMILES: CC1OC(OC2=C([O+]=C3C=C(O)C=C(O)C3=C2)C2=CC(O)=C(O)C=C2)C(O)C(O)C1O
INCHIKEY: USWXMMRFOWNEOR-UHFFFAOYNA-O
Ontology: Anthocyanidin-3-O-glycosides
COLLISIONENERGY: 10
FORMULA: C21H21O10
RETENTIONTIME: 3.1846
IONMODE: Negative
Comment: registered in RIKEN PlaSMA
Num Peaks: 27
125.03349	30
133.03665	31
147.0118	113
147.03732	31
148.00754	27
172.04756	34
177.01064	28
177.01686	61
183.05263	36
188.0417	40
211.04378	31
212.04442	39
227.0329	39
227.04326	40
240.03879	27
255.01103	43
255.02347	135
256.04306	56
257.03363	30
257.04794	86
284.02548	240
284.03973	153
285.03708	1000
286.0444	65
327.05142	34
431.09381	479
431.11105	90

NAME: Kaempferol-3-O-glucoside-2''-p-coumaroyl
PRECURSORMZ: 593.13006444783
PRECURSORTYPE: [M-H]-
INSTRUMENTTYPE: LC-ESI-QTOF
SMILES: OCC1OC(OC2=C(OC3=CC(O)=CC(O)=C3C2=O)C2=CC=C(O)C=C2)C(OC(=O)C=CC2=CC=C(O)C=C2)C(O)C1O
INCHIKEY: IKONEAPXVKTZFF-UHFFFAOYNA-N
Ontology: Flavonoid-3-O-glycosides
COLLISIONENERGY: 10
FORMULA: C30H26O13
RETENTIONTIME: 5.31575
IONMODE: Negative
Comment: registered in RIKEN PlaSMA
Num Peaks: 27
65.00314	5
119.04533	6
145.02676	26
151.00056	33
162.9985	6
163.0363	13
165.05147	7
213.05403	13
227.02742	10
227.03802	7
229.05084	8
241.05386	9
255.02731	6
257.039	13
257.05112	18
283.01562	8
284.02499	5
284.03299	14
284.04425	9
285.03925	1000
286.03702	51
286.04468	127
287.0426	22
307.0816	94
308.08356	17
447.09091	10
593.13031	177

NAME: 6-Hydroxyflavanone
PRECURSORMZ: 239.07136774783
PRECURSORTYPE: [M-H]-
INSTRUMENTTYPE: LC-ESI-QTOF
SMILES: OC1=CC2=C(OC(CC2=O)C2=CC=CC=C2)C=C1
INCHIKEY: XYHWPQUEOOBIOW-UHFFFAOYNA-N
Ontology: Flavanones
COLLISIONENERGY: 10
FORMULA: C15H12O3
RETENTIONTIME: 7.163183
IONMODE: Negative
Comment: registered in RIKEN PlaSMA
Num Peaks: 28
79.01871	197
107.00845	316
107.0149	125
108.01466	115
108.01931	345
109.02876	33
117.03503	31
121.02605	31
135.00616	469
136.00848	53
156.05424	89
157.06129	31
161.02733	79
162.0209	36
163.21658	30
169.05934	87
171.0657	35
193.05582	33
195.04126	33
195.08008	176
197.05861	74
198.05896	35
210.06815	67
211.07243	265
212.0726	31
213.08252	36
221.98727	51
239.07047	1000

NAME: Peonidin-3,5-O-di-beta-glucoside
PRECURSORMZ: 623.16120991576
PRECURSORTYPE: [M-2H]-
INSTRUMENTTYPE: LC-ESI-QTOF
SMILES: COC1=C(O)C=CC(=C1)C1=C(OC2OC(CO)C(O)C(O)C2O)C=C2C(OC3OC(CO)C(O)C(O)C3O)=CC(O)=CC2=[O+]1
INCHIKEY: IPVSUYLZIAYTOK-UHFFFAOYNA-O
Ontology: Anthocyanidin-5-O-glycosides
COLLISIONENERGY: 10
FORMULA: C28H33O16
RETENTIONTIME: 2.783517
IONMODE: Negative
Comment: registered in RIKEN PlaSMA
Num Peaks: 7
461.11337	493
462.09561	55
462.11411	93
462.13785	61
577.99628	38
578.98682	42
623.16699	1000

NAME: Cyanidin-3-O-rhamnoside
PRECURSORMZ: 431.09782181576
PRECURSORTYPE: [M-2H]-
INSTRUMENTTYPE: LC-ESI-QTOF
SMILES: CC1OC(OC2=C([O+]=C3C=C(O)C=C(O)C3=C2)C2=CC(O)=C(O)C=C2)C(O)C(O)C1O
INCHIKEY: USWXMMRFOWNEOR-UHFFFAOYNA-O
Ontology: Anthocyanidin-3-O-glycosides
COLLISIONENERGY: 10
FORMULA: C21H21O10
RETENTIONTIME: 3.1846
IONMODE: Negative
Comment: registered in RIKEN PlaSMA
Num Peaks: 13
165.52559	18
233.34537	21
269.04623	17
284.02798	98
284.04407	26
285.02908	140
285.04282	316
286.03763	24
286.04611	76
287.05539	17
299.06201	25
431.09741	1000
431.11862	144

NAME: Kaempferol-3-O-glucoside-2''-p-coumaroyl
PRECURSORMZ: 593.13006444783
PRECURSORTYPE: [M-H]-
INSTRUMENTTYPE: LC-ESI-QTOF
SMILES: OCC1OC(OC2=C(OC3=CC(O)=CC(O)=C3C2=O)C2=CC=C(O)C=C2)C(OC(=O)C=CC2=CC=C(O)C=C2)C(O)C1O
INCHIKEY: IKONEAPXVKTZFF-UHFFFAOYNA-N
Ontology: Flavonoid-3-O-glycosides
COLLISIONENERGY: 10
FORMULA: C30H26O13
RETENTIONTIME: 5.31575
IONMODE: Negative
Comment: registered in RIKEN PlaSMA
Num Peaks: 9
145.02652	7
285.0386	779
286.0441	96
287.04587	17
301.70016	5
307.07877	146
308.07547	16
416.87408	7
593.12921	1000

NAME: 6-Hydroxyflavanone
PRECURSORMZ: 239.07136774783
PRECURSORTYPE: [M-H]-
INSTRUMENTTYPE: LC-ESI-QTOF
SMILES: OC1=CC2=C(OC(CC2=O)C2=CC=CC=C2)C=C1
INCHIKEY: XYHWPQUEOOBIOW-UHFFFAOYNA-N
Ontology: Flavanones
COLLISIONENERGY: 10
FORMULA: C15H12O3
RETENTIONTIME: 7.163183
IONMODE: Negative
Comment: registered in RIKEN PlaSMA
Num Peaks: 25
79.018	31
107.01345	100
107.02265	11
108.01331	11
108.01922	30
121.71074	7
134.88577	7
135.0052	198
135.01112	74
135.49362	7
136.0041	18
161.02017	9
183.08037	10
193.06157	14
195.08286	35
196.07646	7
196.08601	14
197.05756	17
197.06606	26
198.07433	9
211.06825	12
211.07695	38
211.08588	14
212.0788	11
239.07007	1000

NAME: Peonidin-3,5-O-di-beta-glucoside
PRECURSORMZ: 623.16120991576
PRECURSORTYPE: [M-2H]-
INSTRUMENTTYPE: LC-ESI-QTOF
SMILES: COC1=C(O)C=CC(=C1)C1=C(OC2OC(CO)C(O)C(O)C2O)C=C2C(OC3OC(CO)C(O)C(O)C3O)=CC(O)=CC2=[O+]1
INCHIKEY: IPVSUYLZIAYTOK-UHFFFAOYNA-O
Ontology: Anthocyanidin-5-O-glycosides
COLLISIONENERGY: 30
FORMULA: C28H33O16
RETENTIONTIME: 2.783517
IONMODE: Negative
Comment: registered in RIKEN PlaSMA
Num Peaks: 11
284.01108	45
297.04309	225
298.05173	119
299.05576	1000
300.0426	53
300.0563	101
313.06879	68
460.07993	51
460.09479	56
461.09866	154
463.10278	76

NAME: Cyanidin-3-O-rhamnoside
PRECURSORMZ: 431.09782181576
PRECURSORTYPE: [M-2H]-
INSTRUMENTTYPE: LC-ESI-QTOF
SMILES: CC1OC(OC2=C([O+]=C3C=C(O)C=C(O)C3=C2)C2=CC(O)=C(O)C=C2)C(O)C(O)C1O
INCHIKEY: USWXMMRFOWNEOR-UHFFFAOYNA-O
Ontology: Anthocyanidin-3-O-glycosides
COLLISIONENERGY: 30
FORMULA: C21H21O10
RETENTIONTIME: 3.1846
IONMODE: Negative
Comment: registered in RIKEN PlaSMA
Num Peaks: 34
109.02838	60
125.02521	92
147.00723	100
147.04509	50
148.01529	92
149.01913	55
155.05435	77
159.04893	87
171.03671	92
171.04573	125
174.02502	60
185.05153	47
185.05878	60
188.04356	209
188.05244	67
189.04634	50
196.04906	52
201.05388	52
209.11937	45
227.03371	62
229.05373	117
239.03107	115
240.03725	57
241.04829	75
255.02582	130
257.04276	319
265.44675	80
283.02325	349
284.0293	1000
285.03702	449
285.0462	172
286.0477	249
286.07205	45
287.05414	50

NAME: Kaempferol-3-O-glucoside-2''-p-coumaroyl
PRECURSORMZ: 593.13006444783
PRECURSORTYPE: [M-H]-
INSTRUMENTTYPE: LC-ESI-QTOF
SMILES: OCC1OC(OC2=C(OC3=CC(O)=CC(O)=C3C2=O)C2=CC=C(O)C=C2)C(OC(=O)C=CC2=CC=C(O)C=C2)C(O)C1O
INCHIKEY: IKONEAPXVKTZFF-UHFFFAOYNA-N
Ontology: Flavonoid-3-O-glycosides
COLLISIONENERGY: 30
FORMULA: C30H26O13
RETENTIONTIME: 5.31575
IONMODE: Negative
Comment: registered in RIKEN PlaSMA
Num Peaks: 18
145.02922	75
151.00433	53
163.03844	23
164.04796	5
185.06075	7
229.04779	31
239.03357	6
241.04587	26
257.03766	19
257.05203	9
284.03076	22
285.03979	1000
286.04614	192
287.04529	26
307.0773	19
307.09702	8
308.08801	17
447.09033	12

NAME: 6-Hydroxyflavanone
PRECURSORMZ: 239.07136774783
PRECURSORTYPE: [M-H]-
INSTRUMENTTYPE: LC-ESI-QTOF
SMILES: OC1=CC2=C(OC(CC2=O)C2=CC=CC=C2)C=C1
INCHIKEY: XYHWPQUEOOBIOW-UHFFFAOYNA-N
Ontology: Flavanones
COLLISIONENERGY: 30
FORMULA: C15H12O3
RETENTIONTIME: 7.163183
IONMODE: Negative
Comment: registered in RIKEN PlaSMA
Num Peaks: 13
79.01554	699
80.02343	93
108.01918	1000
108.02756	216
120.81849	78
127.05231	82
134.03372	78
161.02769	93
165.06432	82
183.08376	71
193.07326	93
196.09512	82
197.05998	186

NAME: Peonidin-3,5-O-di-beta-glucoside
PRECURSORMZ: 623.16120991576
PRECURSORTYPE: [M-2H]-
INSTRUMENTTYPE: LC-ESI-QTOF
SMILES: COC1=C(O)C=CC(=C1)C1=C(OC2OC(CO)C(O)C(O)C2O)C=C2C(OC3OC(CO)C(O)C(O)C3O)=CC(O)=CC2=[O+]1
INCHIKEY: IPVSUYLZIAYTOK-UHFFFAOYNA-O
Ontology: Anthocyanidin-5-O-glycosides
COLLISIONENERGY: 50
FORMULA: C28H33O16
RETENTIONTIME: 2.783517
IONMODE: Negative
Comment: registered in RIKEN PlaSMA
Num Peaks: 18
147.0092	174
198.0237	149
211.04091	165
226.02863	149
231.03146	207
239.02646	207
239.03902	190
242.02521	405
254.0152	314
256.02963	207
269.03436	322
270.04465	165
283.02765	488
284.03	1000
284.04913	198
297.0365	355
297.05005	174
300.04883	182

NAME: Cyanidin-3-O-rhamnoside
PRECURSORMZ: 431.09782181576
PRECURSORTYPE: [M-2H]-
INSTRUMENTTYPE: LC-ESI-QTOF
SMILES: CC1OC(OC2=C([O+]=C3C=C(O)C=C(O)C3=C2)C2=CC(O)=C(O)C=C2)C(O)C(O)C1O
INCHIKEY: USWXMMRFOWNEOR-UHFFFAOYNA-O
Ontology: Anthocyanidin-3-O-glycosides
COLLISIONENERGY: 50
FORMULA: C21H21O10
RETENTIONTIME: 3.1846
IONMODE: Negative
Comment: registered in RIKEN PlaSMA
Num Peaks: 23
109.02623	684
114.57174	200
119.01064	895
133.02843	284
146.03496	284
148.0121	284
149.01732	600
155.05324	263
159.04752	221
167.04958	263
171.0434	305
177.01952	242
183.03351	200
187.04416	400
199.0291	316
211.04053	232
212.07166	463
227.02826	1000
238.3013	253
240.03833	263
256.0354	526
257.04108	211
282.0289	221

NAME: Kaempferol-3-O-glucoside-2''-p-coumaroyl
PRECURSORMZ: 593.13006444783
PRECURSORTYPE: [M-H]-
INSTRUMENTTYPE: LC-ESI-QTOF
SMILES: OCC1OC(OC2=C(OC3=CC(O)=CC(O)=C3C2=O)C2=CC=C(O)C=C2)C(OC(=O)C=CC2=CC=C(O)C=C2)C(O)C1O
INCHIKEY: IKONEAPXVKTZFF-UHFFFAOYNA-N
Ontology: Flavonoid-3-O-glycosides
COLLISIONENERGY: 50
FORMULA: C30H26O13
RETENTIONTIME: 5.31575
IONMODE: Negative
Comment: registered in RIKEN PlaSMA
Num Peaks: 106
63.02151	13
83.00948	42
83.01919	25
103.05974	21
105.02922	25
107.01266	120
107.01971	33
108.01648	16
109.02567	38
109.0332	36
117.03363	98
119.04659	53
119.05696	14
120.02246	17
131.04552	32
133.02892	16
135.00786	106
135.21609	14
136.01646	22
138.02612	13
143.05257	15
145.02783	572
145.0641	15
145.07472	13
146.03337	61
147.00822	42
150.99706	68
151.00363	224
152.00595	60
154.04678	42
155.04187	18
155.05209	17
156.05096	14
157.03474	15
157.06148	29
158.03435	41
159.04279	13
159.04872	15
160.46466	18
161.05956	17
163.00592	122
163.04115	16
163.04547	34
164.00314	46
164.0112	32
164.01556	15
166.02785	25
167.05157	15
169.06566	57
171.04291	34
173.02309	13
173.06279	19
174.0303	54
180.05055	16
183.0405	28
184.04695	17
185.05367	108
185.06364	130
187.03867	216
192.00049	17
192.01054	17
196.05495	22
197.06564	18
201.05617	41
202.02661	17
202.05421	21
211.03632	75
212.04602	60
212.0593	13
213.02914	23
213.04268	17
213.0571	62
214.06364	15
215.03166	15
216.0347	26
223.04118	14
227.03175	292
228.03738	52
229.03926	231
229.04984	431
231.04648	31
239.02652	34
239.03818	33
241.03519	22
241.04701	20
241.062	18
242.0518	18
243.03487	34
244.02962	15
250.03763	16
255.02603	157
255.06537	15
256.02988	78
256.04123	23
257.02411	15
257.04541	309
258.04248	15
258.05435	20
259.05087	15
267.03558	18
268.05267	16
284.02945	31
285.03836	1000
286.02902	72
286.0549	54
297.03238	25

NAME: Peonidin-3,5-O-di-beta-glucoside
PRECURSORMZ: 623.16120991576
PRECURSORTYPE: [M-2H]-
INSTRUMENTTYPE: LC-ESI-QTOF
SMILES: COC1=C(O)C=CC(=C1)C1=C(OC2OC(CO)C(O)C(O)C2O)C=C2C(OC3OC(CO)C(O)C(O)C3O)=CC(O)=CC2=[O+]1
INCHIKEY: IPVSUYLZIAYTOK-UHFFFAOYNA-O
Ontology: Anthocyanidin-5-O-glycosides
COLLISIONENERGY: 10
FORMULA: C28H33O16
RETENTIONTIME: 2.783517
IONMODE: Negative
Comment: registered in RIKEN PlaSMA
Num Peaks: 14
252.04062	78
297.0412	198
298.04984	202
299.05685	1000
299.06738	271
300.05536	78
301.04999	78
301.07901	70
341.06467	74
461.10074	302
461.11853	539
462.10202	155
623.1264	81
623.16742	93

NAME: Cyanidin-3-O-rhamnoside
PRECURSORMZ: 431.09782181576
PRECURSORTYPE: [M-2H]-
INSTRUMENTTYPE: LC-ESI-QTOF
SMILES: CC1OC(OC2=C([O+]=C3C=C(O)C=C(O)C3=C2)C2=CC(O)=C(O)C=C2)C(O)C(O)C1O
INCHIKEY: USWXMMRFOWNEOR-UHFFFAOYNA-O
Ontology: Anthocyanidin-3-O-glycosides
COLLISIONENERGY: 10
FORMULA: C21H21O10
RETENTIONTIME: 3.1846
IONMODE: Negative
Comment: registered in RIKEN PlaSMA
Num Peaks: 34
108.01976	22
125.02611	20
136.01122	23
146.56621	18
147.0105	133
149.02597	22
163.00525	28
171.04227	36
194.04303	18
199.03708	47
200.04289	20
211.04013	18
212.03737	22
212.05214	22
227.0065	20
238.02547	21
240.04201	36
241.05215	21
242.01465	35
255.02359	25
256.03717	21
257.0437	21
258.03931	25
283.02185	20
284.03015	560
284.04269	132
285.0386	1000
285.06534	46
286.03699	135
287.03561	25
287.0491	48
429.65244	19
431.08994	197
431.10471	187

NAME: Kaempferol-3-O-glucoside-2''-p-coumaroyl
PRECURSORMZ: 593.13006444783
PRECURSORTYPE: [M-H]-
INSTRUMENTTYPE: LC-ESI-QTOF
SMILES: OCC1OC(OC2=C(OC3=CC(O)=CC(O)=C3C2=O)C2=CC=C(O)C=C2)C(OC(=O)C=CC2=CC=C(O)C=C2)C(O)C1O
INCHIKEY: IKONEAPXVKTZFF-UHFFFAOYNA-N
Ontology: Flavonoid-3-O-glycosides
COLLISIONENERGY: 10
FORMULA: C30H26O13
RETENTIONTIME: 5.31575
IONMODE: Negative
Comment: registered in RIKEN PlaSMA
Num Peaks: 19
145.02606	40
151.00206	49
163.03653	17
163.05435	6
213.0553	7
229.04889	12
255.03592	10
257.04309	43
284.03119	18
285.039	1000
286.0441	183
287.04282	16
294.19785	6
307.08276	144
308.08328	15
309.0928	6
447.1037	9
593.12988	246
593.17157	6

NAME: 6-Hydroxyflavanone
PRECURSORMZ: 239.07136774783
PRECURSORTYPE: [M-H]-
INSTRUMENTTYPE: LC-ESI-QTOF
SMILES: OC1=CC2=C(OC(CC2=O)C2=CC=CC=C2)C=C1
INCHIKEY: XYHWPQUEOOBIOW-UHFFFAOYNA-N
Ontology: Flavanones
COLLISIONENERGY: 10
FORMULA: C15H12O3
RETENTIONTIME: 7.163183
IONMODE: Negative
Comment: registered in RIKEN PlaSMA
Num Peaks: 31
79.01564	146
79.01926	71
80.01944	34
80.02461	52
107.00742	70
107.01312	272
108.01921	93
109.03138	32
116.058	38
135.00618	287
136.01292	43
139.0575	27
164.03117	34
167.0822	30
167.09125	34
183.06877	27
183.07939	72
195.07906	240
195.09152	38
196.08711	38
197.0621	117
198.06302	27
209.05339	35
211.07042	185
211.08321	110
212.07343	38
212.08188	42
215.91095	24
221.05791	24
237.04283	40
239.0712	1000

NAME: Peonidin-3,5-O-di-beta-glucoside
PRECURSORMZ: 623.16120991576
PRECURSORTYPE: [M-2H]-
INSTRUMENTTYPE: LC-ESI-QTOF
SMILES: COC1=C(O)C=CC(=C1)C1=C(OC2OC(CO)C(O)C(O)C2O)C=C2C(OC3OC(CO)C(O)C(O)C3O)=CC(O)=CC2=[O+]1
INCHIKEY: IPVSUYLZIAYTOK-UHFFFAOYNA-O
Ontology: Anthocyanidin-5-O-glycosides
COLLISIONENERGY: 10
FORMULA: C28H33O16
RETENTIONTIME: 2.783517
IONMODE: Negative
Comment: registered in RIKEN PlaSMA
Num Peaks: 9
285.02887	63
299.04425	102
299.05609	63
461.10684	1000
461.1564	52
462.1033	107
462.12503	55
464.13593	50
623.15814	455

NAME: Cyanidin-3-O-rhamnoside
PRECURSORMZ: 431.09782181576
PRECURSORTYPE: [M-2H]-
INSTRUMENTTYPE: LC-ESI-QTOF
SMILES: CC1OC(OC2=C([O+]=C3C=C(O)C=C(O)C3=C2)C2=CC(O)=C(O)C=C2)C(O)C(O)C1O
INCHIKEY: USWXMMRFOWNEOR-UHFFFAOYNA-O
Ontology: Anthocyanidin-3-O-glycosides
COLLISIONENERGY: 10
FORMULA: C21H21O10
RETENTIONTIME: 3.1846
IONMODE: Negative
Comment: registered in RIKEN PlaSMA
Num Peaks: 13
118.12022	14
271.03766	17
283.99866	10
284.02573	66
284.03799	139
285.03662	628
285.06381	11
286.02832	12
286.04102	50
286.05215	26
287.01099	14
368.61288	22
431.09882	1000

NAME: Kaempferol-3-O-glucoside-2''-p-coumaroyl
PRECURSORMZ: 593.13006444783
PRECURSORTYPE: [M-H]-
INSTRUMENTTYPE: LC-ESI-QTOF
SMILES: OCC1OC(OC2=C(OC3=CC(O)=CC(O)=C3C2=O)C2=CC=C(O)C=C2)C(OC(=O)C=CC2=CC=C(O)C=C2)C(O)C1O
INCHIKEY: IKONEAPXVKTZFF-UHFFFAOYNA-N
Ontology: Flavonoid-3-O-glycosides
COLLISIONENERGY: 10
FORMULA: C30H26O13
RETENTIONTIME: 5.31575
IONMODE: Negative
Comment: registered in RIKEN PlaSMA
Num Peaks: 10
162.60158	8
268.92267	6
285.03812	756
286.04031	111
287.03876	21
307.08099	134
308.08167	17
447.09247	12
593.13	1000
593.18475	5

NAME: 6-Hydroxyflavanone
PRECURSORMZ: 239.07136774783
PRECURSORTYPE: [M-H]-
INSTRUMENTTYPE: LC-ESI-QTOF
SMILES: OC1=CC2=C(OC(CC2=O)C2=CC=CC=C2)C=C1
INCHIKEY: XYHWPQUEOOBIOW-UHFFFAOYNA-N
Ontology: Flavanones
COLLISIONENERGY: 10
FORMULA: C15H12O3
RETENTIONTIME: 7.163183
IONMODE: Negative
Comment: registered in RIKEN PlaSMA
Num Peaks: 29
79.01778	14
107.0123	103
108.01971	42
109.02618	33
131.04376	8
135.00641	218
135.01411	59
135.14937	12
135.89346	29
136.00449	8
156.05278	9
161.02159	45
167.08354	9
169.06575	12
180.05353	10
183.07408	11
183.08066	21
193.05804	9
195.08212	131
197.06691	13
211.07741	111
212.07359	18
216.92882	19
221.06393	29
222.0639	24
224.04607	9
238.06921	14
238.94994	10
239.07094	1000

NAME: Peonidin-3,5-O-di-beta-glucoside
PRECURSORMZ: 623.16120991576
PRECURSORTYPE: [M-2H]-
INSTRUMENTTYPE: LC-ESI-QTOF
SMILES: COC1=C(O)C=CC(=C1)C1=C(OC2OC(CO)C(O)C(O)C2O)C=C2C(OC3OC(CO)C(O)C(O)C3O)=CC(O)=CC2=[O+]1
INCHIKEY: IPVSUYLZIAYTOK-UHFFFAOYNA-O
Ontology: Anthocyanidin-5-O-glycosides
COLLISIONENERGY: 30
FORMULA: C28H33O16
RETENTIONTIME: 2.783517
IONMODE: Negative
Comment: registered in RIKEN PlaSMA
Num Peaks: 12
284.03192	67
286.0477	77
297.03705	77
298.04971	44
299.05673	1000
300.06216	218
302.07706	36
313.07159	36
446.07831	52
460.08981	46
460.1123	52
461.11566	38

NAME: Cyanidin-3-O-rhamnoside
PRECURSORMZ: 431.09782181576
PRECURSORTYPE: [M-2H]-
INSTRUMENTTYPE: LC-ESI-QTOF
SMILES: CC1OC(OC2=C([O+]=C3C=C(O)C=C(O)C3=C2)C2=CC(O)=C(O)C=C2)C(O)C(O)C1O
INCHIKEY: USWXMMRFOWNEOR-UHFFFAOYNA-O
Ontology: Anthocyanidin-3-O-glycosides
COLLISIONENERGY: 30
FORMULA: C21H21O10
RETENTIONTIME: 3.1846
IONMODE: Negative
Comment: registered in RIKEN PlaSMA
Num Peaks: 50
108.01823	38
119.01118	43
137.02145	58
147.00812	36
147.01804	41
147.04222	39
149.01897	62
161.02724	55
162.99747	49
167.04445	38
169.02032	34
172.05014	49
175.03709	38
176.00055	70
176.01105	109
176.01886	45
176.03897	47
177.01961	47
185.0545	38
189.05228	39
189.06052	51
200.04517	38
201.01192	47
211.03862	96
213.04929	98
214.02461	39
217.04602	39
224.04008	36
227.0341	81
228.04942	77
229.04887	92
230.05141	34
239.0361	39
240.03435	148
240.04248	137
241.00328	38
241.03351	47
241.04182	45
243.05569	36
255.02388	43
255.04414	43
255.53273	34
256.03485	152
257.03668	73
283.01617	62
283.02527	102
283.03912	34
284.03036	1000
285.01382	34
285.03854	664

NAME: Kaempferol-3-O-glucoside-2''-p-coumaroyl
PRECURSORMZ: 593.13006444783
PRECURSORTYPE: [M-H]-
INSTRUMENTTYPE: LC-ESI-QTOF
SMILES: OCC1OC(OC2=C(OC3=CC(O)=CC(O)=C3C2=O)C2=CC=C(O)C=C2)C(OC(=O)C=CC2=CC=C(O)C=C2)C(O)C1O
INCHIKEY: IKONEAPXVKTZFF-UHFFFAOYNA-N
Ontology: Flavonoid-3-O-glycosides
COLLISIONENERGY: 30
FORMULA: C30H26O13
RETENTIONTIME: 5.31575
IONMODE: Negative
Comment: registered in RIKEN PlaSMA
Num Peaks: 22
72.72027	5
93.03217	8
107.01069	11
119.05125	11
145.02765	89
146.02777	8
151.00175	75
152.0056	7
163.03589	34
165.05629	8
199.04028	9
213.04922	8
229.04944	9
241.05199	7
257.04218	37
258.04364	5
284.03055	24
285.03906	1000
286.04248	176
287.04279	31
307.08466	35
308.08319	18

NAME: 6-Hydroxyflavanone
PRECURSORMZ: 239.07136774783
PRECURSORTYPE: [M-H]-
INSTRUMENTTYPE: LC-ESI-QTOF
SMILES: OC1=CC2=C(OC(CC2=O)C2=CC=CC=C2)C=C1
INCHIKEY: XYHWPQUEOOBIOW-UHFFFAOYNA-N
Ontology: Flavanones
COLLISIONENERGY: 30
FORMULA: C15H12O3
RETENTIONTIME: 7.163183
IONMODE: Negative
Comment: registered in RIKEN PlaSMA
Num Peaks: 8
79.01612	1000
80.0199	66
107.01287	171
108.01692	345
108.02749	63
108.36042	77
210.067	98
236.04695	87

NAME: Peonidin-3,5-O-di-beta-glucoside
PRECURSORMZ: 623.16120991576
PRECURSORTYPE: [M-2H]-
INSTRUMENTTYPE: LC-ESI-QTOF
SMILES: COC1=C(O)C=CC(=C1)C1=C(OC2OC(CO)C(O)C(O)C2O)C=C2C(OC3OC(CO)C(O)C(O)C3O)=CC(O)=CC2=[O+]1
INCHIKEY: IPVSUYLZIAYTOK-UHFFFAOYNA-O
Ontology: Anthocyanidin-5-O-glycosides
COLLISIONENERGY: 50
FORMULA: C28H33O16
RETENTIONTIME: 2.783517
IONMODE: Negative
Comment: registered in RIKEN PlaSMA
Num Peaks: 20
147.0063	148
203.03987	200
211.02264	133
211.09457	148
214.02834	267
226.0271	133
227.0269	141
227.03824	133
255.03444	289
269.0484	496
270.0462	296
283.02481	200
283.03516	156
284.02493	415
284.03665	1000
285.01984	148
297.03506	437
299.04678	281
300.04871	200
308.02353	156

NAME: Cyanidin-3-O-rhamnoside
PRECURSORMZ: 431.09782181576
PRECURSORTYPE: [M-2H]-
INSTRUMENTTYPE: LC-ESI-QTOF
SMILES: CC1OC(OC2=C([O+]=C3C=C(O)C=C(O)C3=C2)C2=CC(O)=C(O)C=C2)C(O)C(O)C1O
INCHIKEY: USWXMMRFOWNEOR-UHFFFAOYNA-O
Ontology: Anthocyanidin-3-O-glycosides
COLLISIONENERGY: 50
FORMULA: C21H21O10
RETENTIONTIME: 3.1846
IONMODE: Negative
Comment: registered in RIKEN PlaSMA
Num Peaks: 19
106.00768	115
109.02268	137
119.00771	213
143.05069	109
147.00826	1000
166.0396	153
167.0535	153
171.0383	109
171.04645	126
185.0563	246
187.04044	148
195.04221	109
198.01622	120
213.00926	191
227.02512	142
227.04185	328
240.03413	104
255.04201	109
256.03293	131

NAME: Kaempferol-3-O-glucoside-2''-p-coumaroyl
PRECURSORMZ: 593.13006444783
PRECURSORTYPE: [M-H]-
INSTRUMENTTYPE: LC-ESI-QTOF
SMILES: OCC1OC(OC2=C(OC3=CC(O)=CC(O)=C3C2=O)C2=CC=C(O)C=C2)C(OC(=O)C=CC2=CC=C(O)C=C2)C(O)C1O
INCHIKEY: IKONEAPXVKTZFF-UHFFFAOYNA-N
Ontology: Flavonoid-3-O-glycosides
COLLISIONENERGY: 50
FORMULA: C30H26O13
RETENTIONTIME: 5.31575
IONMODE: Negative
Comment: registered in RIKEN PlaSMA
Num Peaks: 110
63.02422	13
65.041	20
91.01552	15
93.0329	44
94.03317	24
100.01349	15
104.8112	14
107.01144	72
107.0201	31
108.01296	13
108.01973	16
108.02495	13
109.03002	22
117.03672	92
118.03257	14
119.00605	18
119.04699	79
121.03438	25
123.00546	36
130.04536	33
131.04486	11
132.0459	15
133.02443	12
135.00679	92
136.00572	18
141.06996	15
143.04678	23
144.05042	23
145.02933	319
145.06476	28
146.033	42
147.00362	28
151.00128	252
152.00603	28
153.02353	16
156.06474	12
157.02328	15
157.0685	59
158.04381	25
158.06859	13
159.03746	24
159.04886	48
160.04327	16
160.05249	11
163.00275	119
163.03978	26
164.00269	29
165.01949	48
167.04967	29
168.0538	13
169.0593	30
170.03001	13
170.06328	12
171.03346	19
171.04514	102
172.04292	22
173.06677	12
174.02342	24
183.05913	17
184.04614	11
185.02547	11
185.05931	197
187.03241	47
187.04158	48
189.05472	13
191.00021	16
192.00613	18
195.04735	48
195.52782	21
196.0632	14
197.05579	53
197.06277	21
198.03264	14
199.03987	69
201.05125	12
211.03416	38
211.04312	42
212.05064	14
213.04544	56
213.05734	76
214.02461	16
214.05937	24
215.03844	50
225.56473	14
226.69366	11
227.03027	115
229.0475	375
230.05278	84
239.02275	29
239.03166	69
240.04311	75
240.93956	14
241.05109	39
255.01834	45
255.02914	111
255.0424	45
256.02603	53
257.04312	362
258.04822	29
258.05756	16
259.04745	14
267.01968	19
267.03439	43
268.04425	16
269.02219	13
283.02795	18
284.04379	48
285.03799	1000
286.04099	56
287.03525	13

NAME: 6-Hydroxyflavanone
PRECURSORMZ: 239.07136774783
PRECURSORTYPE: [M-H]-
INSTRUMENTTYPE: LC-ESI-QTOF
SMILES: OC1=CC2=C(OC(CC2=O)C2=CC=CC=C2)C=C1
INCHIKEY: XYHWPQUEOOBIOW-UHFFFAOYNA-N
Ontology: Flavanones
COLLISIONENERGY: 50
FORMULA: C15H12O3
RETENTIONTIME: 7.163183
IONMODE: Negative
Comment: registered in RIKEN PlaSMA
Num Peaks: 1
79.01845	1000

NAME: Peonidin-3,5-O-di-beta-glucoside
PRECURSORMZ: 623.16120991576
PRECURSORTYPE: [M-2H]-
INSTRUMENTTYPE: LC-ESI-QTOF
SMILES: COC1=C(O)C=CC(=C1)C1=C(OC2OC(CO)C(O)C(O)C2O)C=C2C(OC3OC(CO)C(O)C(O)C3O)=CC(O)=CC2=[O+]1
INCHIKEY: IPVSUYLZIAYTOK-UHFFFAOYNA-O
Ontology: Anthocyanidin-5-O-glycosides
COLLISIONENERGY: 10
FORMULA: C28H33O16
RETENTIONTIME: 2.783517
IONMODE: Negative
Comment: registered in RIKEN PlaSMA
Num Peaks: 17
188.04549	82
196.05013	75
240.03908	101
283.01639	119
297.04022	71
299.05331	1000
300.043	75
300.05838	116
443.03488	82
454.61749	86
460.09909	131
460.11368	131
461.08542	153
461.11786	854
462.11438	90
463.08633	104
623.16614	399

NAME: Cyanidin-3-O-rhamnoside
PRECURSORMZ: 431.09782181576
PRECURSORTYPE: [M-2H]-
INSTRUMENTTYPE: LC-ESI-QTOF
SMILES: CC1OC(OC2=C([O+]=C3C=C(O)C=C(O)C3=C2)C2=CC(O)=C(O)C=C2)C(O)C(O)C1O
INCHIKEY: USWXMMRFOWNEOR-UHFFFAOYNA-O
Ontology: Anthocyanidin-3-O-glycosides
COLLISIONENERGY: 10
FORMULA: C21H21O10
RETENTIONTIME: 3.1846
IONMODE: Negative
Comment: registered in RIKEN PlaSMA
Num Peaks: 32
131.01291	24
134.00046	52
147.01041	27
147.04489	35
148.00858	24
149.01566	23
162.26131	22
184.04019	21
189.05763	21
211.0273	30
211.03993	24
212.05467	51
213.05887	38
214.05849	27
218.05786	34
222.02771	25
222.05222	22
227.03377	57
239.03644	121
241.00938	29
241.04851	23
242.02444	37
255.00897	36
255.02908	99
257.0481	123
284.02393	237
284.03384	849
285.03888	1000
286.0405	79
300.05664	21
431.08453	101
431.10464	313

NAME: Kaempferol-3-O-glucoside-2''-p-coumaroyl
PRECURSORMZ: 593.13006444783
PRECURSORTYPE: [M-H]-
INSTRUMENTTYPE: LC-ESI-QTOF
SMILES: OCC1OC(OC2=C(OC3=CC(O)=CC(O)=C3C2=O)C2=CC=C(O)C=C2)C(OC(=O)C=CC2=CC=C(O)C=C2)C(O)C1O
INCHIKEY: IKONEAPXVKTZFF-UHFFFAOYNA-N
Ontology: Flavonoid-3-O-glycosides
COLLISIONENERGY: 10
FORMULA: C30H26O13
RETENTIONTIME: 5.31575
IONMODE: Negative
Comment: registered in RIKEN PlaSMA
Num Peaks: 20
145.03011	62
151.00267	38
163.0076	7
163.04025	17
229.05244	14
239.04056	5
241.04703	7
255.02699	15
257.04321	37
279.97836	5
284.02979	28
285.03958	1000
286.04462	169
287.04602	16
287.05621	8
307.07495	52
307.08499	38
308.08063	13
447.0907	7
593.12952	225

NAME: 6-Hydroxyflavanone
PRECURSORMZ: 239.07136774783
PRECURSORTYPE: [M-H]-
INSTRUMENTTYPE: LC-ESI-QTOF
SMILES: OC1=CC2=C(OC(CC2=O)C2=CC=CC=C2)C=C1
INCHIKEY: XYHWPQUEOOBIOW-UHFFFAOYNA-N
Ontology: Flavanones
COLLISIONENERGY: 10
FORMULA: C15H12O3
RETENTIONTIME: 7.163183
IONMODE: Negative
Comment: registered in RIKEN PlaSMA
Num Peaks: 24
79.01907	152
80.02431	36
107.01051	483
108.01852	209
108.02566	62
115.05698	36
135.007	465
136.00285	35
141.06905	32
157.062	30
161.01866	110
183.07071	39
193.07828	62
195.07779	258
196.05249	36
196.08821	42
197.06189	172
197.08124	32
210.05194	30
210.06464	133
211.07896	71
237.04366	51
237.0549	39
239.07005	1000

NAME: Peonidin-3,5-O-di-beta-glucoside
PRECURSORMZ: 623.16120991576
PRECURSORTYPE: [M-2H]-
INSTRUMENTTYPE: LC-ESI-QTOF
SMILES: COC1=C(O)C=CC(=C1)C1=C(OC2OC(CO)C(O)C(O)C2O)C=C2C(OC3OC(CO)C(O)C(O)C3O)=CC(O)=CC2=[O+]1
INCHIKEY: IPVSUYLZIAYTOK-UHFFFAOYNA-O
Ontology: Anthocyanidin-5-O-glycosides
COLLISIONENERGY: 10
FORMULA: C28H33O16
RETENTIONTIME: 2.783517
IONMODE: Negative
Comment: registered in RIKEN PlaSMA
Num Peaks: 10
285.01822	42
299.0527	49
299.07077	58
461.1152	1000
462.1109	333
463.10898	109
480.08051	72
578.00903	74
623.15936	553
623.17859	229

NAME: Cyanidin-3-O-rhamnoside
PRECURSORMZ: 431.09782181576
PRECURSORTYPE: [M-2H]-
INSTRUMENTTYPE: LC-ESI-QTOF
SMILES: CC1OC(OC2=C([O+]=C3C=C(O)C=C(O)C3=C2)C2=CC(O)=C(O)C=C2)C(O)C(O)C1O
INCHIKEY: USWXMMRFOWNEOR-UHFFFAOYNA-O
Ontology: Anthocyanidin-3-O-glycosides
COLLISIONENERGY: 10
FORMULA: C21H21O10
RETENTIONTIME: 3.1846
IONMODE: Negative
Comment: registered in RIKEN PlaSMA
Num Peaks: 16
159.99037	11
199.04379	16
227.89018	19
252.00667	10
256.02902	14
284.03143	247
285.03882	540
285.19727	11
286.02814	12
286.04343	15
286.05356	27
287.04395	19
299.05862	19
346.0553	16
355.55542	10
431.09958	1000

NAME: Kaempferol-3-O-glucoside-2''-p-coumaroyl
PRECURSORMZ: 593.13006444783
PRECURSORTYPE: [M-H]-
INSTRUMENTTYPE: LC-ESI-QTOF
SMILES: OCC1OC(OC2=C(OC3=CC(O)=CC(O)=C3C2=O)C2=CC=C(O)C=C2)C(OC(=O)C=CC2=CC=C(O)C=C2)C(O)C1O
INCHIKEY: IKONEAPXVKTZFF-UHFFFAOYNA-N
Ontology: Flavonoid-3-O-glycosides
COLLISIONENERGY: 10
FORMULA: C30H26O13
RETENTIONTIME: 5.31575
IONMODE: Negative
Comment: registered in RIKEN PlaSMA
Num Peaks: 9
278.49738	6
285.03851	813
286.03964	109
287.03806	10
307.08081	121
308.0806	21
429.08307	6
447.08484	10
593.13007	1000

NAME: 6-Hydroxyflavanone
PRECURSORMZ: 239.07136774783
PRECURSORTYPE: [M-H]-
INSTRUMENTTYPE: LC-ESI-QTOF
SMILES: OC1=CC2=C(OC(CC2=O)C2=CC=CC=C2)C=C1
INCHIKEY: XYHWPQUEOOBIOW-UHFFFAOYNA-N
Ontology: Flavanones
COLLISIONENERGY: 10
FORMULA: C15H12O3
RETENTIONTIME: 7.163183
IONMODE: Negative
Comment: registered in RIKEN PlaSMA
Num Peaks: 27
79.01631	9
107.01175	95
108.01926	74
109.02983	20
134.02982	10
134.15021	13
134.88951	10
135.00362	82
135.0087	205
136.01276	10
143.04655	11
167.09207	13
169.06236	19
177.07091	11
183.07436	9
193.06133	18
195.08015	88
197.06664	59
210.06865	8
211.07317	108
211.08459	15
212.08463	57
221.05901	21
222.06113	8
238.05392	13
239.06993	1000
239.13078	11

NAME: Peonidin-3,5-O-di-beta-glucoside
PRECURSORMZ: 623.16120991576
PRECURSORTYPE: [M-2H]-
INSTRUMENTTYPE: LC-ESI-QTOF
SMILES: COC1=C(O)C=CC(=C1)C1=C(OC2OC(CO)C(O)C(O)C2O)C=C2C(OC3OC(CO)C(O)C(O)C3O)=CC(O)=CC2=[O+]1
INCHIKEY: IPVSUYLZIAYTOK-UHFFFAOYNA-O
Ontology: Anthocyanidin-5-O-glycosides
COLLISIONENERGY: 30
FORMULA: C28H33O16
RETENTIONTIME: 2.783517
IONMODE: Negative
Comment: registered in RIKEN PlaSMA
Num Peaks: 16
297.03238	45
298.03827	101
298.05029	43
299.05307	1000
300.0517	119
300.06696	190
302.07379	63
339.08148	96
341.06647	74
342.06485	40
411.97931	43
460.09634	54
460.10971	40
462.10687	49
464.11179	54
471.96408	47

NAME: Cyanidin-3-O-rhamnoside
PRECURSORMZ: 431.09782181576
PRECURSORTYPE: [M-2H]-
INSTRUMENTTYPE: LC-ESI-QTOF
SMILES: CC1OC(OC2=C([O+]=C3C=C(O)C=C(O)C3=C2)C2=CC(O)=C(O)C=C2)C(O)C(O)C1O
INCHIKEY: USWXMMRFOWNEOR-UHFFFAOYNA-O
Ontology: Anthocyanidin-3-O-glycosides
COLLISIONENERGY: 30
FORMULA: C21H21O10
RETENTIONTIME: 3.1846
IONMODE: Negative
Comment: registered in RIKEN PlaSMA
Num Peaks: 39
109.03261	48
110.02773	49
135.00496	41
146.99869	32
147.00662	176
147.03326	39
148.00839	37
148.01578	108
149.01883	187
157.064	44
162.99771	79
171.04701	44
175.03214	34
175.04576	78
176.04436	53
185.06023	71
188.04834	78
189.01009	44
199.04129	42
200.04402	106
212.04759	49
217.045	37
218.05353	35
220.0587	56
227.04259	35
229.04613	83
230.05244	41
239.02959	90
240.03949	249
241.03343	108
254.02191	62
255.02615	139
256.03998	127
283.01569	97
283.02863	104
284.03403	1000
285.03531	646
286.03561	60
287.63867	35

NAME: Kaempferol-3-O-glucoside-2''-p-coumaroyl
PRECURSORMZ: 593.13006444783
PRECURSORTYPE: [M-H]-
INSTRUMENTTYPE: LC-ESI-QTOF
SMILES: OCC1OC(OC2=C(OC3=CC(O)=CC(O)=C3C2=O)C2=CC=C(O)C=C2)C(OC(=O)C=CC2=CC=C(O)C=C2)C(O)C1O
INCHIKEY: IKONEAPXVKTZFF-UHFFFAOYNA-N
Ontology: Flavonoid-3-O-glycosides
COLLISIONENERGY: 30
FORMULA: C30H26O13
RETENTIONTIME: 5.31575
IONMODE: Negative
Comment: registered in RIKEN PlaSMA
Num Peaks: 18
119.04953	9
145.02681	72
146.03438	7
151.00243	81
162.99986	5
163.03471	16
163.04408	9
229.04526	19
242.05742	5
257.03088	9
257.04489	42
258.03632	5
284.02713	23
285.03998	1000
286.04266	174
287.04755	13
307.08612	37
308.08768	8

NAME: 6-Hydroxyflavanone
PRECURSORMZ: 239.07136774783
PRECURSORTYPE: [M-H]-
INSTRUMENTTYPE: LC-ESI-QTOF
SMILES: OC1=CC2=C(OC(CC2=O)C2=CC=CC=C2)C=C1
INCHIKEY: XYHWPQUEOOBIOW-UHFFFAOYNA-N
Ontology: Flavanones
COLLISIONENERGY: 30
FORMULA: C15H12O3
RETENTIONTIME: 7.163183
IONMODE: Negative
Comment: registered in RIKEN PlaSMA
Num Peaks: 12
79.01868	1000
107.00858	63
108.01794	89
108.02376	96
134.03201	83
161.02803	79
169.06615	116
170.06277	99
184.07957	66
195.0414	66
210.05531	83
210.08234	129

NAME: Peonidin-3,5-O-di-beta-glucoside
PRECURSORMZ: 623.16120991576
PRECURSORTYPE: [M-2H]-
INSTRUMENTTYPE: LC-ESI-QTOF
SMILES: COC1=C(O)C=CC(=C1)C1=C(OC2OC(CO)C(O)C(O)C2O)C=C2C(OC3OC(CO)C(O)C(O)C3O)=CC(O)=CC2=[O+]1
INCHIKEY: IPVSUYLZIAYTOK-UHFFFAOYNA-O
Ontology: Anthocyanidin-5-O-glycosides
COLLISIONENERGY: 50
FORMULA: C28H33O16
RETENTIONTIME: 2.783517
IONMODE: Negative
Comment: registered in RIKEN PlaSMA
Num Peaks: 23
147.00865	633
148.00528	110
199.04535	188
211.036	92
223.03865	87
226.03619	92
238.0239	165
241.04485	92
241.06165	106
254.01224	239
255.02193	197
256.0293	216
268.03162	106
269.04898	92
274.55386	92
283.01886	225
283.03409	115
284.03296	1000
284.05276	92
285.02969	83
297.0365	317
315.92871	92
354.95618	110

NAME: Cyanidin-3-O-rhamnoside
PRECURSORMZ: 431.09782181576
PRECURSORTYPE: [M-2H]-
INSTRUMENTTYPE: LC-ESI-QTOF
SMILES: CC1OC(OC2=C([O+]=C3C=C(O)C=C(O)C3=C2)C2=CC(O)=C(O)C=C2)C(O)C(O)C1O
INCHIKEY: USWXMMRFOWNEOR-UHFFFAOYNA-O
Ontology: Anthocyanidin-3-O-glycosides
COLLISIONENERGY: 50
FORMULA: C21H21O10
RETENTIONTIME: 3.1846
IONMODE: Negative
Comment: registered in RIKEN PlaSMA
Num Peaks: 34
80.02218	94
95.01485	173
120.02068	94
134.93181	105
147.00539	429
148.00763	188
149.01649	115
154.03076	105
155.05476	99
157.03438	141
158.03328	94
167.04712	94
169.03235	105
170.04083	188
171.03943	356
172.04868	251
183.0406	304
184.03624	120
185.05968	251
188.04735	147
195.04384	220
201.01707	94
201.05345	120
210.03772	110
210.06407	157
211.04333	1000
212.04152	277
214.02765	298
215.03258	120
215.04358	178
227.03062	288
239.02995	225
255.03432	204
256.03745	304

NAME: Kaempferol-3-O-glucoside-2''-p-coumaroyl
PRECURSORMZ: 593.13006444783
PRECURSORTYPE: [M-H]-
INSTRUMENTTYPE: LC-ESI-QTOF
SMILES: OCC1OC(OC2=C(OC3=CC(O)=CC(O)=C3C2=O)C2=CC=C(O)C=C2)C(OC(=O)C=CC2=CC=C(O)C=C2)C(O)C1O
INCHIKEY: IKONEAPXVKTZFF-UHFFFAOYNA-N
Ontology: Flavonoid-3-O-glycosides
COLLISIONENERGY: 50
FORMULA: C30H26O13
RETENTIONTIME: 5.31575
IONMODE: Negative
Comment: registered in RIKEN PlaSMA
Num Peaks: 117
57.71898	10
65.00461	19
81.36403	11
83.01286	26
93.03226	11
103.01542	19
107.01175	175
108.01488	13
109.01511	15
109.02961	42
110.02852	16
117.03303	76
119.0451	84
119.05708	12
120.01825	13
120.05122	18
123.00128	15
123.01203	13
131.05096	23
135.00612	52
136.01207	25
136.02077	19
137.0143	12
137.03317	10
141.03487	25
143.04849	12
144.0528	37
145.02776	541
145.06464	11
146.03078	44
147.03636	14
151.00247	353
151.53677	13
152.00241	35
153.01823	28
155.04201	22
156.05115	12
157.02658	15
157.05812	14
158.06581	23
159.04471	70
161.02849	12
162.99542	29
163.00534	140
163.03218	11
163.04308	14
164.01213	67
165.01505	28
167.05051	41
168.06161	24
169.06122	50
169.06638	24
170.04039	13
171.03621	54
171.0466	58
172.04413	18
172.05667	11
174.0307	14
174.06279	23
177.05893	17
182.03355	14
183.04753	44
185.01263	12
185.0591	236
186.06462	17
187.03825	158
188.04309	25
192.00929	10
193.00992	16
195.03903	102
197.04599	13
197.05672	10
198.02988	16
199.04222	28
201.05176	80
210.02792	16
211.03766	117
211.04492	32
212.04237	11
213.05199	58
213.06529	14
214.01384	20
214.06081	19
215.05048	20
217.05302	20
223.04308	11
227.01376	10
227.03717	84
228.0267	12
229.04965	388
230.05556	71
231.04727	15
239.02643	52
240.03842	113
240.06664	11
240.23517	24
241.05354	125
242.0495	14
243.03098	44
243.05461	17
244.04276	20
246.90279	15
255.02966	162
256.02023	11
256.04016	29
257.04376	207
258.04883	10
259.04807	22
267.02985	45
284.02563	60
284.04092	25
285.04047	1000
286.03516	93
286.04541	83
287.04974	13
319.90237	10
348.16769	14

NAME: NP-000062(6)
PRECURSORMZ: 563.14062914783
PRECURSORTYPE: [M-H]-
INSTRUMENTTYPE: LC-ESI-QTOF
SMILES: OCC1OC(C(O)C1O)C1=C(O)C(C2OC(CO)C(O)C(O)C2O)=C2OC(=CC(=O)C2=C1O)C1=CC=C(O)C=C1
INCHIKEY: DRLZZQRQMWQRLZ-UHFFFAOYNA-N
Ontology: Flavonoid 8-C-glycosides
COLLISIONENERGY: 10
FORMULA: C26H28O14
RETENTIONTIME: 3.638367
IONMODE: Negative
Comment: registered in RIKEN PlaSMA
Num Peaks: 44
163.03792	6
268.07111	6
282.05191	6
283.05957	15
295.05975	6
296.06689	22
297.06839	24
297.07895	38
298.07971	11
307.05832	5
311.05576	15
323.05081	8
324.05743	17
325.06769	26
325.07684	11
326.07755	9
337.07339	12
353.06369	228
354.06662	48
354.08347	9
355.07156	16
365.06308	27
365.07236	12
383.07623	132
384.06699	17
384.08084	13
395.07663	23
397.07959	8
397.09811	8
413.08905	19
419.07312	5
425.0806	8
425.09787	7
443.09421	134
444.09894	56
455.08334	12
469.11307	6
473.10898	74
474.1037	15
474.11469	40
485.0986	9
503.11816	6
545.1347	7
563.13794	1000

NAME: NP-000062(6)
PRECURSORMZ: 563.14062914783
PRECURSORTYPE: [M-H]-
INSTRUMENTTYPE: LC-ESI-QTOF
SMILES: OCC1OC(C(O)C1O)C1=C(O)C(C2OC(CO)C(O)C(O)C2O)=C2OC(=CC(=O)C2=C1O)C1=CC=C(O)C=C1
INCHIKEY: DRLZZQRQMWQRLZ-UHFFFAOYNA-N
Ontology: Flavonoid 8-C-glycosides
COLLISIONENERGY: 10
FORMULA: C26H28O14
RETENTIONTIME: 3.638367
IONMODE: Negative
Comment: registered in RIKEN PlaSMA
Num Peaks: 3
443.10406	9
563.14026	1000
563.18555	7

NAME: NP-000062(6)
PRECURSORMZ: 563.14062914783
PRECURSORTYPE: [M-H]-
INSTRUMENTTYPE: LC-ESI-QTOF
SMILES: OCC1OC(C(O)C1O)C1=C(O)C(C2OC(CO)C(O)C(O)C2O)=C2OC(=CC(=O)C2=C1O)C1=CC=C(O)C=C1
INCHIKEY: DRLZZQRQMWQRLZ-UHFFFAOYNA-N
Ontology: Flavonoid 8-C-glycosides
COLLISIONENERGY: 30
FORMULA: C26H28O14
RETENTIONTIME: 3.638367
IONMODE: Negative
Comment: registered in RIKEN PlaSMA
Num Peaks: 86
117.03657	6
137.48235	6
161.02132	10
179.03499	8
180.043	5
191.03683	9
203.04369	13
205.04599	7
221.05063	10
245.04056	15
283.05374	17
295.04956	9
296.06903	34
297.0752	106
298.06796	6
298.08658	14
307.06699	8
311.04556	14
311.05484	35
321.03784	6
323.05164	19
324.05984	36
324.07724	11
325.06915	107
326.07028	16
327.0795	9
335.06284	24
337.06601	25
339.04956	11
339.08194	9
341.07678	8
351.04938	8
352.05179	7
352.75586	5
353.06686	1000
354.06766	247
355.07169	29
355.08633	28
357.08444	7
365.04889	14
365.06967	110
367.06143	8
368.08267	11
381.07684	15
383.07455	663
384.07773	71
384.09192	53
385.07321	6
389.08331	8
395.07343	65
396.07892	18
397.09583	16
398.08856	10
401.10342	8
407.06561	13
409.08102	12
409.10132	7
413.08493	68
414.08243	12
415.43155	6
419.07959	14
425.08331	31
425.10016	10
426.08859	7
441.07071	12
441.10782	5
443.09476	385
444.10007	84
445.10239	33
455.09335	26
455.1105	16
456.10648	14
457.10989	6
473.1113	227
473.14215	9
474.108	68
475.11435	6
475.12961	6
485.1235	6
486.12128	10
503.11032	11
515.11713	11
515.76758	5
545.14447	24
563.12256	32
563.14307	126

NAME: NP-000062(6)
PRECURSORMZ: 563.14062914783
PRECURSORTYPE: [M-H]-
INSTRUMENTTYPE: LC-ESI-QTOF
SMILES: OCC1OC(C(O)C1O)C1=C(O)C(C2OC(CO)C(O)C(O)C2O)=C2OC(=CC(=O)C2=C1O)C1=CC=C(O)C=C1
INCHIKEY: DRLZZQRQMWQRLZ-UHFFFAOYNA-N
Ontology: Flavonoid 8-C-glycosides
COLLISIONENERGY: 50
FORMULA: C26H28O14
RETENTIONTIME: 3.638367
IONMODE: Negative
Comment: registered in RIKEN PlaSMA
Num Peaks: 279
69.02924	8
69.03541	7
71.00806	11
71.59836	9
91.05692	10
93.03371	43
99.01263	9
108.01424	11
117.03306	144
119.05044	22
119.0556	9
120.05022	10
121.02731	25
121.06497	8
123.04495	8
125.42039	7
127.05726	10
131.04927	22
135.04378	123
136.04399	9
137.02443	28
139.03525	10
145.07002	8
146.0343	9
148.01492	8
149.03061	35
149.05835	32
151.02711	9
151.03293	14
158.0408	11
159.04655	47
159.05327	20
160.99881	9
161.01051	9
161.0256	94
161.05814	21
163.03004	13
163.04097	67
164.04459	22
167.05183	17
168.99817	8
171.04399	7
173.02713	18
173.05772	8
174.02299	19
175.04219	81
176.04536	22
177.01773	55
177.04263	10
177.05833	38
178.02267	9
179.0305	7
179.03815	9
179.04613	11
179.05936	11
181.05626	9
182.0432	10
183.04523	10
184.05396	9
185.01999	19
185.05296	8
186.03197	14
187.00122	9
187.04053	11
187.98051	8
188.05403	19
189.02339	82
189.04568	9
189.06024	8
190.02377	7
190.85741	8
191.02927	19
191.04048	20
192.00775	8
193.01245	8
193.05583	14
194.07103	8
195.06012	7
197.05464	34
198.05905	8
199.04912	19
200.043	9
201.01526	7
201.04802	8
202.02777	16
202.05284	9
203.03285	139
204.02391	8
204.04463	22
205.01718	15
205.0495	54
205.57436	11
206.07426	9
207.03004	22
207.07321	7
207.08797	28
209.05846	17
210.0667	17
211.07597	20
215.02898	7
215.03864	16
215.07365	9
217.0509	41
220.03926	11
220.05305	8
220.08974	13
220.26443	9
221.03381	16
221.04175	7
221.06317	10
222.06761	9
223.07217	27
224.07945	34
224.09187	10
225.0526	21
225.08446	8
226.05269	7
226.06415	8
227.03477	31
230.03165	25
231.02704	19
233.03865	19
233.06557	8
235.06731	34
235.08023	19
236.04326	10
236.052	7
236.08646	13
237.04681	19
237.05998	20
237.08913	13
238.07263	24
238.09698	9
241.01761	10
243.03204	8
245.0442	41
247.01834	9
248.05858	8
250.05139	9
251.06683	35
251.08324	13
253.05658	12
253.07851	15
253.0882	22
254.02541	9
254.0529	9
255.09822	9
257.05243	13
261.03806	9
262.04843	7
263.05859	9
263.07083	11
264.06485	9
265.03522	8
265.05765	17
265.07266	9
266.05884	10
267.02875	7
267.06104	22
267.07233	11
267.08536	9
268.03015	17
268.06766	8
269.03525	20
269.07993	9
270.04321	8
274.07089	7
276.06342	11
278.04852	8
278.05795	11
281.03632	28
281.05002	21
281.06201	25
281.08112	9
281.08975	10
282.03848	11
282.05576	127
283.06113	224
284.0614	8
284.07825	14
285.05298	8
290.05429	8
291.04242	9
291.06125	16
291.07303	8
292.08395	13
292.69772	13
293.04083	16
293.08188	16
293.62714	7
294.04733	7
295.03278	7
295.05853	295
296.06702	286
297.07541	1000
297.28259	8
297.43524	11
298.07697	167
298.19711	9
299.07053	23
299.08627	18
300.26773	9
300.7821	7
303.76706	8
304.20807	10
305.04608	9
306.04361	11
307.04019	9
307.05597	77
307.0683	44
309.02884	8
309.04266	8
309.06891	47
309.08231	61
310.06604	9
310.08749	31
311.03336	9
311.05917	15
311.07175	9
312.04559	8
315.38361	9
317.04041	9
319.04028	8
319.05484	7
319.0675	10
320.04657	8
320.06097	10
320.07895	9
321.03897	7
321.05154	12
321.09882	15
322.04272	11
322.05917	8
323.0524	110
323.06836	16
324.04251	7
324.05899	32
324.07117	14
325.04901	8
325.07297	219
326.07275	35
326.09052	18
331.09991	9
333.06335	8
333.52356	8
335.04016	8
335.06305	19
335.08896	9
335.10257	10
336.04453	12
336.05609	9
337.07416	67
337.09189	8
338.0639	16
338.07703	7
341.06732	22
348.06219	16
349.07736	7
353.06512	131
354.064	38
354.08112	36
355.06631	7
361.07019	8
363.06055	11
364.51099	8
365.05972	63
365.07907	22
366.06943	21
375.07526	11
383.07449	71
383.09604	16
384.07675	10
389.06512	9
395.05869	10
397.08765	10
399.05753	16
403.08139	7
413.07941	13
413.45853	12

NAME: NP-000062(6)
PRECURSORMZ: 563.14062914783
PRECURSORTYPE: [M-H]-
INSTRUMENTTYPE: LC-ESI-QTOF
SMILES: OCC1OC(C(O)C1O)C1=C(O)C(C2OC(CO)C(O)C(O)C2O)=C2OC(=CC(=O)C2=C1O)C1=CC=C(O)C=C1
INCHIKEY: DRLZZQRQMWQRLZ-UHFFFAOYNA-N
Ontology: Flavonoid 8-C-glycosides
COLLISIONENERGY: 10
FORMULA: C26H28O14
RETENTIONTIME: 3.638367
IONMODE: Negative
Comment: registered in RIKEN PlaSMA
Num Peaks: 45
117.03675	6
191.03371	7
201.05228	6
221.04666	16
233.03923	7
238.05617	6
268.07162	6
283.05377	9
295.06488	8
296.06979	27
297.07462	52
298.07404	12
307.05148	8
311.05835	14
324.06699	10
325.06454	16
325.07602	29
326.07458	14
337.07419	7
353.06555	200
354.06778	49
355.07086	16
365.05139	5
365.07019	25
366.06635	6
383.07492	112
384.07632	26
384.09158	16
395.07193	9
413.08264	11
414.08954	12
443.09647	146
443.12909	7
444.10291	29
445.10431	7
455.09195	16
456.08038	5
473.10709	86
474.10992	14
474.12595	17
515.12012	6
545.12805	11
545.15295	5
546.14069	10
563.13892	1000

NAME: NP-000062(6)
PRECURSORMZ: 563.14062914783
PRECURSORTYPE: [M-H]-
INSTRUMENTTYPE: LC-ESI-QTOF
SMILES: OCC1OC(C(O)C1O)C1=C(O)C(C2OC(CO)C(O)C(O)C2O)=C2OC(=CC(=O)C2=C1O)C1=CC=C(O)C=C1
INCHIKEY: DRLZZQRQMWQRLZ-UHFFFAOYNA-N
Ontology: Flavonoid 8-C-glycosides
COLLISIONENERGY: 10
FORMULA: C26H28O14
RETENTIONTIME: 3.638367
IONMODE: Negative
Comment: registered in RIKEN PlaSMA
Num Peaks: 2
443.09641	6
563.13727	1000

NAME: NP-000062(6)
PRECURSORMZ: 563.14062914783
PRECURSORTYPE: [M-H]-
INSTRUMENTTYPE: LC-ESI-QTOF
SMILES: OCC1OC(C(O)C1O)C1=C(O)C(C2OC(CO)C(O)C(O)C2O)=C2OC(=CC(=O)C2=C1O)C1=CC=C(O)C=C1
INCHIKEY: DRLZZQRQMWQRLZ-UHFFFAOYNA-N
Ontology: Flavonoid 8-C-glycosides
COLLISIONENERGY: 30
FORMULA: C26H28O14
RETENTIONTIME: 3.638367
IONMODE: Negative
Comment: registered in RIKEN PlaSMA
Num Peaks: 99
135.04347	13
149.02216	7
161.02307	15
178.13306	5
187.04024	9
191.04279	8
203.03552	8
229.01163	6
233.04115	12
245.04285	10
259.05972	7
263.05316	6
268.07318	5
268.08292	5
296.06644	21
296.08087	9
297.05759	14
297.07883	68
297.38495	5
298.07452	13
309.07156	7
311.0582	44
311.07251	11
321.03046	5
321.04694	7
323.05157	24
323.06232	15
324.0564	19
324.06717	20
325.06216	17
325.07431	77
329.23715	5
329.27878	6
333.07822	6
334.11942	8
335.04651	11
335.06168	9
335.08801	5
337.064	29
338.06488	8
341.06711	16
342.06024	6
351.04715	8
351.06924	8
353.06638	1000
354.0675	170
354.09131	15
355.05792	15
355.08148	43
356.07303	9
365.06284	59
366.06445	36
366.08252	10
367.05972	11
367.07761	12
381.0614	15
383.07623	592
384.0773	98
384.08841	36
385.07269	27
385.0842	9
393.05658	6
395.07812	77
395.13168	6
396.08185	8
397.07733	12
401.08942	6
407.08521	6
407.10184	9
413.07797	40
413.09448	35
414.09155	11
414.11795	8
425.07501	15
425.09198	18
426.0809	14
428.10468	6
437.07657	8
443.09677	440
444.10733	77
445.10245	16
455.09711	66
458.16537	6
473.10794	226
474.09824	49
474.11954	44
474.1423	9
485.09805	12
485.11563	21
486.11154	7
487.12415	7
488.11688	6
515.1084	8
515.12286	11
517.14532	7
527.11145	8
545.11475	8
563.14008	126
563.31537	6

NAME: NP-000062(6)
PRECURSORMZ: 563.14062914783
PRECURSORTYPE: [M-H]-
INSTRUMENTTYPE: LC-ESI-QTOF
SMILES: OCC1OC(C(O)C1O)C1=C(O)C(C2OC(CO)C(O)C(O)C2O)=C2OC(=CC(=O)C2=C1O)C1=CC=C(O)C=C1
INCHIKEY: DRLZZQRQMWQRLZ-UHFFFAOYNA-N
Ontology: Flavonoid 8-C-glycosides
COLLISIONENERGY: 50
FORMULA: C26H28O14
RETENTIONTIME: 3.638367
IONMODE: Negative
Comment: registered in RIKEN PlaSMA
Num Peaks: 301
71.01437	9
83.0128	12
85.02858	9
91.01474	10
91.05367	11
93.03255	24
95.01315	19
100.02309	8
101.03561	11
103.05159	14
103.85238	8
107.00851	11
111.00404	8
117.03353	146
118.0389	16
119.04939	61
120.01727	9
121.02982	17
124.38261	11
129.79047	8
131.04999	24
133.0365	11
133.05859	9
133.06601	9
135.04457	140
135.28326	8
136.04057	9
136.2253	7
137.02434	9
139.03992	10
143.04199	9
145.02457	11
145.03256	34
146.03221	9
147.03897	10
147.04883	8
147.08664	9
148.0139	10
148.05093	17
149.01543	11
149.02509	28
149.05948	25
150.02438	20
151.04456	12
155.05096	9
159.04478	69
160.01572	8
160.0475	9
161.02438	157
161.06055	38
162.0228	9
162.03194	9
163.03389	32
163.04321	36
163.0802	21
165.04155	8
166.9102	7
168.0601	10
169.05775	12
171.04243	9
173.02463	12
173.05814	8
174.81955	7
175.03998	62
175.05247	17
175.09445	7
175.16005	7
176.0341	11
176.04926	8
177.01712	16
177.05537	54
177.5538	9
178.01967	19
178.02917	15
178.05363	10
179.0349	32
179.0472	7
179.06927	10
181.0262	8
183.08305	7
185.01627	11
185.96487	8
186.0351	12
186.57341	7
187.04457	8
187.82407	9
189.02075	47
189.04099	8
189.04996	8
190.01753	10
190.03822	9
191.0302	68
191.03931	46
192.0388	8
195.04865	8
196.04356	18
197.05388	23
197.06488	11
199.00613	9
199.03685	35
199.07036	8
201.0219	8
203.02127	15
203.03337	71
204.21275	8
205.01518	32
205.04225	9
205.05661	14
207.08569	15
208.06563	11
208.07681	13
209.05637	12
209.06883	18
209.08911	13
210.06656	7
210.08232	10
211.07487	8
213.04967	11
215.03537	14
215.07153	18
217.00523	12
217.01956	18
217.04834	7
218.05534	16
219.02881	8
220.02655	10
221.03578	20
221.04648	14
223.07893	20
224.0457	8
224.08307	9
224.09093	9
225.05782	23
225.09628	29
226.09892	11
227.03905	7
227.06479	11
228.54832	8
230.02304	9
233.04089	16
233.05971	21
234.05717	9
235.02766	8
235.04112	8
236.04694	9
237.04211	19
237.06317	43
237.09656	21
238.0513	10
238.05905	7
238.74623	12
239.0654	11
239.07356	17
240.04472	16
241.08766	8
244.03482	12
245.05006	25
250.09671	8
251.08104	34
252.07658	8
252.0928	11
253.05205	9
253.09079	44
254.05339	17
255.06052	12
257.05042	8
259.06409	12
262.37164	8
263.05588	8
263.06638	8
263.0777	14
264.05557	10
264.07492	9
265.05566	10
265.08624	8
266.05304	7
267.0621	49
267.07819	7
268.05869	17
268.07425	50
268.08392	39
268.65872	7
269.06287	17
269.07651	18
273.03519	8
274.836	8
275.05814	13
278.06387	8
279.06339	32
279.08011	14
280.07367	16
281.04184	19
281.05096	35
281.08917	28
282.04868	136
282.06262	74
282.07733	6
282.37033	13
283.06161	161
283.08044	8
284.06415	38
284.08008	11
285.06497	7
286.07904	10
291.08255	17
293.03622	20
293.04755	7
293.09195	13
293.72543	12
294.04825	36
294.05948	14
295.0618	205
296.06415	254
296.07791	74
296.12531	8
296.26529	11
297.07532	1000
297.11664	8
298.07581	159
298.10001	9
298.55161	8
299.07669	44
301.69293	8
302.41278	10
303.06586	20
305.04327	10
306.03442	8
306.05609	8
307.05786	52
307.07385	64
308.02213	17
308.06265	27
309.02942	7
309.06549	48
309.07697	154
310.0502	11
310.06332	12
310.07748	17
310.0932	18
311.04193	18
311.05386	79
311.07898	7
313.04752	8
319.04935	7
321.06616	17
321.08606	12
322.04834	27
323.05255	145
323.07047	15
323.89621	9
324.05444	38
324.07736	16
325.07205	234
326.0723	32
326.38531	7
329.57965	8
331.05002	7
332.64676	8
333.02057	7
333.0311	9
334.11929	7
335.06067	49
335.08148	8
337.06845	56
337.07788	21
338.07449	10
338.08569	10
338.17606	8
345.46664	8
347.05933	7
348.05472	7
349.08054	11
350.06268	17
351.04785	11
351.07663	10
353.0549	46
353.06961	107
354.07364	62
355.08347	31
356.07095	8
361.06628	9
361.08093	11
362.07104	8
364.04089	8
365.06561	44
365.07687	21
365.715	8
366.06177	29
367.06903	11
368.06537	8
377.05566	9
378.06241	7
381.05521	7
383.05667	8
383.07544	42
384.08365	20
395.08536	15
396.07059	10
411.08258	9
461.86853	8
467.09393	8

NAME: NP-000062(6)
PRECURSORMZ: 563.14062914783
PRECURSORTYPE: [M-H]-
INSTRUMENTTYPE: LC-ESI-QTOF
SMILES: OCC1OC(C(O)C1O)C1=C(O)C(C2OC(CO)C(O)C(O)C2O)=C2OC(=CC(=O)C2=C1O)C1=CC=C(O)C=C1
INCHIKEY: DRLZZQRQMWQRLZ-UHFFFAOYNA-N
Ontology: Flavonoid 8-C-glycosides
COLLISIONENERGY: 10
FORMULA: C26H28O14
RETENTIONTIME: 3.638367
IONMODE: Negative
Comment: registered in RIKEN PlaSMA
Num Peaks: 43
205.05118	6
233.04131	5
282.04962	5
295.05856	7
295.07346	7
296.07181	15
297.07382	62
297.08963	8
298.09146	7
311.03772	6
311.0524	15
311.06293	11
323.0495	19
324.06143	11
325.06067	6
325.07782	17
326.07803	6
335.0538	6
337.07217	36
351.07135	6
353.06665	231
354.07181	59
355.07471	14
365.06659	17
366.0759	14
367.08243	9
383.07297	105
384.07761	41
385.0816	14
395.0777	15
396.08841	7
407.0838	6
413.08505	13
443.09756	140
444.0907	16
444.108	20
455.08432	9
455.10413	10
473.10187	44
473.11688	32
474.10602	21
485.10245	6
563.13995	1000

NAME: NP-000062(6)
PRECURSORMZ: 563.14062914783
PRECURSORTYPE: [M-H]-
INSTRUMENTTYPE: LC-ESI-QTOF
SMILES: OCC1OC(C(O)C1O)C1=C(O)C(C2OC(CO)C(O)C(O)C2O)=C2OC(=CC(=O)C2=C1O)C1=CC=C(O)C=C1
INCHIKEY: DRLZZQRQMWQRLZ-UHFFFAOYNA-N
Ontology: Flavonoid 8-C-glycosides
COLLISIONENERGY: 10
FORMULA: C26H28O14
RETENTIONTIME: 3.638367
IONMODE: Negative
Comment: registered in RIKEN PlaSMA
Num Peaks: 2
473.11197	7
563.14014	1000

NAME: NP-000062(6)
PRECURSORMZ: 563.14062914783
PRECURSORTYPE: [M-H]-
INSTRUMENTTYPE: LC-ESI-QTOF
SMILES: OCC1OC(C(O)C1O)C1=C(O)C(C2OC(CO)C(O)C(O)C2O)=C2OC(=CC(=O)C2=C1O)C1=CC=C(O)C=C1
INCHIKEY: DRLZZQRQMWQRLZ-UHFFFAOYNA-N
Ontology: Flavonoid 8-C-glycosides
COLLISIONENERGY: 30
FORMULA: C26H28O14
RETENTIONTIME: 3.638367
IONMODE: Negative
Comment: registered in RIKEN PlaSMA
Num Peaks: 111
117.03273	12
119.92271	6
149.0248	5
161.02724	8
163.04137	10
165.01556	7
177.01573	8
177.05527	7
186.06558	6
191.03156	11
205.04916	8
207.53372	5
221.04337	16
233.04382	11
245.04469	9
275.05637	5
277.03619	7
280.07159	5
282.05875	8
282.94308	5
283.05533	21
283.06702	8
293.05054	6
294.06012	7
296.06296	29
296.08292	5
297.06964	34
297.08246	45
298.07214	12
307.05951	15
308.0683	5
309.06586	11
310.80753	12
311.04492	32
311.05945	48
312.03778	6
312.05649	12
319.06064	8
321.07275	7
323.04333	21
323.05548	50
323.10895	6
324.04431	5
324.06589	37
325.06927	68
325.07944	31
326.07104	20
327.07751	11
335.05493	44
336.07321	7
337.06314	18
337.07822	18
341.06537	17
341.08362	11
342.07324	9
351.0477	16
353.06622	1000
354.06747	196
355.06302	29
355.07507	51
356.08429	8
365.06207	73
365.08109	14
366.06845	30
377.05676	9
381.05823	12
383.03506	9
383.07513	618
384.0546	7
384.07883	136
385.06799	9
385.08121	25
386.09177	7
395.07056	59
395.08072	27
395.09885	6
396.08102	6
397.08682	8
398.08978	9
398.10687	5
407.0719	6
413.07806	71
414.09055	10
415.10434	5
419.07184	9
425.06863	5
425.09378	41
426.08987	14
427.59116	6
437.09406	27
438.10031	5
443.0965	345
444.07672	11
444.10043	126
445.08603	5
445.10986	18
455.08322	20
455.09735	48
458.28986	6
473.10733	279
474.10312	23
474.11679	23
475.11194	11
485.11166	33
503.10529	7
515.11713	14
516.12201	5
546.11145	8
546.13666	10
549.26996	6
563.13544	203

NAME: NP-000062(6)
PRECURSORMZ: 563.14062914783
PRECURSORTYPE: [M-H]-
INSTRUMENTTYPE: LC-ESI-QTOF
SMILES: OCC1OC(C(O)C1O)C1=C(O)C(C2OC(CO)C(O)C(O)C2O)=C2OC(=CC(=O)C2=C1O)C1=CC=C(O)C=C1
INCHIKEY: DRLZZQRQMWQRLZ-UHFFFAOYNA-N
Ontology: Flavonoid 8-C-glycosides
COLLISIONENERGY: 50
FORMULA: C26H28O14
RETENTIONTIME: 3.638367
IONMODE: Negative
Comment: registered in RIKEN PlaSMA
Num Peaks: 287
71.01488	13
73.03082	8
79.01805	9
83.01506	8
91.05184	8
92.02196	16
92.0602	9
92.34338	9
93.03259	8
101.01874	12
103.05052	7
107.05134	28
109.02987	8
110.95179	8
115.05727	8
117.03415	173
119.04768	36
119.35356	6
123.04267	10
123.53502	6
124.0513	10
131.05031	17
132.02162	7
133.07047	13
133.86383	7
134.03419	7
135.00401	10
135.03593	20
135.04517	51
136.04576	10
137.02333	7
138.03053	11
138.9144	19
143.04814	17
144.05695	10
144.06606	10
145.02429	9
145.03151	10
145.06458	9
147.04559	47
148.77504	11
149.02516	27
149.05547	16
149.06041	7
150.03467	10
150.98953	7
151.03499	9
157.23624	6
157.5058	7
159.04482	47
159.07974	9
161.02344	118
161.06448	20
162.03389	20
162.99524	6
163.00385	10
163.03867	74
163.04713	18
164.04944	9
165.0244	10
170.06898	7
170.33012	8
170.84712	9
171.04399	12
172.03987	6
173.01988	8
173.05983	8
174.02901	9
175.01256	18
175.03589	46
175.04425	38
176.04713	26
177.01866	50
177.04668	8
177.05823	56
177.18314	7
178.06329	9
179.03767	41
181.06041	9
181.10648	10
181.34061	9
182.04192	8
183.04091	18
183.0826	8
185.02917	33
185.06606	6
187.03383	9
187.04028	26
188.01277	10
188.04367	14
189.00612	10
189.01927	38
189.05643	44
190.01811	8
191.0329	65
196.05116	15
197.05952	35
197.09244	15
198.05804	11
199.03757	19
201.01447	12
201.05664	10
202.02266	9
203.0204	8
203.0332	70
204.03242	6
204.04916	8
205.0193	17
205.05258	79
206.0157	9
206.073	8
207.086	8
209.06259	8
209.07518	9
209.08919	7
210.05721	7
210.07079	24
211.07425	9
215.05107	8
215.08005	9
216.00356	12
217.01393	14
217.05086	7
218.05376	8
218.07417	8
219.02603	7
219.05908	8
221.03958	17
223.0789	17
224.08859	59
225.05074	8
225.08322	9
225.31242	11
227.66702	18
228.04768	8
229.0878	7
231.02682	7
233.04221	9
233.05011	9
234.05119	18
235.05232	9
235.07632	16
237.04585	10
237.05916	23
237.09566	13
238.03429	8
238.06558	19
239.06563	14
240.04346	7
241.05533	16
245.04402	24
247.03589	11
247.07924	9
247.08841	8
248.08305	14
249.06989	9
250.06152	7
251.06999	14
251.08095	9
252.99463	8
253.04074	7
253.08537	39
254.08475	20
254.72791	10
255.06161	18
255.08269	9
257.04446	7
261.06616	8
262.06259	16
263.03354	8
263.07828	10
264.07037	10
265.05896	10
266.0545	8
266.0983	8
267.05768	9
267.06958	17
267.07877	14
268.04614	14
268.06662	17
268.07736	37
269.03751	17
269.07986	26
269.09088	8
270.01147	9
270.04675	7
271.02081	9
272.03265	9
275.04971	8
275.31485	7
276.25601	8
277.05466	8
277.60989	7
278.06052	11
278.37186	8
279.03513	10
279.06897	21
281.04132	56
281.05762	7
282.03802	15
282.05167	79
283.06274	233
284.05731	31
284.06897	9
290.06018	11
291.0567	9
291.07257	8
293.03378	15
293.07974	19
294.0014	7
294.0513	21
294.06244	39
294.09619	11
295.01001	8
295.06149	367
295.54984	6
296.06699	267
296.15067	11
297.07672	1000
298.07916	192
299.04944	8
299.0806	13
299.27597	11
302.05511	9
303.07968	8
304.07385	6
305.04596	11
305.08292	9
307.039	8
307.05664	114
307.0679	67
307.20346	6
308.03696	6
308.06174	7
308.0751	20
308.40451	7
309.07504	119
310.08121	15
311.05447	63
315.45062	10
319.06723	9
320.05566	10
321.04514	8
321.06088	11
321.07892	7
322.0452	7
323.05392	125
323.08026	8
324.06137	58
325.07123	208
326.0737	55
329.50308	8
333.06613	7
334.04608	8
335.04593	15
335.06415	6
336.05457	14
337.06711	39
337.08569	21
338.07779	35
340.05215	10
344.02948	13
346.07175	7
348.06122	12
349.09229	9
350.77173	11
351.04349	8
351.05499	10
353.06244	54
353.07666	67
354.0679	46
362.07162	10
365.06702	74
365.08459	9
366.07028	56
369.09189	7
377.04611	15
377.07166	8
381.0661	19
383.08084	60
389.04837	9
391.0932	8
395.0903	24
395.19485	12
397.08459	7
437.0715	10
467.09885	8

NAME: NP-000004(11)
PRECURSORMZ: 563.14062914783
PRECURSORTYPE: [M-H]-
INSTRUMENTTYPE: LC-ESI-QTOF
SMILES: OCC1OC(C(O)C1O)C1=C2OC(=CC(=O)C2=C(O)C(C2OC(CO)C(O)C(O)C2O)=C1O)C1=CC=C(O)C=C1
INCHIKEY: TUIJPUWSXVFWSH-UHFFFAOYNA-N
Ontology: Flavonoid 8-C-glycosides
COLLISIONENERGY: 10
FORMULA: C26H28O14
RETENTIONTIME: 3.550883
IONMODE: Negative
Comment: registered in RIKEN PlaSMA
Num Peaks: 45
110.04231	6
225.05185	9
271.04089	6
283.05054	8
295.06067	7
297.07254	50
298.07632	16
307.05927	14
311.05087	7
323.06061	13
325.07339	10
331.2655	5
335.05969	7
337.06003	8
341.06857	9
341.08398	6
352.05054	5
352.07016	5
353.06549	226
354.06238	24
354.07419	14
355.05441	8
355.07718	7
365.06226	11
366.0614	16
368.09027	6
383.07684	190
384.08072	33
385.08035	14
395.07474	24
396.0773	12
413.09	31
425.07812	32
441.11533	5
443.09534	82
443.18671	10
444.09964	14
458.11578	6
473.10901	129
474.11484	20
503.10941	10
520.67413	6
545.12323	12
562.93622	5
563.13794	1000

NAME: trans-Cinnamic acid
PRECURSORMZ: 147.04515304783
PRECURSORTYPE: [M-H]-
INSTRUMENTTYPE: LC-ESI-QTOF
SMILES: OC(=O)C=CC1=CC=CC=C1
INCHIKEY: WBYWAXJHAXSJNI-UHFFFAOYSA-N
Ontology: Cinnamic acids
COLLISIONENERGY: 10
FORMULA: C9H8O2
RETENTIONTIME: 5.851433
IONMODE: Negative
Comment: registered in RIKEN PlaSMA
Num Peaks: 3
103.05547	1000
104.05782	413
147.04526	522

NAME: NP-000004(11)
PRECURSORMZ: 563.14062914783
PRECURSORTYPE: [M-H]-
INSTRUMENTTYPE: LC-ESI-QTOF
SMILES: OCC1OC(C(O)C1O)C1=C2OC(=CC(=O)C2=C(O)C(C2OC(CO)C(O)C(O)C2O)=C1O)C1=CC=C(O)C=C1
INCHIKEY: TUIJPUWSXVFWSH-UHFFFAOYNA-N
Ontology: Flavonoid 8-C-glycosides
COLLISIONENERGY: 10
FORMULA: C26H28O14
RETENTIONTIME: 3.550883
IONMODE: Negative
Comment: registered in RIKEN PlaSMA
Num Peaks: 2
503.11172	8
563.1405	1000

NAME: trans-Cinnamic acid
PRECURSORMZ: 147.04515304783
PRECURSORTYPE: [M-H]-
INSTRUMENTTYPE: LC-ESI-QTOF
SMILES: OC(=O)C=CC1=CC=CC=C1
INCHIKEY: WBYWAXJHAXSJNI-UHFFFAOYSA-N
Ontology: Cinnamic acids
COLLISIONENERGY: 10
FORMULA: C9H8O2
RETENTIONTIME: 5.851433
IONMODE: Negative
Comment: registered in RIKEN PlaSMA
Num Peaks: 3
101.94095	58
103.05455	1000
147.04556	243

NAME: NP-000004(11)
PRECURSORMZ: 563.14062914783
PRECURSORTYPE: [M-H]-
INSTRUMENTTYPE: LC-ESI-QTOF
SMILES: OCC1OC(C(O)C1O)C1=C2OC(=CC(=O)C2=C(O)C(C2OC(CO)C(O)C(O)C2O)=C1O)C1=CC=C(O)C=C1
INCHIKEY: TUIJPUWSXVFWSH-UHFFFAOYNA-N
Ontology: Flavonoid 8-C-glycosides
COLLISIONENERGY: 30
FORMULA: C26H28O14
RETENTIONTIME: 3.550883
IONMODE: Negative
Comment: registered in RIKEN PlaSMA
Num Peaks: 147
155.04102	8
161.02289	8
200.15916	11
201.05205	6
213.05246	6
216.96931	9
221.04959	17
233.0394	6
235.05756	7
246.35445	10
251.06046	6
253.07957	6
253.09854	7
255.05901	6
267.09314	6
270.05316	6
272.03406	8
282.04803	14
283.05569	8
283.06927	9
284.06216	6
293.06433	19
293.08163	15
295.0502	6
295.06152	5
296.06271	22
296.07697	10
297.07678	51
297.15457	6
297.44498	5
298.07968	6
298.09094	13
307.05463	7
310.09256	6
311.05145	30
311.0636	58
311.09824	15
312.04999	18
320.32126	5
321.04837	5
322.07928	10
323.04758	12
323.05682	37
324.05554	52
324.07507	7
325.03586	8
325.06708	49
326.073	5
326.08456	6
326.45572	7
335.05719	7
336.18463	6
337.06631	27
337.08673	6
337.10083	9
339.10251	6
341.0954	5
351.04318	15
351.06436	6
353.06589	1000
354.06763	227
354.52713	6
354.66452	5
355.00922	6
355.05807	20
355.0755	43
358.19901	5
358.61798	8
360.50284	5
361.33084	5
365.0632	43
365.07751	44
366.09393	7
367.07306	8
379.09085	18
380.07062	6
380.08914	8
381.05389	8
383.0358	9
383.07611	719
384.05029	5
384.07962	136
384.11121	9
385.08038	19
385.09506	16
386.08496	6
389.06653	8
390.233	6
395.07007	84
395.09323	21
397.08691	7
397.10553	7
398.08948	7
403.56396	6
407.07733	50
407.0954	8
408.0795	10
411.07932	10
413.0795	52
413.09521	30
414.08652	5
414.1011	12
415.09561	5
421.69144	5
422.5592	7
425.0632	5
425.08459	77
426.08676	5
427.09238	5
427.11005	6
428.10059	9
431.0766	7
437.07117	5
437.09161	6
443.01477	7
443.08441	61
443.10083	130
443.12921	10
444.11325	19
445.60541	7
455.09882	7
455.10825	15
468.0994	6
473.0947	39
473.11298	127
474.10977	43
476.10489	6
476.1347	9
485.10849	7
485.36023	8
487.1315	6
492.10037	6
503.11032	13
503.12698	33
504.08078	6
504.13364	30
504.15259	6
515.14825	5
516.13141	6
517.82257	11
528.13116	6
535.93085	5
545.11896	6
562.98975	10
563.13019	57
563.14905	60
563.17932	10

NAME: trans-Cinnamic acid
PRECURSORMZ: 147.04515304783
PRECURSORTYPE: [M-H]-
INSTRUMENTTYPE: LC-ESI-QTOF
SMILES: OC(=O)C=CC1=CC=CC=C1
INCHIKEY: WBYWAXJHAXSJNI-UHFFFAOYSA-N
Ontology: Cinnamic acids
COLLISIONENERGY: 30
FORMULA: C9H8O2
RETENTIONTIME: 5.851433
IONMODE: Negative
Comment: registered in RIKEN PlaSMA
Num Peaks: 3
73.94492	465
77.03859	1000
116.92924	721

NAME: NP-000004(11)
PRECURSORMZ: 563.14062914783
PRECURSORTYPE: [M-H]-
INSTRUMENTTYPE: LC-ESI-QTOF
SMILES: OCC1OC(C(O)C1O)C1=C2OC(=CC(=O)C2=C(O)C(C2OC(CO)C(O)C(O)C2O)=C1O)C1=CC=C(O)C=C1
INCHIKEY: TUIJPUWSXVFWSH-UHFFFAOYNA-N
Ontology: Flavonoid 8-C-glycosides
COLLISIONENERGY: 50
FORMULA: C26H28O14
RETENTIONTIME: 3.550883
IONMODE: Negative
Comment: registered in RIKEN PlaSMA
Num Peaks: 196
60.66198	12
71.01038	14
81.03379	15
93.03309	31
103.06128	21
105.07327	11
107.01391	15
108.04831	11
109.02772	14
111.04553	11
117.02769	42
117.03583	70
118.02883	22
118.03698	15
119.04577	23
119.05463	14
119.95757	12
121.03651	14
121.04279	19
129.02408	11
130.04224	10
133.06424	29
135.0421	44
135.05092	38
137.01865	14
137.0248	14
144.05161	16
145.03203	18
146.03526	15
147.04161	37
148.01865	11
148.05515	12
149.02591	67
151.02747	12
151.03917	23
157.07295	12
159.04187	22
160.04509	33
161.02473	29
161.03143	17
162.032	48
163.04185	40
163.07965	11
164.00981	13
169.06438	12
171.04485	24
173.05487	29
174.03151	34
175.03569	13
175.04398	42
177.01582	50
177.04991	15
177.05836	55
178.02591	13
179.03705	11
182.07536	13
183.07733	12
185.03302	10
187.00473	11
188.01227	12
188.04489	44
189.0173	45
189.05634	12
190.43788	14
191.02945	15
193.05109	14
197.05753	37
199.02814	18
199.03619	23
201.02068	14
201.05161	16
201.06143	13
202.02486	10
203.02441	12
203.0414	23
205.01625	12
205.04741	25
205.06052	19
210.06227	11
211.07779	10
215.03271	13
217.01645	57
217.0472	27
217.05717	11
219.02856	34
219.06894	11
220.03986	16
221.071	17
222.05954	13
223.07463	43
224.03572	17
224.05165	19
224.08424	35
225.09399	12
229.01485	10
232.6792	13
233.04774	51
233.58786	10
234.05051	15
236.07309	13
237.05513	49
239.03093	17
239.04063	12
239.06508	10
243.06697	12
246.05853	12
249.06071	14
250.05644	12
251.0545	14
251.08095	12
252.06917	14
254.09807	35
259.07065	14
261.05292	10
262.0705	14
264.0354	18
265.03949	25
265.05197	19
267.07465	23
268.04303	11
268.06482	27
268.07553	39
269.03586	10
270.72925	16
277.05331	25
278.04099	13
279.08276	15
281.08914	11
282.05148	48
282.06879	13
282.19931	16
283.05865	165
283.33231	12
284.06055	11
290.05896	11
292.07376	11
294.05389	15
295.06186	266
296.06943	131
297.07761	1000
298.08279	159
299.07312	10
299.08655	11
302.05374	10
306.04556	27
306.05673	9
307.04483	25
307.05798	30
307.07169	25
307.09717	17
308.05829	11
308.07626	36
309.07059	115
309.09363	12
310.09088	13
311.05841	32
311.08008	14
312.04575	13
312.06915	23
313.06488	11
319.05661	15
321.03592	29
322.05945	13
323.05182	46
323.06329	68
324.04224	19
324.06836	61
324.19949	11
325.07425	162
326.06226	10
326.07996	22
335.03635	16
335.0535	27
336.05673	13
337.07584	82
337.35019	10
338.4725	10
339.07294	12
339.0896	13
341.58929	13
347.05814	12
348.05042	10
349.08145	11
353.06424	125
354.06616	53
355.0697	14
355.08328	14
365.06406	50
377.06741	22
378.06979	13
381.06323	10
383.07831	76
384.08334	13
389.38443	13
395.08176	12
409.11575	11

NAME: NP-000004(11)
PRECURSORMZ: 563.14062914783
PRECURSORTYPE: [M-H]-
INSTRUMENTTYPE: LC-ESI-QTOF
SMILES: OCC1OC(C(O)C1O)C1=C2OC(=CC(=O)C2=C(O)C(C2OC(CO)C(O)C(O)C2O)=C1O)C1=CC=C(O)C=C1
INCHIKEY: TUIJPUWSXVFWSH-UHFFFAOYNA-N
Ontology: Flavonoid 8-C-glycosides
COLLISIONENERGY: 10
FORMULA: C26H28O14
RETENTIONTIME: 3.550883
IONMODE: Negative
Comment: registered in RIKEN PlaSMA
Num Peaks: 63
149.03221	7
163.03835	6
167.0379	8
233.04349	8
245.04657	9
283.05569	10
291.06424	6
295.05826	19
296.06424	11
296.99927	6
297.07043	13
297.08331	23
298.07501	11
306.05569	7
307.06241	5
310.05569	6
311.05457	21
320.07425	5
323.05447	8
325.05716	12
325.07712	51
326.07651	8
337.06171	7
337.07422	13
337.08481	12
353.06467	234
354.05783	15
354.07309	41
365.06754	9
366.07016	9
378.08026	6
383.06931	88
383.08224	139
384.07349	13
384.08298	25
385.07806	15
385.09482	7
394.89832	8
395.08008	27
413.08939	25
414.09869	7
420.07471	6
425.07648	15
426.09515	9
443.09653	119
443.12711	9
444.09174	11
444.10724	10
455.09763	8
467.10464	7
471.09268	5
473.11008	105
474.11383	8
485.09775	10
485.11523	13
503.1217	36
503.13235	11
504.12878	21
508.68857	6
533.12024	10
545.12823	8
546.13	10
563.14093	1000

NAME: trans-Cinnamic acid
PRECURSORMZ: 147.04515304783
PRECURSORTYPE: [M-H]-
INSTRUMENTTYPE: LC-ESI-QTOF
SMILES: OC(=O)C=CC1=CC=CC=C1
INCHIKEY: WBYWAXJHAXSJNI-UHFFFAOYSA-N
Ontology: Cinnamic acids
COLLISIONENERGY: 10
FORMULA: C9H8O2
RETENTIONTIME: 5.851433
IONMODE: Negative
Comment: registered in RIKEN PlaSMA
Num Peaks: 3
103.05501	1000
147.04327	132
147.05441	126

NAME: NP-000004(11)
PRECURSORMZ: 563.14062914783
PRECURSORTYPE: [M-H]-
INSTRUMENTTYPE: LC-ESI-QTOF
SMILES: OCC1OC(C(O)C1O)C1=C2OC(=CC(=O)C2=C(O)C(C2OC(CO)C(O)C(O)C2O)=C1O)C1=CC=C(O)C=C1
INCHIKEY: TUIJPUWSXVFWSH-UHFFFAOYNA-N
Ontology: Flavonoid 8-C-glycosides
COLLISIONENERGY: 10
FORMULA: C26H28O14
RETENTIONTIME: 3.550883
IONMODE: Negative
Comment: registered in RIKEN PlaSMA
Num Peaks: 3
353.064	7
563.13867	1000
563.19061	7

NAME: trans-Cinnamic acid
PRECURSORMZ: 147.04515304783
PRECURSORTYPE: [M-H]-
INSTRUMENTTYPE: LC-ESI-QTOF
SMILES: OC(=O)C=CC1=CC=CC=C1
INCHIKEY: WBYWAXJHAXSJNI-UHFFFAOYSA-N
Ontology: Cinnamic acids
COLLISIONENERGY: 10
FORMULA: C9H8O2
RETENTIONTIME: 5.851433
IONMODE: Negative
Comment: registered in RIKEN PlaSMA
Num Peaks: 4
103.05444	1000
103.06216	186
104.05725	91
147.04076	74

NAME: NP-000004(11)
PRECURSORMZ: 563.14062914783
PRECURSORTYPE: [M-H]-
INSTRUMENTTYPE: LC-ESI-QTOF
SMILES: OCC1OC(C(O)C1O)C1=C2OC(=CC(=O)C2=C(O)C(C2OC(CO)C(O)C(O)C2O)=C1O)C1=CC=C(O)C=C1
INCHIKEY: TUIJPUWSXVFWSH-UHFFFAOYNA-N
Ontology: Flavonoid 8-C-glycosides
COLLISIONENERGY: 30
FORMULA: C26H28O14
RETENTIONTIME: 3.550883
IONMODE: Negative
Comment: registered in RIKEN PlaSMA
Num Peaks: 123
117.02872	7
117.03522	8
119.05152	10
149.02332	10
164.03957	8
179.03746	8
191.0358	20
201.05513	6
203.02571	7
219.06816	6
221.04654	21
233.04091	11
233.05998	8
235.0657	5
238.61662	5
251.06749	13
256.30295	7
259.0394	5
283.05072	6
283.07242	14
293.08655	8
295.05658	11
295.09314	6
296.08466	6
297.05396	9
297.07748	60
298.0726	13
299.08347	6
301.02875	5
303.05957	8
304.87256	8
307.06546	7
308.06717	7
309.04077	5
311.04114	8
311.05698	6
312.05399	11
312.20792	8
321.03528	6
323.0397	6
323.05606	50
323.0907	6
324.06281	17
324.0726	12
325.06546	47
325.08545	8
326.08066	30
326.34225	7
327.06769	19
330.89746	7
335.04547	12
335.06125	19
337.069	36
342.06064	5
342.07996	7
347.06287	6
348.49091	8
352.06656	5
352.08908	8
353.06662	1000
354.06683	150
355.07364	79
355.09354	13
363.04431	6
363.09677	6
365.06808	82
366.06604	26
367.07745	17
368.0809	6
369.0629	11
377.06094	6
380.29736	11
381.09698	13
383.07697	699
384.07925	172
384.09924	36
385.07269	6
385.09384	23
394.65906	7
395.07019	56
395.08862	31
396.07007	7
396.0834	21
397.09436	17
397.11676	5
404.79932	8
404.87677	5
407.08286	20
408.08249	14
413.07208	13
413.08856	62
413.1087	22
414.0928	22
419.07626	12
424.98108	7
425.0921	88
426.08835	45
428.11499	6
437.09268	7
441.08572	9
443.09299	108
443.10858	42
444.0798	6
444.10718	38
455.13431	5
456.10516	23
464.10437	5
473.10764	179
473.14459	10
474.08566	6
474.11682	15
479.11212	5
485.10843	27
503.09564	6
503.12524	28
504.12515	6
520.62103	5
527.10382	7
545.12897	36
546.13306	14
563.13062	54
563.15167	32
563.16956	16

NAME: NP-000004(11)
PRECURSORMZ: 563.14062914783
PRECURSORTYPE: [M-H]-
INSTRUMENTTYPE: LC-ESI-QTOF
SMILES: OCC1OC(C(O)C1O)C1=C2OC(=CC(=O)C2=C(O)C(C2OC(CO)C(O)C(O)C2O)=C1O)C1=CC=C(O)C=C1
INCHIKEY: TUIJPUWSXVFWSH-UHFFFAOYNA-N
Ontology: Flavonoid 8-C-glycosides
COLLISIONENERGY: 50
FORMULA: C26H28O14
RETENTIONTIME: 3.550883
IONMODE: Negative
Comment: registered in RIKEN PlaSMA
Num Peaks: 204
93.02943	15
93.03474	18
95.01307	15
107.04918	11
109.02465	16
114.02641	13
117.02913	62
117.03726	141
119.0461	27
121.03211	14
129.21263	12
131.05634	15
133.02455	12
133.03375	32
133.05937	12
135.04181	12
135.04878	51
135.05627	18
136.04984	13
145.02423	16
145.03108	23
147.04175	56
148.01538	21
149.02348	16
149.05995	14
149.06546	13
150.02997	36
152.00067	15
155.05385	12
157.02895	19
159.04277	51
159.05266	18
159.08412	35
161.02441	107
161.06781	17
162.03084	47
162.03915	28
163.04134	69
169.07022	16
173.02003	13
173.05005	15
173.05809	21
174.03455	12
175.03685	134
177.02153	75
177.05696	90
178.05833	27
179.02452	13
181.07072	12
182.03023	11
182.07198	19
183.0771	19
185.05438	12
186.0307	15
187.05614	14
188.00536	15
188.0183	19
189.01323	26
189.02228	14
189.05174	33
189.06345	28
191.03328	119
195.047	12
196.06042	25
197.09673	21
197.10974	11
198.02528	11
199.0428	11
203.02525	29
204.0378	18
204.04791	15
205.04523	16
205.05632	13
206.05263	18
207.07645	21
208.05792	34
209.05986	14
209.10303	12
210.0645	44
211.04253	12
213.05539	14
216.07738	12
217.04668	43
219.03244	12
220.64735	19
224.07506	12
225.04475	15
225.05998	22
225.08327	15
225.0936	12
226.09972	16
228.07532	15
230.01579	16
230.0347	15
233.03699	11
233.05019	19
237.05904	18
237.09032	13
238.0593	12
238.07138	25
241.05554	18
242.05186	17
243.07745	22
244.04716	19
245.04405	12
247.05849	13
249.0504	18
250.05313	15
252.05113	15
252.07837	15
252.54233	11
253.05687	16
253.07681	16
253.0898	41
254.08357	11
254.0956	18
258.05685	13
266.06039	11
267.06369	11
267.07416	41
267.37891	12
268.02777	15
268.04532	16
268.07312	15
268.08582	15
269.04379	30
273.09506	12
277.04761	18
279.0657	12
280.02969	21
281.04279	140
281.07797	15
282.05585	102
282.06476	40
283.06158	199
283.08661	14
284.07199	30
287.05591	19
288.06812	12
289.08807	16
290.02203	19
291.06342	31
293.08084	27
294.04984	16
295.0549	123
295.07269	31
296.07022	282
297.07693	1000
298.07669	170
299.08685	31
300.07584	40
306.04352	13
307.04855	52
307.06183	54
308.03189	11
308.0517	11
308.06555	31
308.09552	12
309.07129	33
309.08398	53
310.04926	15
310.07413	41
310.08621	72
311.022	12
311.04837	41
319.05652	13
320.06357	12
321.03986	17
322.04684	64
323.05252	111
323.06528	24
324.0538	28
324.06854	53
325.0553	14
325.07562	223
326.07852	38
335.05615	25
336.08963	17
337.07181	156
339.05887	13
345.07193	16
347.04871	17
347.07242	11
351.05917	20
353.06686	217
354.07358	11
354.0889	11
355.06677	28
355.08249	29
356.09	14
364.83887	12
365.05252	50
365.06696	28
365.09064	11
366.0791	16
372.07568	18
377.04553	11
383.08301	59
384.08414	47
390.07693	18
407.07394	15
409.09903	16
419.06891	12
498.81531	11

NAME: trans-Cinnamic acid
PRECURSORMZ: 147.04515304783
PRECURSORTYPE: [M-H]-
INSTRUMENTTYPE: LC-ESI-QTOF
SMILES: OC(=O)C=CC1=CC=CC=C1
INCHIKEY: WBYWAXJHAXSJNI-UHFFFAOYSA-N
Ontology: Cinnamic acids
COLLISIONENERGY: 50
FORMULA: C9H8O2
RETENTIONTIME: 5.851433
IONMODE: Negative
Comment: registered in RIKEN PlaSMA
Num Peaks: 1
112.98884	1000

NAME: NP-000004(11)
PRECURSORMZ: 563.14062914783
PRECURSORTYPE: [M-H]-
INSTRUMENTTYPE: LC-ESI-QTOF
SMILES: OCC1OC(C(O)C1O)C1=C2OC(=CC(=O)C2=C(O)C(C2OC(CO)C(O)C(O)C2O)=C1O)C1=CC=C(O)C=C1
INCHIKEY: TUIJPUWSXVFWSH-UHFFFAOYNA-N
Ontology: Flavonoid 8-C-glycosides
COLLISIONENERGY: 10
FORMULA: C26H28O14
RETENTIONTIME: 3.550883
IONMODE: Negative
Comment: registered in RIKEN PlaSMA
Num Peaks: 52
191.02953	8
203.03419	7
245.04588	8
253.08	5
268.07001	6
283.06311	7
296.06125	14
296.07471	10
297.06207	9
297.0827	15
298.08011	10
301.0412	5
311.05542	33
312.0509	10
323.05283	10
324.06815	8
325.07877	26
325.10382	5
326.07852	6
337.07153	13
343.16629	5
353.06604	295
353.09277	8
354.0672	46
354.08463	8
355.07233	11
356.06119	5
365.05905	23
365.0752	20
383.0748	212
384.07468	32
385.08966	13
397.08627	11
408.0686	8
413.08563	30
425.08914	23
443.09744	101
443.12698	8
444.10748	25
455.08359	6
473.10721	101
473.13321	8
474.09409	6
474.11142	25
475.11475	7
490.81595	6
503.10983	38
503.13	12
504.12466	7
534.13342	7
545.12854	25
563.13922	1000

NAME: trans-Cinnamic acid
PRECURSORMZ: 147.04515304783
PRECURSORTYPE: [M-H]-
INSTRUMENTTYPE: LC-ESI-QTOF
SMILES: OC(=O)C=CC1=CC=CC=C1
INCHIKEY: WBYWAXJHAXSJNI-UHFFFAOYSA-N
Ontology: Cinnamic acids
COLLISIONENERGY: 10
FORMULA: C9H8O2
RETENTIONTIME: 5.851433
IONMODE: Negative
Comment: registered in RIKEN PlaSMA
Num Peaks: 3
103.05198	394
103.05558	1000
147.0437	239

NAME: NP-000004(11)
PRECURSORMZ: 563.14062914783
PRECURSORTYPE: [M-H]-
INSTRUMENTTYPE: LC-ESI-QTOF
SMILES: OCC1OC(C(O)C1O)C1=C2OC(=CC(=O)C2=C(O)C(C2OC(CO)C(O)C(O)C2O)=C1O)C1=CC=C(O)C=C1
INCHIKEY: TUIJPUWSXVFWSH-UHFFFAOYNA-N
Ontology: Flavonoid 8-C-glycosides
COLLISIONENERGY: 10
FORMULA: C26H28O14
RETENTIONTIME: 3.550883
IONMODE: Negative
Comment: registered in RIKEN PlaSMA
Num Peaks: 2
473.11407	8
563.13916	1000

NAME: trans-Cinnamic acid
PRECURSORMZ: 147.04515304783
PRECURSORTYPE: [M-H]-
INSTRUMENTTYPE: LC-ESI-QTOF
SMILES: OC(=O)C=CC1=CC=CC=C1
INCHIKEY: WBYWAXJHAXSJNI-UHFFFAOYSA-N
Ontology: Cinnamic acids
COLLISIONENERGY: 10
FORMULA: C9H8O2
RETENTIONTIME: 5.851433
IONMODE: Negative
Comment: registered in RIKEN PlaSMA
Num Peaks: 3
103.05409	1000
104.05474	107
147.0419	56

NAME: NP-000004(11)
PRECURSORMZ: 563.14062914783
PRECURSORTYPE: [M-H]-
INSTRUMENTTYPE: LC-ESI-QTOF
SMILES: OCC1OC(C(O)C1O)C1=C2OC(=CC(=O)C2=C(O)C(C2OC(CO)C(O)C(O)C2O)=C1O)C1=CC=C(O)C=C1
INCHIKEY: TUIJPUWSXVFWSH-UHFFFAOYNA-N
Ontology: Flavonoid 8-C-glycosides
COLLISIONENERGY: 30
FORMULA: C26H28O14
RETENTIONTIME: 3.550883
IONMODE: Negative
Comment: registered in RIKEN PlaSMA
Num Peaks: 107
113.01752	7
117.03743	7
191.03171	5
221.04404	7
221.05365	5
225.05377	10
227.02573	8
245.03348	12
245.0457	8
246.05177	5
253.04431	5
263.05106	6
271.01895	12
275.06705	5
280.91031	6
281.05106	6
282.04276	16
284.05844	15
296.07062	11
296.07919	8
297.07623	66
307.05792	11
307.91702	8
309.06454	6
311.04428	7
311.06213	56
312.05191	13
321.05051	7
321.0788	7
323.05377	42
323.07187	6
324.0574	37
324.07251	7
325.05399	22
325.06964	72
326.07089	16
335.04257	5
337.06989	26
337.26669	7
338.06686	5
342.0722	5
352.84637	6
353.06586	1000
354.06915	203
355.07822	26
356.09515	8
357.99802	5
361.07019	7
364.0444	6
365.06665	125
366.06641	16
367.07941	9
379.06357	5
379.09225	10
381.06647	7
382.94614	6
383.01547	11
383.07541	731
384.08069	158
385.07269	7
386.04642	5
386.08279	6
389.04669	8
389.06332	6
393.09836	6
395.06467	32
395.96252	9
396.06766	6
397.07544	6
399.08237	7
407.07126	11
407.08826	16
411.07425	11
412.09042	6
413.0802	63
413.09915	19
413.11612	12
414.09024	36
419.09317	7
425.07449	24
425.08853	33
425.10254	12
426.08328	24
443.07947	52
443.09781	120
444.10318	48
445.11246	5
449.07913	7
450.08661	7
455.09512	20
456.09912	6
457.79099	6
473.10623	127
474.11877	45
475.10342	10
475.12524	12
485.08707	18
498.13336	5
503.11774	36
503.13461	18
528.112	5
545.12323	33
545.14575	5
546.13617	5
548.1579	6
563.12732	61
563.14368	69

NAME: NP-000004(11)
PRECURSORMZ: 563.14062914783
PRECURSORTYPE: [M-H]-
INSTRUMENTTYPE: LC-ESI-QTOF
SMILES: OCC1OC(C(O)C1O)C1=C2OC(=CC(=O)C2=C(O)C(C2OC(CO)C(O)C(O)C2O)=C1O)C1=CC=C(O)C=C1
INCHIKEY: TUIJPUWSXVFWSH-UHFFFAOYNA-N
Ontology: Flavonoid 8-C-glycosides
COLLISIONENERGY: 50
FORMULA: C26H28O14
RETENTIONTIME: 3.550883
IONMODE: Negative
Comment: registered in RIKEN PlaSMA
Num Peaks: 172
77.03697	13
78.00687	19
83.01366	19
91.05423	19
93.03264	12
95.01422	15
105.0351	17
117.03674	66
119.04981	60
123.00822	15
130.04753	13
131.03046	13
131.05185	35
135.04187	57
135.04924	35
135.05855	21
145.02821	36
146.02078	11
146.03677	20
149.02364	16
151.0405	18
155.05075	15
159.03584	13
159.0488	13
161.02351	109
162.0275	34
163.03268	13
163.04066	50
164.00351	22
171.04294	13
173.05534	34
174.02934	26
174.03685	11
174.9982	15
175.03653	155
175.05121	15
176.00897	12
177.05363	93
177.06602	15
179.03279	12
179.04234	28
181.06386	12
182.03241	12
187.01151	22
187.04396	24
188.00679	18
189.02411	44
189.05295	44
191.03398	19
193.01408	15
193.04539	18
196.05107	16
197.05553	28
199.03346	12
201.0162	27
201.05614	13
202.05453	19
203.03365	73
204.04779	27
207.089	20
210.06656	27
211.07729	67
215.02599	21
215.03873	15
217.0128	11
219.02608	12
219.06265	23
219.0816	11
221.05597	46
222.06561	29
224.07248	18
224.0909	22
225.05276	15
225.09085	18
233.05153	38
234.07608	24
235.03535	11
235.06979	36
236.0368	12
236.04524	18
236.07915	14
237.06656	15
238.05986	15
239.03502	11
239.07213	23
240.07849	15
241.03993	11
241.05241	14
241.10254	11
249.06845	14
249.09164	19
252.07735	15
253.08987	39
253.22551	21
254.98671	13
263.07422	12
265.05328	19
267.07465	26
268.07492	25
268.29559	16
269.03668	13
269.07986	14
271.02914	11
277.0484	14
279.05807	28
279.07358	27
281.03146	15
281.04123	20
281.05804	19
281.09015	13
282.03488	13
282.05429	87
283.0563	192
283.07306	34
284.05966	14
284.07193	18
285.06406	12
289.04086	17
293.02997	12
293.07761	27
295.05563	303
295.06778	161
296.0683	397
297.07779	1000
297.15689	13
298.06073	16
298.082	85
298.2305	11
299.08072	80
299.09338	20
305.04291	13
306.05255	42
307.05066	21
307.06931	47
308.07034	30
309.07974	192
310.06662	16
310.0787	33
311.04474	11
311.05875	21
311.09369	11
321.04105	12
322.05112	12
323.04733	72
323.06113	56
324.05884	138
325.06549	71
325.07394	129
326.07861	53
327.06967	12
331.06558	14
335.05817	13
336.05231	14
337.0668	160
337.10437	15
338.07263	38
339.07693	30
348.05682	14
351.09198	12
353.07288	121
354.07205	59
355.06723	12
365.06781	72
366.06793	11
366.98547	16
367.02612	12
383.07117	81
383.08871	25
384.0412	30
384.08417	13
395.08691	32
485.10815	12

NAME: NP-000002(10)
PRECURSORMZ: 593.15119384783
PRECURSORTYPE: [M-H]-
INSTRUMENTTYPE: LC-ESI-QTOF
SMILES: OCC1OC(C(O)C(O)C1O)C1=C(O)C(C2OC(CO)C(O)C(O)C2O)=C2OC(=CC(=O)C2=C1O)C1=CC=C(O)C=C1
INCHIKEY: FIAAVMJLAGNUKW-UHFFFAOYNA-N
Ontology: Flavonoid 8-C-glycosides
COLLISIONENERGY: 10
FORMULA: C27H30O15
RETENTIONTIME: 3.3031
IONMODE: Negative
Comment: registered in RIKEN PlaSMA
Num Peaks: 38
281.04779	6
296.06931	11
297.07544	30
298.07736	11
307.05368	7
309.06625	6
311.0481	11
321.0715	7
324.05786	12
325.07385	56
336.08643	6
349.07025	8
353.06445	220
354.05942	24
354.0722	42
354.08789	9
355.07159	7
365.07455	6
380.07303	7
383.07608	183
384.08542	35
385.09488	8
391.07388	7
395.07391	15
409.10123	6
413.07562	8
413.09863	7
425.0889	18
455.06949	5
462.26163	7
473.10529	110
474.09781	10
474.11432	18
503.12335	13
505.13516	7
575.14001	6
576.13275	11
593.15186	1000

NAME: Sinapic acid
PRECURSORMZ: 223.06119704783
PRECURSORTYPE: [M-H]-
INSTRUMENTTYPE: LC-ESI-QTOF
SMILES: COC1=CC(C=CC(O)=O)=CC(OC)=C1O
INCHIKEY: PCMORTLOPMLEFB-UHFFFAOYSA-N
Ontology: Hydroxycinnamic acids
COLLISIONENERGY: 10
FORMULA: C11H12O5
RETENTIONTIME: 4.2102
IONMODE: Negative
Comment: registered in RIKEN PlaSMA
Num Peaks: 36
75.02828	32
93.00417	41
93.02998	32
93.03485	129
94.04113	41
110.10468	24
121.02678	218
121.03611	96
135.04518	81
136.04543	25
136.05193	17
147.04825	19
148.02103	19
149.02441	399
150.02495	22
150.03572	23
163.03757	261
164.04054	217
164.04895	741
165.0168	94
165.02454	28
165.05269	106
179.06082	13
179.07254	120
180.06253	18
180.07204	20
193.00882	102
193.0155	329
193.03078	25
194.01158	21
194.02556	20
208.03699	1000
209.0407	108
210.0359	20
223.05621	295
223.0663	341

NAME: Coniferyl aldehyde
PRECURSORMZ: 177.05571774783
PRECURSORTYPE: [M-H]-
INSTRUMENTTYPE: LC-ESI-QTOF
SMILES: COC1=C(O)C=CC(C=CC=O)=C1
INCHIKEY: DKZBBWMURDFHNE-UHFFFAOYSA-N
Ontology: Methoxyphenols
COLLISIONENERGY: 10
FORMULA: C10H10O3
RETENTIONTIME: 4.778316
IONMODE: Negative
Comment: registered in RIKEN PlaSMA
Num Peaks: 9
81.589	20
119.01687	12
161.02686	35
162.03259	1000
163.02777	10
163.04114	49
164.03987	25
177.04796	39
177.05704	110

NAME: NP-000002(10)
PRECURSORMZ: 593.15119384783
PRECURSORTYPE: [M-H]-
INSTRUMENTTYPE: LC-ESI-QTOF
SMILES: OCC1OC(C(O)C(O)C1O)C1=C(O)C(C2OC(CO)C(O)C(O)C2O)=C2OC(=CC(=O)C2=C1O)C1=CC=C(O)C=C1
INCHIKEY: FIAAVMJLAGNUKW-UHFFFAOYNA-N
Ontology: Flavonoid 8-C-glycosides
COLLISIONENERGY: 10
FORMULA: C27H30O15
RETENTIONTIME: 3.3031
IONMODE: Negative
Comment: registered in RIKEN PlaSMA
Num Peaks: 2
473.10757	14
593.15143	1000

NAME: Sinapic acid
PRECURSORMZ: 223.06119704783
PRECURSORTYPE: [M-H]-
INSTRUMENTTYPE: LC-ESI-QTOF
SMILES: COC1=CC(C=CC(O)=O)=CC(OC)=C1O
INCHIKEY: PCMORTLOPMLEFB-UHFFFAOYSA-N
Ontology: Hydroxycinnamic acids
COLLISIONENERGY: 10
FORMULA: C11H12O5
RETENTIONTIME: 4.2102
IONMODE: Negative
Comment: registered in RIKEN PlaSMA
Num Peaks: 30
82.41753	5
122.03226	8
123.04189	6
128.95729	5
131.00961	7
135.04453	9
135.05223	8
137.00627	10
149.0218	70
149.02866	29
150.01758	6
163.03566	24
163.04404	24
163.1048	12
164.04575	554
165.04819	26
165.98143	5
166.05576	19
166.39516	8
179.07088	141
179.68861	6
180.07059	13
193.01247	76
195.01836	7
208.03641	1000
208.0574	7
209.03287	29
209.04503	63
223.01657	5
223.06023	850

NAME: Coniferyl aldehyde
PRECURSORMZ: 177.05571774783
PRECURSORTYPE: [M-H]-
INSTRUMENTTYPE: LC-ESI-QTOF
SMILES: COC1=C(O)C=CC(C=CC=O)=C1
INCHIKEY: DKZBBWMURDFHNE-UHFFFAOYSA-N
Ontology: Methoxyphenols
COLLISIONENERGY: 10
FORMULA: C10H10O3
RETENTIONTIME: 4.778316
IONMODE: Negative
Comment: registered in RIKEN PlaSMA
Num Peaks: 8
103.5701	5
120.02097	5
135.04289	6
162.03183	1000
163.03662	152
164.03474	34
176.84357	6
177.05421	371

NAME: NP-000002(10)
PRECURSORMZ: 593.15119384783
PRECURSORTYPE: [M-H]-
INSTRUMENTTYPE: LC-ESI-QTOF
SMILES: OCC1OC(C(O)C(O)C1O)C1=C(O)C(C2OC(CO)C(O)C(O)C2O)=C2OC(=CC(=O)C2=C1O)C1=CC=C(O)C=C1
INCHIKEY: FIAAVMJLAGNUKW-UHFFFAOYNA-N
Ontology: Flavonoid 8-C-glycosides
COLLISIONENERGY: 30
FORMULA: C27H30O15
RETENTIONTIME: 3.3031
IONMODE: Negative
Comment: registered in RIKEN PlaSMA
Num Peaks: 130
140.09712	6
149.05975	5
174.99995	5
191.03236	11
191.80876	5
197.04588	7
199.98721	8
201.01955	8
207.55826	6
214.0089	5
221.03465	8
222.04961	7
233.0475	6
234.05325	10
235.04712	8
243.0246	8
245.04077	8
249.05525	6
259.01831	7
263.05826	10
264.05371	9
268.07974	5
272.19498	6
283.06677	9
293.07758	8
295.05856	6
296.05475	6
296.08667	6
297.0618	5
297.07819	37
297.10135	6
298.0741	10
298.09308	5
307.05734	9
309.07181	14
311.05307	35
317.08047	12
318.05786	6
321.04294	11
322.05249	5
323.04712	16
323.06131	20
323.09494	6
324.04303	6
324.06311	12
325.06564	27
325.07651	53
326.05991	11
326.07031	6
328.07013	10
328.31378	7
335.06165	24
336.06793	15
337.0918	8
338.95227	10
340.05206	8
341.05719	5
348.75247	6
350.0354	5
352.18497	5
353.06448	1000
353.32635	7
354.06638	281
354.07794	89
355.06613	43
355.07993	10
360.46408	6
365.05429	49
365.08322	19
366.0538	12
366.08353	7
366.0965	5
367.07251	34
381.0701	11
382.30722	5
382.4679	7
383.07819	676
384.0806	155
384.11185	7
384.24683	6
385.06815	7
385.08603	16
386.07507	5
390.91406	6
395.07617	66
395.09451	6
396.0683	12
396.08844	13
397.06723	10
397.0856	33
407.08575	6
413.08624	49
413.11404	12
425.08609	44
425.10721	5
426.07846	9
426.11008	5
427.09268	7
427.70142	6
428.95602	6
431.11798	10
437.07797	33
437.09906	12
439.08566	18
455.08032	5
455.1051	9
456.09802	13
456.11212	8
473.10477	307
474.09863	31
474.11844	78
475.11664	14
485.11395	14
485.134	7
487.26096	6
503.11621	135
504.11349	6
504.12689	6
508.1564	9
515.10199	5
515.12054	5
517.12878	13
528.12988	6
533.1366	5
534.13092	12
545.12158	5
574.81909	5
575.15503	15
576.13019	6
593.14905	109

NAME: Sinapic acid
PRECURSORMZ: 223.06119704783
PRECURSORTYPE: [M-H]-
INSTRUMENTTYPE: LC-ESI-QTOF
SMILES: COC1=CC(C=CC(O)=O)=CC(OC)=C1O
INCHIKEY: PCMORTLOPMLEFB-UHFFFAOYSA-N
Ontology: Hydroxycinnamic acids
COLLISIONENERGY: 30
FORMULA: C11H12O5
RETENTIONTIME: 4.2102
IONMODE: Negative
Comment: registered in RIKEN PlaSMA
Num Peaks: 22
65.00388	23
72.73853	33
93.03352	655
94.03489	79
99.01027	23
121.02897	1000
122.03174	117
130.61456	23
135.0459	103
136.04471	35
148.01215	37
148.0201	28
149.01938	114
149.02773	150
149.17574	27
150.026	65
163.03745	55
164.03813	32
165.02098	232
193.01286	176
193.02573	32
194.01634	29

NAME: Coniferyl aldehyde
PRECURSORMZ: 177.05571774783
PRECURSORTYPE: [M-H]-
INSTRUMENTTYPE: LC-ESI-QTOF
SMILES: COC1=C(O)C=CC(C=CC=O)=C1
INCHIKEY: DKZBBWMURDFHNE-UHFFFAOYSA-N
Ontology: Methoxyphenols
COLLISIONENERGY: 30
FORMULA: C10H10O3
RETENTIONTIME: 4.778316
IONMODE: Negative
Comment: registered in RIKEN PlaSMA
Num Peaks: 4
105.03149	512
119.01756	250
134.0387	429
162.02985	1000

NAME: NP-000002(10)
PRECURSORMZ: 593.15119384783
PRECURSORTYPE: [M-H]-
INSTRUMENTTYPE: LC-ESI-QTOF
SMILES: OCC1OC(C(O)C(O)C1O)C1=C(O)C(C2OC(CO)C(O)C(O)C2O)=C2OC(=CC(=O)C2=C1O)C1=CC=C(O)C=C1
INCHIKEY: FIAAVMJLAGNUKW-UHFFFAOYNA-N
Ontology: Flavonoid 8-C-glycosides
COLLISIONENERGY: 50
FORMULA: C27H30O15
RETENTIONTIME: 3.3031
IONMODE: Negative
Comment: registered in RIKEN PlaSMA
Num Peaks: 186
83.01199	15
93.03056	26
103.01555	18
105.0689	9
117.02959	52
117.03603	31
118.03407	15
123.03918	9
126.0275	16
129.03111	12
133.06407	33
135.04047	40
135.04765	23
136.05502	15
137.05676	13
145.03081	9
145.8275	9
147.05234	17
148.01373	16
149.02344	27
154.03688	9
157.06412	11
158.03168	14
158.03896	8
159.04195	12
160.05154	10
161.02031	34
161.02744	14
161.05894	20
162.02986	10
162.99841	11
163.03807	36
167.02927	16
170.03658	10
171.04216	21
171.08209	18
172.25844	13
173.06123	10
174.06412	16
175.04019	77
177.00732	19
177.02396	34
177.05838	9
178.02376	19
178.05434	11
179.04716	10
180.82504	13
181.04541	10
182.03703	11
185.02496	12
186.02975	11
187.04199	14
189.0163	11
189.0249	17
189.06438	21
190.06126	15
191.03464	64
192.03531	9
195.09068	10
197.05959	13
201.05035	30
203.03523	67
204.03471	23
204.04858	20
206.07318	10
207.02979	14
207.0826	14
209.08928	10
211.04263	16
211.08061	16
213.06097	14
215.0294	17
215.0762	15
217.05589	14
218.01065	11
220.07816	17
221.04623	13
223.07394	19
224.08385	18
225.06519	11
225.08749	16
226.09668	14
227.75681	10
231.03278	13
235.04138	10
235.08134	12
236.06601	12
238.05759	15
238.7677	11
239.07253	9
245.04182	15
247.10667	10
251.07063	36
252.0768	17
253.04854	10
254.09067	15
255.06973	31
261.0932	10
263.05673	14
263.07291	25
266.0607	13
267.06415	11
268.03558	16
268.06808	47
268.08121	30
268.10971	13
279.06677	55
281.04709	39
281.0882	17
282.0509	105
283.04889	13
283.06216	60
284.06918	9
289.05438	10
291.08472	15
293.02576	16
293.06033	10
293.33539	9
295.05389	88
295.06436	84
295.07684	30
295.59421	9
296.06897	182
297.07895	1000
298.06656	41
298.08197	96
298.09317	26
300.08109	11
305.04959	11
306.05045	9
307.04813	13
307.07001	22
307.14423	14
308.0726	23
309.04703	13
309.07785	44
309.14978	9
311.04773	25
312.05569	20
312.06589	14
317.05624	13
317.08948	13
319.06488	36
321.04846	14
322.04749	9
323.05884	43
323.08795	13
324.06052	86
324.09763	13
325.06146	54
325.07214	61
325.08609	58
326.06772	12
326.08401	36
326.33215	15
327.08936	11
328.07932	18
333.08823	10
335.0513	62
336.0593	26
337.06891	38
338.07776	22
339.06619	15
341.07074	11
350.96048	14
351.05072	25
352.04486	13
352.06119	19
352.86105	13
353.06192	70
353.07242	66
354.06711	21
354.08163	12
355.08893	11
365.00977	14
365.07126	104
366.06116	9
366.07791	13
367.064	11
377.06085	9
383.07516	38
383.08853	30
384.0853	28
395.08246	13
396.0791	11
425.09448	14

NAME: Sinapic acid
PRECURSORMZ: 223.06119704783
PRECURSORTYPE: [M-H]-
INSTRUMENTTYPE: LC-ESI-QTOF
SMILES: COC1=CC(C=CC(O)=O)=CC(OC)=C1O
INCHIKEY: PCMORTLOPMLEFB-UHFFFAOYSA-N
Ontology: Hydroxycinnamic acids
COLLISIONENERGY: 50
FORMULA: C11H12O5
RETENTIONTIME: 4.2102
IONMODE: Negative
Comment: registered in RIKEN PlaSMA
Num Peaks: 2
93.03645	1000
119.01063	500

NAME: NP-000002(10)
PRECURSORMZ: 593.15119384783
PRECURSORTYPE: [M-H]-
INSTRUMENTTYPE: LC-ESI-QTOF
SMILES: OCC1OC(C(O)C(O)C1O)C1=C(O)C(C2OC(CO)C(O)C(O)C2O)=C2OC(=CC(=O)C2=C1O)C1=CC=C(O)C=C1
INCHIKEY: FIAAVMJLAGNUKW-UHFFFAOYNA-N
Ontology: Flavonoid 8-C-glycosides
COLLISIONENERGY: 10
FORMULA: C27H30O15
RETENTIONTIME: 3.3031
IONMODE: Negative
Comment: registered in RIKEN PlaSMA
Num Peaks: 50
191.03181	7
260.60965	6
279.04608	6
282.05444	11
283.05423	8
297.07303	64
298.07852	9
303.8338	5
311.05878	6
323.05154	13
323.06314	14
324.06561	15
325.06998	27
325.08521	9
336.0712	6
337.05734	11
337.07556	15
338.0755	8
339.082	5
353.0654	246
354.06815	59
355.07162	12
359.11041	6
365.06171	36
383.05246	11
383.07104	108
383.08417	55
384.06586	13
384.08124	30
385.09082	17
395.07895	17
396.09143	7
408.08264	6
413.0885	16
414.09793	7
425.07837	9
443.09949	6
455.0986	9
473.10657	163
474.11115	45
474.12979	10
474.15405	5
503.104	23
503.12189	32
504.1225	10
517.12787	6
575.13495	8
575.17419	7
593.14929	1000
593.19617	8

NAME: Sinapic acid
PRECURSORMZ: 223.06119704783
PRECURSORTYPE: [M-H]-
INSTRUMENTTYPE: LC-ESI-QTOF
SMILES: COC1=CC(C=CC(O)=O)=CC(OC)=C1O
INCHIKEY: PCMORTLOPMLEFB-UHFFFAOYSA-N
Ontology: Hydroxycinnamic acids
COLLISIONENERGY: 10
FORMULA: C11H12O5
RETENTIONTIME: 4.2102
IONMODE: Negative
Comment: registered in RIKEN PlaSMA
Num Peaks: 36
93.0322	105
104.02637	19
105.14139	18
117.02692	18
121.02901	344
122.0345	22
128.45326	16
135.04849	49
148.02112	18
149.02585	467
150.02277	48
150.03108	11
151.03175	24
162.03188	17
163.03493	68
163.0459	11
164.04822	1000
165.01953	49
165.04475	48
165.05461	63
165.06993	11
166.02394	11
167.89743	13
168.03348	19
179.07025	156
181.0768	14
181.8833	13
193.01437	479
194.02155	24
207.02547	17
208.03624	777
209.0349	26
209.04378	14
210.04308	10
223.05692	255
223.06744	119

NAME: Coniferyl aldehyde
PRECURSORMZ: 177.05571774783
PRECURSORTYPE: [M-H]-
INSTRUMENTTYPE: LC-ESI-QTOF
SMILES: COC1=C(O)C=CC(C=CC=O)=C1
INCHIKEY: DKZBBWMURDFHNE-UHFFFAOYSA-N
Ontology: Methoxyphenols
COLLISIONENERGY: 10
FORMULA: C10H10O3
RETENTIONTIME: 4.778316
IONMODE: Negative
Comment: registered in RIKEN PlaSMA
Num Peaks: 8
69.10349	13
134.03755	76
161.02238	8
161.52158	6
162.03026	1000
163.03288	68
164.03366	7
177.05492	113

NAME: Sinapic acid
PRECURSORMZ: 223.06119704783
PRECURSORTYPE: [M-H]-
INSTRUMENTTYPE: LC-ESI-QTOF
SMILES: COC1=CC(C=CC(O)=O)=CC(OC)=C1O
INCHIKEY: PCMORTLOPMLEFB-UHFFFAOYSA-N
Ontology: Hydroxycinnamic acids
COLLISIONENERGY: 10
FORMULA: C11H12O5
RETENTIONTIME: 4.2102
IONMODE: Negative
Comment: registered in RIKEN PlaSMA
Num Peaks: 21
64.73589	8
133.51753	5
134.03595	6
135.04465	12
147.04675	6
149.02237	94
163.0374	45
164.04701	521
165.04874	67
166.01735	5
179.07082	214
180.07346	22
193.01578	92
194.02493	9
201.62973	7
208.03593	901
209.04048	126
210.04466	19
210.49872	6
223.02164	5
223.05991	1000

NAME: Coniferyl aldehyde
PRECURSORMZ: 177.05571774783
PRECURSORTYPE: [M-H]-
INSTRUMENTTYPE: LC-ESI-QTOF
SMILES: COC1=C(O)C=CC(C=CC=O)=C1
INCHIKEY: DKZBBWMURDFHNE-UHFFFAOYSA-N
Ontology: Methoxyphenols
COLLISIONENERGY: 10
FORMULA: C10H10O3
RETENTIONTIME: 4.778316
IONMODE: Negative
Comment: registered in RIKEN PlaSMA
Num Peaks: 7
134.03621	26
134.99197	5
162.03128	1000
163.0345	72
164.03418	22
164.04453	13
177.05409	328

NAME: NP-000002(10)
PRECURSORMZ: 593.15119384783
PRECURSORTYPE: [M-H]-
INSTRUMENTTYPE: LC-ESI-QTOF
SMILES: OCC1OC(C(O)C(O)C1O)C1=C(O)C(C2OC(CO)C(O)C(O)C2O)=C2OC(=CC(=O)C2=C1O)C1=CC=C(O)C=C1
INCHIKEY: FIAAVMJLAGNUKW-UHFFFAOYNA-N
Ontology: Flavonoid 8-C-glycosides
COLLISIONENERGY: 30
FORMULA: C27H30O15
RETENTIONTIME: 3.3031
IONMODE: Negative
Comment: registered in RIKEN PlaSMA
Num Peaks: 130
147.04214	8
150.0244	6
161.0208	18
191.0275	15
208.83372	7
219.69344	6
221.03725	10
221.04561	10
221.05426	7
225.05377	5
231.02878	7
259.03522	9
263.06146	6
282.08231	5
283.05658	7
290.93228	9
293.28232	7
296.06857	24
297.07782	36
299.09451	9
304.10785	6
308.05289	12
310.03729	6
311.04532	29
311.05756	42
311.06885	18
312.05148	9
317.28574	8
322.0531	6
323.03949	6
323.05502	35
323.06866	5
324.05508	10
325.06918	58
326.07239	24
326.09067	11
327.45734	5
335.05698	16
335.10733	6
336.05365	6
337.07446	11
341.05923	23
349.41809	10
351.05231	9
351.07358	8
351.08704	6
352.10727	7
352.83511	6
352.99295	10
353.0665	1000
353.09256	14
353.36145	6
354.06595	126
354.08148	65
354.62863	6
355.07236	43
355.10052	6
356.08276	7
358.45755	12
365.05856	41
365.07401	26
366.06216	6
366.07748	8
368.08292	8
368.44321	10
375.08347	11
375.50674	7
379.07654	7
380.09009	6
380.1019	5
381.11298	7
382.0636	7
383.07703	611
384.07822	99
384.09433	42
384.25427	7
385.01382	5
385.08228	21
389.57098	6
391.08078	13
395.07809	76
396.06833	19
397.1004	23
407.0647	13
409.09009	6
411.05679	10
413.077	32
413.09702	42
414.07385	7
414.09274	41
415.10733	12
415.3717	8
419.07596	7
425.07959	21
425.10056	5
426.08862	6
438.09146	6
443.10513	5
444.95651	7
449.08392	5
455.08517	26
455.11343	8
467.10416	7
473.10541	246
473.11765	133
474.11014	76
474.13507	17
475.11667	7
475.14539	10
475.60797	7
477.181	6
477.21298	6
485.1084	21
485.12381	7
503.08691	6
503.12299	66
503.14618	10
504.1084	22
504.13257	6
516.1308	8
517.12427	6
529.12439	6
545.11926	7
545.15063	7
557.50873	6
563.13922	6
575.14893	6
576.14197	13
593.11249	12
593.15002	164

NAME: Sinapic acid
PRECURSORMZ: 223.06119704783
PRECURSORTYPE: [M-H]-
INSTRUMENTTYPE: LC-ESI-QTOF
SMILES: COC1=CC(C=CC(O)=O)=CC(OC)=C1O
INCHIKEY: PCMORTLOPMLEFB-UHFFFAOYSA-N
Ontology: Hydroxycinnamic acids
COLLISIONENERGY: 30
FORMULA: C11H12O5
RETENTIONTIME: 4.2102
IONMODE: Negative
Comment: registered in RIKEN PlaSMA
Num Peaks: 19
93.02942	138
93.03449	251
94.03671	71
121.0294	1000
122.02985	83
122.03542	43
135.04466	56
148.01508	27
149.01924	49
149.02637	77
150.01953	27
150.02641	50
163.03529	20
163.04793	36
165.0126	53
165.01877	48
193.00461	49
193.0145	96
194.01622	28

NAME: Coniferyl aldehyde
PRECURSORMZ: 177.05571774783
PRECURSORTYPE: [M-H]-
INSTRUMENTTYPE: LC-ESI-QTOF
SMILES: COC1=C(O)C=CC(C=CC=O)=C1
INCHIKEY: DKZBBWMURDFHNE-UHFFFAOYSA-N
Ontology: Methoxyphenols
COLLISIONENERGY: 30
FORMULA: C10H10O3
RETENTIONTIME: 4.778316
IONMODE: Negative
Comment: registered in RIKEN PlaSMA
Num Peaks: 3
105.03193	1000
161.01736	367
162.03413	612

NAME: NP-000002(10)
PRECURSORMZ: 593.15119384783
PRECURSORTYPE: [M-H]-
INSTRUMENTTYPE: LC-ESI-QTOF
SMILES: OCC1OC(C(O)C(O)C1O)C1=C(O)C(C2OC(CO)C(O)C(O)C2O)=C2OC(=CC(=O)C2=C1O)C1=CC=C(O)C=C1
INCHIKEY: FIAAVMJLAGNUKW-UHFFFAOYNA-N
Ontology: Flavonoid 8-C-glycosides
COLLISIONENERGY: 50
FORMULA: C27H30O15
RETENTIONTIME: 3.3031
IONMODE: Negative
Comment: registered in RIKEN PlaSMA
Num Peaks: 163
71.01675	14
85.02769	16
87.69469	14
89.0236	14
93.03228	11
105.06759	12
107.01128	11
117.03301	156
118.03474	17
119.03717	14
119.04665	12
133.02533	12
134.07178	12
135.03641	13
135.04585	68
137.02473	10
137.22575	12
143.0563	16
145.02629	30
147.03862	37
147.05165	14
149.02451	12
158.03253	17
160.05798	28
161.01993	63
161.0274	27
161.05585	23
162.03194	20
163.03278	43
163.04247	18
164.04445	14
171.04008	16
173.02394	10
173.05733	12
177.05655	110
179.0262	15
179.04022	17
182.0437	14
183.07623	14
184.04753	12
185.0231	14
185.06169	13
186.03722	11
187.04364	17
189.0195	16
189.04958	12
189.18347	19
191.03151	35
191.03998	20
197.05511	16
197.09824	13
199.04033	10
202.02658	16
203.03271	57
204.03601	10
205.04752	29
206.07164	16
207.04663	32
210.07047	13
215.03195	19
217.03804	16
217.05334	30
218.05615	23
219.06265	14
224.08429	28
225.04817	29
227.04524	19
233.04286	38
236.06624	10
241.0479	14
243.05904	12
246.04233	17
246.0576	13
251.04971	11
251.0665	47
252.0761	15
253.07422	46
253.09123	13
254.04958	37
255.07083	15
255.08147	17
266.04941	13
267.06354	12
268.06763	43
268.0885	17
269.04315	29
269.07892	13
277.05069	10
277.07611	12
278.05658	16
279.05042	10
279.06027	32
281.05304	13
282.05554	122
282.09103	12
283.05908	134
283.0744	18
284.04507	12
284.0654	13
289.04233	10
293.0787	56
294.04541	43
295.05762	211
295.0766	12
295.86829	18
296.07059	332
297.07642	1000
298.06372	34
298.08514	209
298.46091	16
299.09	18
300.35233	19
303.98257	12
305.03726	27
305.05435	14
306.04398	12
307.07059	73
308.06903	22
309.0741	54
309.08554	26
310.07556	36
311.05716	78
320.06204	14
321.03409	12
322.09308	17
323.05414	37
323.10709	11
324.05725	42
324.07257	20
324.20874	14
324.23047	13
325.05762	38
325.0705	130
326.0704	16
326.09686	12
327.07361	13
335.05707	67
335.06943	24
336.05814	25
337.06592	69
338.06882	56
339.07571	13
341.07162	13
349.05371	24
351.0538	12
352.06873	12
353.06091	219
353.07797	39
353.37839	10
354.04599	16
354.08539	12
364.07117	13
365.05344	28
365.06848	86
366.0593	21
376.04901	15
378.07364	12
383.07654	203
384.07135	16
395.07825	10
396.0816	12
396.90765	21
397.08533	13

NAME: Sinapic acid
PRECURSORMZ: 223.06119704783
PRECURSORTYPE: [M-H]-
INSTRUMENTTYPE: LC-ESI-QTOF
SMILES: COC1=CC(C=CC(O)=O)=CC(OC)=C1O
INCHIKEY: PCMORTLOPMLEFB-UHFFFAOYSA-N
Ontology: Hydroxycinnamic acids
COLLISIONENERGY: 50
FORMULA: C11H12O5
RETENTIONTIME: 4.2102
IONMODE: Negative
Comment: registered in RIKEN PlaSMA
Num Peaks: 3
93.03293	1000
121.03139	371
149.02789	210

NAME: NP-000002(10)
PRECURSORMZ: 593.15119384783
PRECURSORTYPE: [M-H]-
INSTRUMENTTYPE: LC-ESI-QTOF
SMILES: OCC1OC(C(O)C(O)C1O)C1=C(O)C(C2OC(CO)C(O)C(O)C2O)=C2OC(=CC(=O)C2=C1O)C1=CC=C(O)C=C1
INCHIKEY: FIAAVMJLAGNUKW-UHFFFAOYNA-N
Ontology: Flavonoid 8-C-glycosides
COLLISIONENERGY: 10
FORMULA: C27H30O15
RETENTIONTIME: 3.3031
IONMODE: Negative
Comment: registered in RIKEN PlaSMA
Num Peaks: 44
161.01941	8
205.05478	8
233.04131	7
245.04504	10
251.05193	8
282.0455	11
293.04449	5
295.06943	5
296.06299	14
297.07529	37
297.08832	13
309.07938	7
323.04828	8
323.06061	12
324.0643	12
325.06961	32
337.06854	14
351.43365	6
351.71527	5
353.04092	6
353.06476	254
354.06436	42
354.08493	10
355.07648	14
365.05563	16
365.0795	27
366.07101	12
383.0683	54
383.0809	106
384.08047	42
384.09872	13
395.07315	9
395.0864	13
407.08206	5
421.08755	5
431.08188	6
437.08789	7
473.10626	149
474.11258	34
474.13358	6
503.10449	26
503.1225	32
504.12646	7
593.15063	1000

NAME: Sinapic acid
PRECURSORMZ: 223.06119704783
PRECURSORTYPE: [M-H]-
INSTRUMENTTYPE: LC-ESI-QTOF
SMILES: COC1=CC(C=CC(O)=O)=CC(OC)=C1O
INCHIKEY: PCMORTLOPMLEFB-UHFFFAOYSA-N
Ontology: Hydroxycinnamic acids
COLLISIONENERGY: 10
FORMULA: C11H12O5
RETENTIONTIME: 4.2102
IONMODE: Negative
Comment: registered in RIKEN PlaSMA
Num Peaks: 31
79.01887	22
93.03349	233
121.02863	415
123.049	21
131.00865	27
135.04573	125
136.05241	19
149.0229	805
150.02635	29
150.03848	18
151.04886	17
159.75821	24
163.03691	221
164.01834	16
164.04675	1000
165.02019	95
165.04576	20
165.05502	38
166.02628	27
167.0269	18
179.07246	224
182.56935	19
193.01422	517
203.63016	17
208.03697	886
209.03366	61
209.04213	58
209.04971	42
210.05035	22
223.05481	229
223.06508	279

NAME: Coniferyl aldehyde
PRECURSORMZ: 177.05571774783
PRECURSORTYPE: [M-H]-
INSTRUMENTTYPE: LC-ESI-QTOF
SMILES: COC1=C(O)C=CC(C=CC=O)=C1
INCHIKEY: DKZBBWMURDFHNE-UHFFFAOYSA-N
Ontology: Methoxyphenols
COLLISIONENERGY: 10
FORMULA: C10H10O3
RETENTIONTIME: 4.778316
IONMODE: Negative
Comment: registered in RIKEN PlaSMA
Num Peaks: 18
54.57248	6
106.03892	9
115.57264	6
133.01987	7
134.03339	48
134.04016	22
135.02866	6
135.04111	7
161.02135	6
161.02666	18
162.03136	1000
163.03371	168
163.04465	21
163.95016	6
164.02736	12
164.04208	14
174.97372	8
177.0546	160

NAME: NP-000002(10)
PRECURSORMZ: 593.15119384783
PRECURSORTYPE: [M-H]-
INSTRUMENTTYPE: LC-ESI-QTOF
SMILES: OCC1OC(C(O)C(O)C1O)C1=C(O)C(C2OC(CO)C(O)C(O)C2O)=C2OC(=CC(=O)C2=C1O)C1=CC=C(O)C=C1
INCHIKEY: FIAAVMJLAGNUKW-UHFFFAOYNA-N
Ontology: Flavonoid 8-C-glycosides
COLLISIONENERGY: 10
FORMULA: C27H30O15
RETENTIONTIME: 3.3031
IONMODE: Negative
Comment: registered in RIKEN PlaSMA
Num Peaks: 3
473.10367	14
593.14972	1000
593.19849	7

NAME: Sinapic acid
PRECURSORMZ: 223.06119704783
PRECURSORTYPE: [M-H]-
INSTRUMENTTYPE: LC-ESI-QTOF
SMILES: COC1=CC(C=CC(O)=O)=CC(OC)=C1O
INCHIKEY: PCMORTLOPMLEFB-UHFFFAOYSA-N
Ontology: Hydroxycinnamic acids
COLLISIONENERGY: 10
FORMULA: C11H12O5
RETENTIONTIME: 4.2102
IONMODE: Negative
Comment: registered in RIKEN PlaSMA
Num Peaks: 19
135.04184	6
149.02382	126
163.02966	5
163.04219	32
164.04774	545
165.02161	6
165.04984	67
166.05235	6
173.00723	9
179.06816	115
183.89073	8
193.01297	71
194.01476	11
208.03732	1000
209.0401	93
210.03255	6
216.93552	6
223.06169	890
223.09184	6

NAME: Coniferyl aldehyde
PRECURSORMZ: 177.05571774783
PRECURSORTYPE: [M-H]-
INSTRUMENTTYPE: LC-ESI-QTOF
SMILES: COC1=C(O)C=CC(C=CC=O)=C1
INCHIKEY: DKZBBWMURDFHNE-UHFFFAOYSA-N
Ontology: Methoxyphenols
COLLISIONENERGY: 10
FORMULA: C10H10O3
RETENTIONTIME: 4.778316
IONMODE: Negative
Comment: registered in RIKEN PlaSMA
Num Peaks: 9
134.03285	9
134.03992	6
161.01933	10
161.03217	7
162.03128	1000
163.03409	144
164.03394	6
164.04315	6
177.05573	290

NAME: NP-000002(10)
PRECURSORMZ: 593.15119384783
PRECURSORTYPE: [M-H]-
INSTRUMENTTYPE: LC-ESI-QTOF
SMILES: OCC1OC(C(O)C(O)C1O)C1=C(O)C(C2OC(CO)C(O)C(O)C2O)=C2OC(=CC(=O)C2=C1O)C1=CC=C(O)C=C1
INCHIKEY: FIAAVMJLAGNUKW-UHFFFAOYNA-N
Ontology: Flavonoid 8-C-glycosides
COLLISIONENERGY: 30
FORMULA: C27H30O15
RETENTIONTIME: 3.3031
IONMODE: Negative
Comment: registered in RIKEN PlaSMA
Num Peaks: 116
105.03604	8
163.0368	6
197.06491	7
201.0638	10
204.71368	10
221.03787	6
221.04921	15
233.03665	7
233.04823	12
237.44815	9
237.56073	7
239.07826	5
244.62329	6
245.03813	6
245.05066	7
246.04434	10
248.0896	5
251.0903	6
275.06104	12
282.05704	12
283.05676	12
294.06863	6
296.05878	6
296.06912	7
297.07468	28
297.08572	13
298.07794	5
299.29749	6
307.05264	5
307.08093	9
309.07483	6
309.08597	5
311.05453	36
311.47244	6
312.05533	7
312.07489	6
323.04718	18
323.06125	8
323.08701	5
324.07275	5
324.082	10
325.06998	73
325.64734	6
326.06525	6
326.50146	5
327.08371	10
335.38498	5
337.05676	6
341.07285	5
350.17831	7
350.78195	6
351.04846	6
353.06519	1000
353.11621	6
354.06696	228
355.07047	20
355.08954	6
356.07709	11
356.08817	14
357.0802	5
359.94241	5
365.05408	12
365.06909	48
366.06033	13
366.8743	9
367.09134	12
377.05411	6
378.05786	7
379.0726	23
381.06116	6
383.07495	649
383.61157	6
384.07947	135
385.06839	14
385.10165	7
386.07977	12
391.09097	5
395.07947	77
396.07217	14
396.08646	29
397.10834	5
398.22751	7
409.10004	6
413.09103	67
414.09805	31
420.06622	7
421.08029	8
425.08521	36
426.08942	18
427.11346	12
437.08618	11
443.10022	7
455.10403	12
456.06863	5
456.11105	25
459.11298	6
473.1077	244
473.14389	9
473.93991	6
474.10873	53
474.12457	34
474.14383	13
475.11136	21
480.10962	7
485.10385	12
486.11954	6
503.0986	8
503.11911	68
504.11359	13
515.11157	12
518.13782	6
528.11664	5
533.11328	5
575.14673	14
593.14191	96
593.17596	5

NAME: Sinapic acid
PRECURSORMZ: 223.06119704783
PRECURSORTYPE: [M-H]-
INSTRUMENTTYPE: LC-ESI-QTOF
SMILES: COC1=CC(C=CC(O)=O)=CC(OC)=C1O
INCHIKEY: PCMORTLOPMLEFB-UHFFFAOYSA-N
Ontology: Hydroxycinnamic acids
COLLISIONENERGY: 30
FORMULA: C11H12O5
RETENTIONTIME: 4.2102
IONMODE: Negative
Comment: registered in RIKEN PlaSMA
Num Peaks: 23
77.03943	32
93.03329	558
94.03374	70
94.1683	21
94.85854	23
108.01733	24
121.0287	1000
122.02711	19
122.03393	60
123.03546	22
135.03844	20
135.04562	87
149.02197	421
150.01878	22
150.03232	26
163.03162	21
163.04407	22
164.04994	19
165.00432	38
165.01923	125
193.01303	321
194.01974	19
223.06937	25

NAME: Coniferyl aldehyde
PRECURSORMZ: 177.05571774783
PRECURSORTYPE: [M-H]-
INSTRUMENTTYPE: LC-ESI-QTOF
SMILES: COC1=C(O)C=CC(C=CC=O)=C1
INCHIKEY: DKZBBWMURDFHNE-UHFFFAOYSA-N
Ontology: Methoxyphenols
COLLISIONENERGY: 30
FORMULA: C10H10O3
RETENTIONTIME: 4.778316
IONMODE: Negative
Comment: registered in RIKEN PlaSMA
Num Peaks: 3
77.03514	649
134.03607	1000
134.04488	486

NAME: NP-000002(10)
PRECURSORMZ: 593.15119384783
PRECURSORTYPE: [M-H]-
INSTRUMENTTYPE: LC-ESI-QTOF
SMILES: OCC1OC(C(O)C(O)C1O)C1=C(O)C(C2OC(CO)C(O)C(O)C2O)=C2OC(=CC(=O)C2=C1O)C1=CC=C(O)C=C1
INCHIKEY: FIAAVMJLAGNUKW-UHFFFAOYNA-N
Ontology: Flavonoid 8-C-glycosides
COLLISIONENERGY: 50
FORMULA: C27H30O15
RETENTIONTIME: 3.3031
IONMODE: Negative
Comment: registered in RIKEN PlaSMA
Num Peaks: 177
91.05528	13
93.03423	17
95.00867	19
96.53137	15
97.02898	14
107.01325	18
107.04922	12
109.02693	23
115.0537	17
117.03068	34
117.03503	69
119.04697	34
123.00523	19
132.05391	13
132.05966	17
133.02946	10
133.07004	17
135.04683	56
147.04523	15
149.02068	14
150.06677	11
156.03857	13
159.04982	12
160.0536	12
161.0183	10
161.02536	33
161.04895	11
161.06183	48
163.03871	11
165.01506	12
173.02393	29
173.03075	13
173.05753	37
173.23227	25
174.03102	11
175.03519	68
177.02208	17
177.05307	46
178.06163	11
179.02473	11
179.03409	25
179.95378	20
180.04004	11
181.06984	15
182.0278	12
182.03554	13
184.05869	12
185.02432	13
187.03874	24
188.03505	15
189.01294	11
189.05666	28
191.03661	34
191.0661	11
193.03865	15
197.05544	12
198.02402	14
199.03796	11
201.05583	11
203.0305	32
203.03815	11
205.00658	14
205.0368	18
205.0459	15
207.08221	13
210.06599	10
211.03885	16
217.05032	24
218.73424	17
219.87689	12
224.04109	30
224.08012	53
225.04982	13
225.0845	15
225.09758	35
226.03787	20
226.06177	14
227.03325	12
236.04509	30
237.04506	17
237.05829	12
238.05544	11
238.06696	25
239.02644	12
239.06761	22
241.72499	10
245.05208	15
245.28929	14
247.08357	15
251.06668	29
251.08189	12
253.07201	43
253.0974	50
256.03351	13
263.07172	12
265.04703	18
266.05667	18
267.07312	15
268.07056	79
268.07962	37
269.03821	14
269.073	12
277.04294	13
277.05676	12
279.06616	16
281.05054	14
281.08813	10
282.05798	101
283.0546	65
283.06757	145
284.05853	21
284.68063	11
292.49564	13
293.03784	10
294.05386	12
295.05966	110
295.06879	40
296.06723	288
297.04971	16
297.07755	1000
297.10236	18
298.07135	58
298.08017	155
298.1015	9
298.54477	13
299.08316	25
302.05417	10
305.03885	11
306.06631	20
307.05707	50
307.07736	15
308.07452	45
309.03708	20
309.06604	33
309.07993	65
310.07831	48
310.13998	19
311.04471	33
311.06366	38
322.03284	13
323.05609	88
323.07834	32
323.10306	11
324.06116	72
324.07901	46
325.06781	182
325.082	59
326.06934	54
326.08597	33
335.05191	57
337.06323	22
337.08054	60
338.0658	24
338.08316	13
339.08417	39
344.54196	14
350.07571	11
351.05399	33
353.06235	81
353.07959	91
353.84583	12
354.04788	24
354.0726	13
355.06497	11
355.08005	49
356.09528	24
362.07043	15
365.06259	33
365.07965	23
366.0723	18
379.08951	22
383.07693	162
383.09854	22
384.07718	11
395.06174	14
413.1012	13
419.09399	13

NAME: Sinapic acid
PRECURSORMZ: 223.06119704783
PRECURSORTYPE: [M-H]-
INSTRUMENTTYPE: LC-ESI-QTOF
SMILES: COC1=CC(C=CC(O)=O)=CC(OC)=C1O
INCHIKEY: PCMORTLOPMLEFB-UHFFFAOYSA-N
Ontology: Hydroxycinnamic acids
COLLISIONENERGY: 50
FORMULA: C11H12O5
RETENTIONTIME: 4.2102
IONMODE: Negative
Comment: registered in RIKEN PlaSMA
Num Peaks: 2
93.03418	1000
121.0319	215

NAME: trans-Caffeic acid
PRECURSORMZ: 179.03498224783
PRECURSORTYPE: [M-H]-
INSTRUMENTTYPE: LC-ESI-QTOF
SMILES: OC(=O)C=CC1=CC(O)=C(O)C=C1
INCHIKEY: QAIPRVGONGVQAS-UHFFFAOYSA-N
Ontology: Hydroxycinnamic acids
COLLISIONENERGY: 10
FORMULA: C9H8O4
RETENTIONTIME: 3.43555
IONMODE: Negative
Comment: registered in RIKEN PlaSMA
Num Peaks: 15
89.03913	5
105.03402	18
106.04424	9
107.04795	18
107.05496	6
108.05357	5
118.58054	6
133.02718	9
133.63057	6
134.03709	82
135.04517	1000
136.04887	65
137.04836	10
179.02715	57
179.03532	223

NAME: Chrysin
PRECURSORMZ: 253.05063234783
PRECURSORTYPE: [M-H]-
INSTRUMENTTYPE: LC-ESI-QTOF
SMILES: OC1=CC(O)=C2C(=O)C=C(OC2=C1)C1=CC=CC=C1
INCHIKEY: RTIXKCRFFJGDFG-UHFFFAOYSA-N
Ontology: Flavones
COLLISIONENERGY: 10
FORMULA: C15H10O4
RETENTIONTIME: 7.375134
IONMODE: Negative
Comment: registered in RIKEN PlaSMA
Num Peaks: 19
63.02303	10
89.00434	7
101.0402	5
107.0121	20
119.05026	21
143.05083	57
145.02904	29
151.00273	14
153.06538	6
165.07265	10
167.0477	8
180.05772	13
181.06409	16
185.06058	10
209.06	37
210.06671	8
211.04008	16
253.04999	1000
253.09486	20

NAME: NP-006989(12)
PRECURSORMZ: 609.14610844783
PRECURSORTYPE: [M-H]-
INSTRUMENTTYPE: LC-ESI-QTOF
SMILES: OCC1OC(C(O)C(O)C1O)C1=C(O)C(C2OC(CO)C(O)C(O)C2O)=C2OC(=CC(=O)C2=C1O)C1=CC(O)=C(O)C=C1
INCHIKEY: ZLPSOQFIIQIIAX-UHFFFAOYNA-N
Ontology: Flavonoid 8-C-glycosides
COLLISIONENERGY: 10
FORMULA: C27H30O16
RETENTIONTIME: 3.077283
IONMODE: Negative
Comment: registered in RIKEN PlaSMA
Num Peaks: 9
369.0593	9
399.07043	6
489.10651	46
490.10837	16
519.11047	16
607.13287	78
608.13647	118
609.14606	1000
609.20129	9

NAME: trans-Caffeic acid
PRECURSORMZ: 179.03498224783
PRECURSORTYPE: [M-H]-
INSTRUMENTTYPE: LC-ESI-QTOF
SMILES: OC(=O)C=CC1=CC(O)=C(O)C=C1
INCHIKEY: QAIPRVGONGVQAS-UHFFFAOYSA-N
Ontology: Hydroxycinnamic acids
COLLISIONENERGY: 10
FORMULA: C9H8O4
RETENTIONTIME: 3.43555
IONMODE: Negative
Comment: registered in RIKEN PlaSMA
Num Peaks: 8
107.04601	6
133.03394	10
134.03664	10
135.04449	1000
136.04251	22
136.04942	84
137.05704	5
179.03445	476

NAME: Chrysin
PRECURSORMZ: 253.05063234783
PRECURSORTYPE: [M-H]-
INSTRUMENTTYPE: LC-ESI-QTOF
SMILES: OC1=CC(O)=C2C(=O)C=C(OC2=C1)C1=CC=CC=C1
INCHIKEY: RTIXKCRFFJGDFG-UHFFFAOYSA-N
Ontology: Flavones
COLLISIONENERGY: 10
FORMULA: C15H10O4
RETENTIONTIME: 7.375134
IONMODE: Negative
Comment: registered in RIKEN PlaSMA
Num Peaks: 3
209.05934	7
253.05054	1000
253.09558	20

NAME: trans-Caffeic acid
PRECURSORMZ: 179.03498224783
PRECURSORTYPE: [M-H]-
INSTRUMENTTYPE: LC-ESI-QTOF
SMILES: OC(=O)C=CC1=CC(O)=C(O)C=C1
INCHIKEY: QAIPRVGONGVQAS-UHFFFAOYSA-N
Ontology: Hydroxycinnamic acids
COLLISIONENERGY: 30
FORMULA: C9H8O4
RETENTIONTIME: 3.43555
IONMODE: Negative
Comment: registered in RIKEN PlaSMA
Num Peaks: 7
89.03723	255
132.01845	94
133.02766	86
134.03519	333
134.04388	82
135.04411	1000
136.04753	94

NAME: Chrysin
PRECURSORMZ: 253.05063234783
PRECURSORTYPE: [M-H]-
INSTRUMENTTYPE: LC-ESI-QTOF
SMILES: OC1=CC(O)=C2C(=O)C=C(OC2=C1)C1=CC=CC=C1
INCHIKEY: RTIXKCRFFJGDFG-UHFFFAOYSA-N
Ontology: Flavones
COLLISIONENERGY: 30
FORMULA: C15H10O4
RETENTIONTIME: 7.375134
IONMODE: Negative
Comment: registered in RIKEN PlaSMA
Num Peaks: 97
62.32578	8
63.02412	215
64.02261	10
65.00142	58
65.86801	10
66.0043	13
70.77502	9
77.03819	62
79.0178	50
83.01105	26
88.99943	61
101.03883	136
101.04842	10
102.03539	10
102.04506	26
107.01191	342
108.0178	9
115.05622	177
116.06171	12
117.03255	27
119.01139	18
119.04855	428
120.05234	52
121.02475	20
125.03989	15
125.10023	8
127.05524	8
128.06686	11
129.03485	15
129.06741	11
130.04013	33
131.04306	10
138.04774	9
139.05135	60
139.06671	10
140.05121	14
140.54857	13
141.03494	23
141.06548	19
141.07286	30
142.04381	10
143.04968	1000
143.4157	9
144.04399	21
144.05316	109
145.0284	424
145.05077	17
146.03244	40
148.01622	16
149.03746	12
150.95694	13
150.99223	10
150.99971	41
151.00664	28
151.05165	8
152.00728	9
153.06731	21
154.07808	9
155.0529	71
155.07333	10
156.04614	12
156.05438	29
156.42447	8
157.06425	9
157.32095	8
165.07024	82
166.04036	8
167.04156	36
167.05014	121
169.06044	13
169.06688	11
179.04152	9
180.05678	141
181.06314	81
181.07204	41
181.17107	8
182.06975	19
183.04616	41
185.06381	79
186.05954	13
188.04218	9
191.04581	12
191.37198	14
196.05638	11
197.05669	8
197.0683	8
208.04926	42
208.0602	17
209.05942	101
210.06422	38
211.02666	8
211.03606	34
211.06215	8
212.0417	12
250.18237	12
253.03571	23
253.05341	268

NAME: NP-006989(12)
PRECURSORMZ: 609.14610844783
PRECURSORTYPE: [M-H]-
INSTRUMENTTYPE: LC-ESI-QTOF
SMILES: OCC1OC(C(O)C(O)C1O)C1=C(O)C(C2OC(CO)C(O)C(O)C2O)=C2OC(=CC(=O)C2=C1O)C1=CC(O)=C(O)C=C1
INCHIKEY: ZLPSOQFIIQIIAX-UHFFFAOYNA-N
Ontology: Flavonoid 8-C-glycosides
COLLISIONENERGY: 50
FORMULA: C27H30O16
RETENTIONTIME: 3.077283
IONMODE: Negative
Comment: registered in RIKEN PlaSMA
Num Peaks: 210
66.0399	26
71.01014	23
73.02668	27
83.01238	32
85.02483	24
92.63323	27
97.03122	37
103.33691	23
107.01484	31
109.02826	59
117.03482	23
119.04704	25
123.04332	27
125.0244	39
133.02756	199
133.0341	58
134.03065	82
134.03864	31
145.02786	37
145.06143	23
146.03441	28
147.04433	51
149.0224	49
151.03973	27
157.06116	23
158.03471	24
161.01874	76
162.05949	25
163.04138	61
165.0213	62
167.05495	25
171.04631	23
173.0217	49
173.02914	22
174.06252	50
175.03426	48
175.04526	24
176.04185	24
177.01576	90
177.0546	89
178.06049	28
179.03377	23
185.06082	77
186.0464	28
187.04869	25
188.00836	22
188.0392	23
189.05565	59
189.98892	32
190.02725	33
191.03647	98
191.06427	24
195.08022	26
198.54947	23
199.03358	20
199.04298	58
201.01755	53
203.03621	152
204.0385	28
205.05211	111
206.01671	47
206.0538	23
207.03546	23
209.05894	25
212.05087	28
213.01213	23
213.04521	23
213.08394	61
214.06294	26
215.03476	72
217.83823	20
217.98126	28
219.02867	36
221.04257	28
223.05296	27
224.0379	28
225.04524	35
225.10114	50
227.10695	37
229.04305	26
230.02766	28
230.05763	27
231.0188	37
232.03113	45
234.05878	58
238.05437	20
238.07333	23
238.3727	31
240.04781	23
240.06534	28
241.05655	44
242.05554	30
244.06778	24
245.05035	24
247.03273	31
251.02885	26
252.03561	24
255.02019	39
255.0658	31
256.04156	27
257.03973	54
258.05002	33
261.06149	26
263.02383	26
265.04755	24
266.05075	37
266.05936	95
267.02866	51
267.06781	106
268.03372	27
268.06699	31
269.04324	74
269.08896	33
270.0629	41
271.05338	24
276.04037	22
280.03745	28
281.05048	28
282.0441	24
282.05624	20
282.08463	32
283.05753	198
284.01425	36
284.03586	31
284.07202	123
285.02545	37
285.03772	31
285.05191	26
285.07458	28
285.08688	32
286.0437	34
287.05276	28
292.06854	52
295.06332	184
297.04047	73
298.04581	795
299.04932	217
300.05112	56
300.07278	27
305.05765	20
307.05014	33
309.03238	59
309.04068	32
310.03867	66
310.05222	169
310.06219	62
311.05173	610
312.06543	854
313.02997	20
313.07028	1000
313.77142	20
314.07742	118
320.28659	24
321.0459	20
322.04706	67
323.05392	184
324.06033	52
325.03513	31
325.07196	180
326.04044	40
326.06961	26
327.04349	108
327.07153	32
337.02979	25
338.02112	28
339.05399	614
339.08258	45
340.04648	160
341.04886	68
341.06729	409
341.08844	62
342.0553	23
342.06839	73
343.05786	24
347.06271	32
351.04388	129
351.0593	36
352.04675	28
353.039	50
353.06131	316
354.08398	51
355.08557	24
357.0419	51
357.06033	61
358.05777	23
361.02621	20
363.04599	22
366.01285	31
367.05341	27
367.069	48
369.05682	571
370.06195	51
371.08289	65
374.75281	23
381.04663	101
381.06476	52
382.05258	22
394.06055	50
395.03598	27
397.05243	50
399.07101	188
399.09003	35
409.08264	27
411.05173	24
411.07251	76
412.07144	23
429.07401	28
430.09186	20
431.08884	20
435.06439	24

NAME: Chrysin
PRECURSORMZ: 253.05063234783
PRECURSORTYPE: [M-H]-
INSTRUMENTTYPE: LC-ESI-QTOF
SMILES: OC1=CC(O)=C2C(=O)C=C(OC2=C1)C1=CC=CC=C1
INCHIKEY: RTIXKCRFFJGDFG-UHFFFAOYSA-N
Ontology: Flavones
COLLISIONENERGY: 50
FORMULA: C15H10O4
RETENTIONTIME: 7.375134
IONMODE: Negative
Comment: registered in RIKEN PlaSMA
Num Peaks: 14
63.01954	184
63.02628	331
65.00394	154
66.40169	169
72.70618	154
101.03906	1000
102.04684	235
117.03719	162
119.04408	169
119.05138	647
165.05768	147
169.06659	265
238.00676	140
253.04755	169

NAME: NP-006989(12)
PRECURSORMZ: 609.14610844783
PRECURSORTYPE: [M-H]-
INSTRUMENTTYPE: LC-ESI-QTOF
SMILES: OCC1OC(C(O)C(O)C1O)C1=C(O)C(C2OC(CO)C(O)C(O)C2O)=C2OC(=CC(=O)C2=C1O)C1=CC(O)=C(O)C=C1
INCHIKEY: ZLPSOQFIIQIIAX-UHFFFAOYNA-N
Ontology: Flavonoid 8-C-glycosides
COLLISIONENERGY: 10
FORMULA: C27H30O16
RETENTIONTIME: 3.077283
IONMODE: Negative
Comment: registered in RIKEN PlaSMA
Num Peaks: 77
257.03006	6
273.07544	6
281.63739	9
297.03607	5
298.04486	26
299.05865	16
300.06549	6
309.06665	9
310.05386	5
311.0444	10
311.06036	11
312.05475	11
312.06787	34
313.06958	32
314.94913	6
321.03717	7
323.05106	13
327.04605	6
327.06302	9
328.07324	8
332.74231	6
339.05286	71
340.05338	34
341.05182	8
341.06754	18
351.04501	6
352.05362	6
353.05042	5
353.07599	10
357.05435	17
367.0383	9
367.04837	6
369.06183	320
370.05557	65
371.06433	38
371.07877	14
372.06613	9
381.05984	35
382.05219	7
399.07236	188
399.10538	6
400.07117	25
400.08957	8
401.07004	9
401.08603	6
406.07739	6
411.06918	33
423.0809	8
424.10138	8
425.0748	6
429.05127	5
429.08151	49
430.10394	12
442.09161	9
453.08804	5
459.09378	39
471.09732	37
475.09091	13
482.67526	6
487.07883	7
487.09219	6
489.10046	301
489.15341	6
489.38916	6
490.09628	59
490.11542	38
501.09943	27
507.08093	5
519.11145	59
520.11481	13
520.13281	12
580.13849	9
600.39575	6
607.11188	17
607.13269	73
608.13147	143
609.14563	1000

NAME: trans-Caffeic acid
PRECURSORMZ: 179.03498224783
PRECURSORTYPE: [M-H]-
INSTRUMENTTYPE: LC-ESI-QTOF
SMILES: OC(=O)C=CC1=CC(O)=C(O)C=C1
INCHIKEY: QAIPRVGONGVQAS-UHFFFAOYSA-N
Ontology: Hydroxycinnamic acids
COLLISIONENERGY: 10
FORMULA: C9H8O4
RETENTIONTIME: 3.43555
IONMODE: Negative
Comment: registered in RIKEN PlaSMA
Num Peaks: 12
65.03804	8
80.05923	8
107.03753	5
117.03424	18
131.61224	11
133.03125	5
134.03502	99
135.04451	1000
136.04797	140
137.05182	19
179.03142	84
179.03938	60

NAME: Chrysin
PRECURSORMZ: 253.05063234783
PRECURSORTYPE: [M-H]-
INSTRUMENTTYPE: LC-ESI-QTOF
SMILES: OC1=CC(O)=C2C(=O)C=C(OC2=C1)C1=CC=CC=C1
INCHIKEY: RTIXKCRFFJGDFG-UHFFFAOYSA-N
Ontology: Flavones
COLLISIONENERGY: 10
FORMULA: C15H10O4
RETENTIONTIME: 7.375134
IONMODE: Negative
Comment: registered in RIKEN PlaSMA
Num Peaks: 20
63.02338	7
65.00272	6
101.04131	8
107.01533	13
119.04929	12
143.04938	53
144.05472	10
145.02754	18
145.03468	9
151.00237	6
153.06766	6
165.07208	5
167.04971	9
180.05919	10
181.06531	19
209.06007	50
210.05716	5
211.04196	12
253.04973	1000
253.0939	16

NAME: NP-006989(12)
PRECURSORMZ: 609.14610844783
PRECURSORTYPE: [M-H]-
INSTRUMENTTYPE: LC-ESI-QTOF
SMILES: OCC1OC(C(O)C(O)C1O)C1=C(O)C(C2OC(CO)C(O)C(O)C2O)=C2OC(=CC(=O)C2=C1O)C1=CC(O)=C(O)C=C1
INCHIKEY: ZLPSOQFIIQIIAX-UHFFFAOYNA-N
Ontology: Flavonoid 8-C-glycosides
COLLISIONENERGY: 10
FORMULA: C27H30O16
RETENTIONTIME: 3.077283
IONMODE: Negative
Comment: registered in RIKEN PlaSMA
Num Peaks: 9
369.06021	5
489.10443	38
490.11453	7
491.10822	5
519.10657	7
607.11194	13
607.13245	41
608.13574	119
609.14722	1000

NAME: trans-Caffeic acid
PRECURSORMZ: 179.03498224783
PRECURSORTYPE: [M-H]-
INSTRUMENTTYPE: LC-ESI-QTOF
SMILES: OC(=O)C=CC1=CC(O)=C(O)C=C1
INCHIKEY: QAIPRVGONGVQAS-UHFFFAOYSA-N
Ontology: Hydroxycinnamic acids
COLLISIONENERGY: 10
FORMULA: C9H8O4
RETENTIONTIME: 3.43555
IONMODE: Negative
Comment: registered in RIKEN PlaSMA
Num Peaks: 9
103.84273	8
106.03943	8
117.03206	6
133.02386	5
135.04382	1000
136.04739	96
137.05429	7
178.0302	6
179.03387	497

NAME: Chrysin
PRECURSORMZ: 253.05063234783
PRECURSORTYPE: [M-H]-
INSTRUMENTTYPE: LC-ESI-QTOF
SMILES: OC1=CC(O)=C2C(=O)C=C(OC2=C1)C1=CC=CC=C1
INCHIKEY: RTIXKCRFFJGDFG-UHFFFAOYSA-N
Ontology: Flavones
COLLISIONENERGY: 10
FORMULA: C15H10O4
RETENTIONTIME: 7.375134
IONMODE: Negative
Comment: registered in RIKEN PlaSMA
Num Peaks: 3
209.0607	6
253.04938	1000
253.09422	21

NAME: NP-006989(12)
PRECURSORMZ: 609.14610844783
PRECURSORTYPE: [M-H]-
INSTRUMENTTYPE: LC-ESI-QTOF
SMILES: OCC1OC(C(O)C(O)C1O)C1=C(O)C(C2OC(CO)C(O)C(O)C2O)=C2OC(=CC(=O)C2=C1O)C1=CC(O)=C(O)C=C1
INCHIKEY: ZLPSOQFIIQIIAX-UHFFFAOYNA-N
Ontology: Flavonoid 8-C-glycosides
COLLISIONENERGY: 30
FORMULA: C27H30O16
RETENTIONTIME: 3.077283
IONMODE: Negative
Comment: registered in RIKEN PlaSMA
Num Peaks: 182
69.30687	7
113.0235	6
119.03382	5
133.02505	13
133.02974	5
149.02715	6
150.09297	5
167.0661	6
177.01395	7
177.05455	6
190.00253	8
191.0407	9
205.63821	7
223.24426	5
224.56012	6
228.08449	6
253.04628	6
257.04303	7
258.27441	7
265.04303	5
266.06033	6
273.04303	6
278.05438	7
280.07614	6
281.35321	8
285.04346	8
297.03635	14
298.03	6
298.04886	23
302.13651	8
308.98752	6
309.04901	7
311.05481	16
312.06406	11
313.01932	8
313.07568	36
314.08408	5
314.64136	10
327.04684	50
327.05737	25
330.07535	8
335.09567	7
337.03482	15
339.05121	127
340.03348	6
340.05795	50
341.05923	19
341.07104	13
352.0658	10
353.0593	19
354.06064	6
354.13025	5
355.07697	6
356.05524	5
356.38748	5
357.05429	18
357.06854	13
358.06241	14
364.0538	6
365.06094	14
367.04996	25
368.05484	14
368.06799	7
369.06039	1000
369.09235	10
370.06271	277
371.06528	20
371.07748	14
371.96735	6
372.08008	5
380.04691	8
380.2417	7
381.03677	8
381.06097	84
382.05853	42
383.08109	25
385.04193	9
385.08603	7
386.0473	5
386.0654	7
389.07181	10
393.06467	6
395.06186	6
395.08621	5
397.05429	15
399.04071	27
399.07071	627
400.06631	116
400.08322	90
400.12228	6
400.33313	9
401.05927	9
401.08221	48
402.10367	7
405.05402	10
407.4198	7
408.66928	6
411.07205	99
412.07068	7
412.08023	18
413.06915	10
413.08585	8
415.08542	6
423.07291	28
425.08844	6
427.07605	6
428.06897	12
428.53763	5
429.07108	107
429.08914	113
430.08521	46
430.10541	8
431.07108	10
431.33524	8
432.09467	7
435.08087	24
435.0975	7
438.08282	6
440.11731	6
441.07758	95
441.10364	19
442.08569	7
445.96542	5
447.09702	19
453.07272	21
453.09354	19
455.0849	5
456.55518	9
459.07126	10
459.09116	26
459.10425	39
460.08072	12
460.10056	21
465.09119	15
471.09485	81
471.12433	12
472.07635	5
472.09454	8
472.12091	5
473.11832	7
475.07608	5
475.09744	6
483.09647	12
484.10553	6
487.08151	7
487.09375	16
488.08118	25
488.0965	25
488.92453	5
488.96265	5
489.06882	7
489.10248	347
490.10645	78
490.13211	7
491.10074	13
491.13034	7
493.1402	7
501.09082	21
502.10654	7
517.10315	8
518.23096	5
519.10614	67
519.13824	10
520.11566	33
521.09332	7
522.12708	6
530.1001	8
532.10925	6
532.13544	7
544.11389	6
556.10394	8
573.12738	6
574.01123	7
574.12451	5
579.14044	11
580.15259	11
591.12451	7
607.12665	23
608.14545	16
609.13	16
609.14911	12
609.17126	20

NAME: trans-Caffeic acid
PRECURSORMZ: 179.03498224783
PRECURSORTYPE: [M-H]-
INSTRUMENTTYPE: LC-ESI-QTOF
SMILES: OC(=O)C=CC1=CC(O)=C(O)C=C1
INCHIKEY: QAIPRVGONGVQAS-UHFFFAOYSA-N
Ontology: Hydroxycinnamic acids
COLLISIONENERGY: 30
FORMULA: C9H8O4
RETENTIONTIME: 3.43555
IONMODE: Negative
Comment: registered in RIKEN PlaSMA
Num Peaks: 8
90.04355	145
91.05199	63
106.03821	71
107.04707	68
108.02225	87
134.03575	1000
135.04324	671
136.04836	63

NAME: Chrysin
PRECURSORMZ: 253.05063234783
PRECURSORTYPE: [M-H]-
INSTRUMENTTYPE: LC-ESI-QTOF
SMILES: OC1=CC(O)=C2C(=O)C=C(OC2=C1)C1=CC=CC=C1
INCHIKEY: RTIXKCRFFJGDFG-UHFFFAOYSA-N
Ontology: Flavones
COLLISIONENERGY: 30
FORMULA: C15H10O4
RETENTIONTIME: 7.375134
IONMODE: Negative
Comment: registered in RIKEN PlaSMA
Num Peaks: 97
63.02262	74
64.02592	23
65.00182	66
68.05312	6
70.50169	6
77.03759	27
77.04296	9
83.0136	32
89.00293	44
91.01777	8
91.99154	9
92.99632	8
101.03445	54
101.03919	135
101.04839	12
103.04961	15
107.01332	348
108.00991	6
115.05273	114
115.061	10
116.0599	18
117.03074	14
118.0359	7
118.54225	7
119.04964	320
120.0526	36
120.06102	17
121.02411	20
121.03192	25
123.00945	9
124.00991	8
125.03605	11
127.0576	12
129.03223	11
139.05209	39
139.05887	54
141.03061	24
141.07268	9
142.0406	8
143.04897	1000
143.16519	6
144.05432	98
145.02811	438
145.05786	15
146.02934	15
146.04138	7
148.01848	8
151.00186	66
151.06038	18
152.0106	28
152.06165	13
152.17395	8
153.07549	28
154.0784	18
155.05017	70
156.06046	8
157.06343	14
157.07091	10
163.05161	8
165.06493	18
165.07199	37
165.09593	6
166.06873	10
166.07886	20
167.04826	106
168.04634	7
168.05605	6
169.05936	9
179.05751	8
180.05853	79
181.06461	118
181.07518	15
181.77806	9
182.06898	36
183.04012	21
184.04442	8
185.05345	17
185.06383	7
186.06297	6
187.04901	12
194.03342	12
196.98592	11
197.06236	8
205.79698	7
208.05171	48
208.06636	14
208.47296	11
209.06107	121
210.06044	19
211.03772	12
211.04445	20
211.06592	6
218.25467	8
224.04823	11
224.22426	8
225.06	8
253.0511	316

NAME: NP-006989(12)
PRECURSORMZ: 609.14610844783
PRECURSORTYPE: [M-H]-
INSTRUMENTTYPE: LC-ESI-QTOF
SMILES: OCC1OC(C(O)C(O)C1O)C1=C(O)C(C2OC(CO)C(O)C(O)C2O)=C2OC(=CC(=O)C2=C1O)C1=CC(O)=C(O)C=C1
INCHIKEY: ZLPSOQFIIQIIAX-UHFFFAOYNA-N
Ontology: Flavonoid 8-C-glycosides
COLLISIONENERGY: 50
FORMULA: C27H30O16
RETENTIONTIME: 3.077283
IONMODE: Negative
Comment: registered in RIKEN PlaSMA
Num Peaks: 228
65.0001	35
96.01426	28
97.03452	30
103.05695	44
107.04755	40
108.02161	28
109.02986	63
115.3679	24
116.02668	27
123.26945	24
133.02182	87
133.03075	197
134.02614	32
135.03987	33
137.02794	22
141.20337	23
143.04161	28
147.04523	23
149.02052	43
149.05745	46
149.37776	27
150.02834	45
151.04491	55
161.01556	30
162.99899	20
163.03511	56
163.04286	66
165.02486	21
173.02361	24
174.03017	30
175.03955	189
176.00848	20
176.02287	24
176.04814	36
177.01518	192
177.02809	48
177.04045	20
177.05983	139
178.0565	22
178.9953	35
179.02849	59
181.05966	36
183.03644	23
187.05716	27
189.01588	83
189.05244	51
191.03267	114
192.04015	33
193.04044	21
198.02975	42
198.07028	28
199.04254	33
199.05084	20
200.04697	21
201.00929	32
201.02148	90
202.02194	21
203.03578	172
205.01114	30
205.04425	49
206.05865	20
209.03641	34
209.06357	25
210.06215	25
211.03778	31
211.07327	21
213.04446	102
213.05998	32
213.08368	31
214.33678	28
215.03777	21
217.00909	44
217.04567	22
217.05876	27
223.05838	33
224.05414	32
225.04852	23
225.09122	40
226.02158	43
226.0332	27
226.07024	25
227.03348	55
228.03281	23
229.04556	50
230.02309	24
231.02531	20
231.99606	30
233.0341	21
233.04582	64
233.05881	38
234.04152	22
235.01738	30
235.02698	22
235.06265	28
238.05424	25
238.98552	28
241.04747	56
241.08167	21
243.06567	60
244.06819	25
244.33075	29
245.04965	32
246.06549	32
247.0822	25
249.07587	28
252.04138	20
253.04735	25
253.05626	35
254.06555	72
255.02802	22
257.04218	22
257.05667	41
258.08084	24
263.07062	65
264.03903	28
265.0441	23
265.05252	63
266.03186	22
266.05521	31
267.06403	41
267.07617	44
268.0383	28
269.04025	24
270.05051	28
271.06558	28
280.03336	39
281.0285	23
281.04108	29
282.05188	34
282.26489	20
283.01907	23
283.06097	266
284.03299	21
284.05576	27
284.06909	78
285.02994	51
285.0423	91
285.06531	51
285.07587	30
286.03891	42
288.66055	24
289.34854	46
291.02655	33
292.0488	54
293.03522	64
293.05597	46
294.56113	21
295.0578	135
295.07626	31
296.06311	49
297.03735	220
297.40787	22
298.04343	620
299.04565	116
299.05664	418
300.05536	20
305.04462	22
307.05066	48
309.04044	191
310.04303	144
310.0813	20
311.0589	627
312.05814	1000
312.0777	105
312.28592	28
312.52524	22
313.03836	28
313.06808	903
314.06049	46
314.07544	148
315.07971	35
315.87625	28
320.46802	20
322.02914	35
322.05664	46
323.05115	139
323.06479	40
324.03012	29
324.06882	56
325.04861	59
325.06833	77
325.0824	38
326.0354	22
327.04272	169
327.05981	71
328.05121	90
335.05826	22
336.06992	22
337.03577	31
337.06345	36
338.02582	23
339.04947	726
340.04898	154
340.06256	99
341.06934	367
349.06866	35
351.04034	21
351.05478	57
353.06216	263
354.0665	65
355.0542	23
355.09717	22
363.06119	21
364.06122	31
365.05627	38
367.04419	141
367.08395	25
369.0455	220
369.06149	257
369.07925	48
370.05911	88
370.07379	135
371.06268	76
371.08566	23
375.4285	20
379.04919	30
381.0452	67
381.06461	168
383.07031	23
395.0835	27
397.06284	31
399.07434	86
400.08502	22
400.54764	25
408.16379	22
411.05478	22
411.06976	24
437.07895	21

NAME: Chrysin
PRECURSORMZ: 253.05063234783
PRECURSORTYPE: [M-H]-
INSTRUMENTTYPE: LC-ESI-QTOF
SMILES: OC1=CC(O)=C2C(=O)C=C(OC2=C1)C1=CC=CC=C1
INCHIKEY: RTIXKCRFFJGDFG-UHFFFAOYSA-N
Ontology: Flavones
COLLISIONENERGY: 50
FORMULA: C15H10O4
RETENTIONTIME: 7.375134
IONMODE: Negative
Comment: registered in RIKEN PlaSMA
Num Peaks: 13
63.02266	134
65.00191	470
73.00745	179
78.04083	306
101.03825	1000
103.01995	209
115.05406	201
119.00427	164
143.04576	157
145.01988	216
145.02846	194
149.04236	149
167.04187	134

NAME: NP-006989(12)
PRECURSORMZ: 609.14610844783
PRECURSORTYPE: [M-H]-
INSTRUMENTTYPE: LC-ESI-QTOF
SMILES: OCC1OC(C(O)C(O)C1O)C1=C(O)C(C2OC(CO)C(O)C(O)C2O)=C2OC(=CC(=O)C2=C1O)C1=CC(O)=C(O)C=C1
INCHIKEY: ZLPSOQFIIQIIAX-UHFFFAOYNA-N
Ontology: Flavonoid 8-C-glycosides
COLLISIONENERGY: 10
FORMULA: C27H30O16
RETENTIONTIME: 3.077283
IONMODE: Negative
Comment: registered in RIKEN PlaSMA
Num Peaks: 82
121.60299	5
145.06433	6
177.01756	5
233.05807	6
244.03069	9
272.03305	7
289.04391	10
296.14349	9
297.0303	5
298.03864	5
298.07401	5
309.04068	6
312.05432	13
312.06525	8
313.07614	19
314.44519	5
323.05206	6
327.04758	20
327.06097	10
328.97205	6
339.05145	51
340.05206	10
340.07129	5
341.0575	11
341.06699	17
351.06165	8
355.04163	8
356.05417	5
368.04727	9
369.06024	275
370.04761	16
370.06726	57
371.06775	9
371.09076	7
381.05997	30
383.0892	8
383.14575	5
385.16013	5
395.08423	6
399.07352	157
399.11066	6
400.06168	11
400.08572	28
411.08319	16
412.08298	5
424.06747	6
429.08096	35
430.07547	15
430.08826	23
431.07883	9
432.10568	5
441.08298	16
459.07974	19
459.11493	5
465.07159	12
471.08716	31
471.10748	12
473.10721	7
475.08881	13
476.08585	5
489.10184	245
489.39279	5
490.10312	117
491.1084	12
501.92615	5
519.11298	67
520.11005	7
531.09967	5
531.1217	5
543.07562	5
561.10968	10
562.14172	7
573.14447	7
579.12061	6
579.15094	10
580.12372	13
581.14368	5
607.11462	13
607.13281	21
607.15546	6
608.13269	78
609.14673	1000

NAME: trans-Caffeic acid
PRECURSORMZ: 179.03498224783
PRECURSORTYPE: [M-H]-
INSTRUMENTTYPE: LC-ESI-QTOF
SMILES: OC(=O)C=CC1=CC(O)=C(O)C=C1
INCHIKEY: QAIPRVGONGVQAS-UHFFFAOYSA-N
Ontology: Hydroxycinnamic acids
COLLISIONENERGY: 10
FORMULA: C9H8O4
RETENTIONTIME: 3.43555
IONMODE: Negative
Comment: registered in RIKEN PlaSMA
Num Peaks: 16
80.81068	5
82.21613	5
89.03505	6
90.04485	14
105.03406	7
107.05036	7
114.11037	7
117.03419	28
133.77164	7
134.03633	110
135.04453	1000
135.35695	5
136.04401	64
136.05037	92
137.04616	11
179.03355	150

NAME: Chrysin
PRECURSORMZ: 253.05063234783
PRECURSORTYPE: [M-H]-
INSTRUMENTTYPE: LC-ESI-QTOF
SMILES: OC1=CC(O)=C2C(=O)C=C(OC2=C1)C1=CC=CC=C1
INCHIKEY: RTIXKCRFFJGDFG-UHFFFAOYSA-N
Ontology: Flavones
COLLISIONENERGY: 10
FORMULA: C15H10O4
RETENTIONTIME: 7.375134
IONMODE: Negative
Comment: registered in RIKEN PlaSMA
Num Peaks: 18
63.02186	8
65.00206	9
101.03844	7
107.01409	32
119.04881	18
143.04861	59
145.0276	21
151.00223	13
165.07077	9
167.05524	5
180.05608	9
181.06335	18
185.05969	9
209.05937	25
209.06645	10
211.04095	16
253.04941	1000
253.09402	22

NAME: NP-006989(12)
PRECURSORMZ: 609.14610844783
PRECURSORTYPE: [M-H]-
INSTRUMENTTYPE: LC-ESI-QTOF
SMILES: OCC1OC(C(O)C(O)C1O)C1=C(O)C(C2OC(CO)C(O)C(O)C2O)=C2OC(=CC(=O)C2=C1O)C1=CC(O)=C(O)C=C1
INCHIKEY: ZLPSOQFIIQIIAX-UHFFFAOYNA-N
Ontology: Flavonoid 8-C-glycosides
COLLISIONENERGY: 10
FORMULA: C27H30O16
RETENTIONTIME: 3.077283
IONMODE: Negative
Comment: registered in RIKEN PlaSMA
Num Peaks: 10
475.08353	7
489.10056	32
490.11624	10
519.11499	10
607.1062	17
607.12677	61
608.13147	74
608.14618	42
609.14459	1000
609.19836	6

NAME: trans-Caffeic acid
PRECURSORMZ: 179.03498224783
PRECURSORTYPE: [M-H]-
INSTRUMENTTYPE: LC-ESI-QTOF
SMILES: OC(=O)C=CC1=CC(O)=C(O)C=C1
INCHIKEY: QAIPRVGONGVQAS-UHFFFAOYSA-N
Ontology: Hydroxycinnamic acids
COLLISIONENERGY: 10
FORMULA: C9H8O4
RETENTIONTIME: 3.43555
IONMODE: Negative
Comment: registered in RIKEN PlaSMA
Num Peaks: 8
133.02682	11
134.03954	10
135.04472	1000
136.04813	82
136.05873	6
178.84651	6
179.03421	468
179.12949	6

NAME: Chrysin
PRECURSORMZ: 253.05063234783
PRECURSORTYPE: [M-H]-
INSTRUMENTTYPE: LC-ESI-QTOF
SMILES: OC1=CC(O)=C2C(=O)C=C(OC2=C1)C1=CC=CC=C1
INCHIKEY: RTIXKCRFFJGDFG-UHFFFAOYSA-N
Ontology: Flavones
COLLISIONENERGY: 10
FORMULA: C15H10O4
RETENTIONTIME: 7.375134
IONMODE: Negative
Comment: registered in RIKEN PlaSMA
Num Peaks: 3
209.05994	8
253.04993	1000
253.0946	21

NAME: NP-006989(12)
PRECURSORMZ: 609.14610844783
PRECURSORTYPE: [M-H]-
INSTRUMENTTYPE: LC-ESI-QTOF
SMILES: OCC1OC(C(O)C(O)C1O)C1=C(O)C(C2OC(CO)C(O)C(O)C2O)=C2OC(=CC(=O)C2=C1O)C1=CC(O)=C(O)C=C1
INCHIKEY: ZLPSOQFIIQIIAX-UHFFFAOYNA-N
Ontology: Flavonoid 8-C-glycosides
COLLISIONENERGY: 30
FORMULA: C27H30O16
RETENTIONTIME: 3.077283
IONMODE: Negative
Comment: registered in RIKEN PlaSMA
Num Peaks: 172
89.02229	8
118.60477	7
125.02128	10
205.00664	6
207.03453	13
215.03316	9
245.0439	7
245.05299	6
249.03629	6
251.05676	9
263.06235	9
265.06604	11
275.05206	5
276.02173	7
285.04578	6
286.05179	6
293.06937	8
294.05304	5
297.84583	9
299.05948	10
300.9996	6
311.03735	8
311.05212	15
311.06711	9
312.06482	6
312.08295	7
313.07785	17
314.0209	8
320.06888	8
321.03168	6
324.01831	6
327.03912	42
327.05365	67
328.04221	6
328.05734	7
329.0798	8
332.06284	9
334.4245	6
335.06302	8
337.02908	7
338.03641	8
339.03827	63
339.05167	127
339.07523	8
340.05197	37
340.07047	30
341.05273	19
341.06696	23
342.07178	22
352.06158	6
353.07382	24
354.06232	6
355.03781	15
357.05087	19
357.06583	31
358.05103	14
358.07513	6
361.0538	7
363.05704	7
365.06342	23
366.04129	6
367.04178	22
367.06161	15
368.04944	18
368.27847	6
369.01636	7
369.05951	1000
370.03824	8
370.06696	245
371.06949	50
371.77487	9
373.08365	7
378.64102	6
381.06323	59
381.10535	12
382.06146	17
383.07953	29
384.0722	15
385.04922	17
385.40308	7
385.67703	13
395.0733	9
396.08261	6
397.06006	15
398.39096	6
399.0708	782
400.07465	179
401.07251	20
401.0882	8
409.04523	7
409.09064	6
411.04507	7
411.07397	90
412.08206	15
413.06558	9
413.09256	55
414.09317	9
419.90067	9
423.01865	5
423.09827	9
424.07877	12
426.09253	8
429.07745	192
429.10095	23
430.08273	17
430.10074	14
431.07922	7
431.0921	7
432.09061	11
435.077	24
441.05957	11
441.07739	60
441.09195	25
442.07346	13
442.09525	6
447.09689	6
454.0889	6
457.08469	8
459.08676	41
460.0853	31
461.09982	13
466.07092	9
469.67108	6
471.07571	5
471.0957	31
472.09299	12
472.11569	6
475.07529	20
475.08954	15
475.10556	13
487.07031	6
487.09857	27
488.07941	7
488.09509	6
489.09387	160
489.10977	210
490.09421	96
490.10999	90
491.09988	8
491.18976	8
501.10544	18
502.10822	7
502.12241	18
503.13132	7
507.1015	8
513.10406	6
515.09076	5
518.09894	8
519.10626	39
519.1297	47
519.49689	6
520.1189	36
520.13971	17
530.08063	12
543.19299	7
555.11969	9
561.09454	6
561.12286	6
562.15179	8
563.15485	9
573.11774	8
580.13678	6
583.14032	6
590.14417	5
591.12604	9
592.13885	5
607.12671	9
608.13397	6
608.16101	6
609.12146	15
609.15015	67
609.3075	5

NAME: trans-Caffeic acid
PRECURSORMZ: 179.03498224783
PRECURSORTYPE: [M-H]-
INSTRUMENTTYPE: LC-ESI-QTOF
SMILES: OC(=O)C=CC1=CC(O)=C(O)C=C1
INCHIKEY: QAIPRVGONGVQAS-UHFFFAOYSA-N
Ontology: Hydroxycinnamic acids
COLLISIONENERGY: 30
FORMULA: C9H8O4
RETENTIONTIME: 3.43555
IONMODE: Negative
Comment: registered in RIKEN PlaSMA
Num Peaks: 5
89.03941	496
89.04507	83
107.05322	187
134.03661	1000
135.04402	377

NAME: Chrysin
PRECURSORMZ: 253.05063234783
PRECURSORTYPE: [M-H]-
INSTRUMENTTYPE: LC-ESI-QTOF
SMILES: OC1=CC(O)=C2C(=O)C=C(OC2=C1)C1=CC=CC=C1
INCHIKEY: RTIXKCRFFJGDFG-UHFFFAOYSA-N
Ontology: Flavones
COLLISIONENERGY: 30
FORMULA: C15H10O4
RETENTIONTIME: 7.375134
IONMODE: Negative
Comment: registered in RIKEN PlaSMA
Num Peaks: 88
63.02278	121
64.02659	38
64.3541	8
65.00415	44
65.13532	6
77.0394	16
83.01214	13
88.99935	39
92.02795	11
101.0357	55
101.04012	130
102.04422	14
104.02515	7
107.01414	225
108.01266	8
108.01745	7
115.05593	105
115.6322	13
116.05627	15
117.03526	33
117.04098	8
119.04922	418
119.53921	11
120.01845	24
120.04533	17
120.05006	38
121.0308	35
123.03558	17
127.05292	8
129.07385	10
130.04414	12
131.01404	10
135.00746	9
138.04584	24
139.05385	48
139.06581	16
140.05327	7
141.06953	23
141.07787	19
142.03027	8
142.04333	9
142.07524	17
143.04941	1000
144.05347	114
145.02838	422
145.05284	7
146.02594	6
146.03484	49
146.99927	6
147.03596	6
148.01523	23
148.26808	7
150.99951	55
151.00761	44
152.01236	8
152.05534	8
152.07104	12
153.00418	6
153.06841	39
153.07518	32
154.07117	18
155.04782	92
155.06303	7
155.08099	8
156.04988	10
156.0571	11
157.06708	15
159.078	8
165.06967	139
165.62279	6
166.04042	13
166.07697	7
167.0475	137
167.08646	6
168.04924	24
169.06561	32
180.05051	11
180.06003	23
181.06636	65
183.05261	19
185.0578	16
187.03606	13
208.05222	16
209.06239	76
210.06537	9
211.04247	39
212.04858	19
253.05118	226

NAME: NP-006989(12)
PRECURSORMZ: 609.14610844783
PRECURSORTYPE: [M-H]-
INSTRUMENTTYPE: LC-ESI-QTOF
SMILES: OCC1OC(C(O)C(O)C1O)C1=C(O)C(C2OC(CO)C(O)C(O)C2O)=C2OC(=CC(=O)C2=C1O)C1=CC(O)=C(O)C=C1
INCHIKEY: ZLPSOQFIIQIIAX-UHFFFAOYNA-N
Ontology: Flavonoid 8-C-glycosides
COLLISIONENERGY: 50
FORMULA: C27H30O16
RETENTIONTIME: 3.077283
IONMODE: Negative
Comment: registered in RIKEN PlaSMA
Num Peaks: 252
61.04766	20
79.05908	37
83.0125	51
95.01254	33
107.04654	36
108.01933	25
109.02654	38
109.03236	30
111.0443	29
119.04431	26
122.01843	28
125.01992	27
133.03131	241
134.03566	28
134.04153	23
135.0486	97
137.02591	34
139.03746	30
144.05588	25
146.0372	54
147.04587	18
149.01878	21
149.03401	20
149.05571	21
150.02075	19
151.04323	69
159.04391	21
161.02939	18
161.05931	133
162.02811	20
163.0105	26
163.03583	79
164.04831	61
165.01265	29
165.01965	19
167.0287	37
168.03535	23
168.19475	23
173.03049	20
174.04091	38
174.9583	22
175.03516	237
176.04672	35
177.02072	93
177.05803	47
178.27995	18
179.03168	102
179.06862	33
185.06384	20
188.0423	43
189.00995	24
189.04312	24
191.03296	52
191.03914	24
192.04385	54
193.01495	28
193.05807	31
194.02069	32
196.05188	22
198.06627	29
198.63333	22
198.73599	21
201.02194	92
202.02162	20
203.02745	23
203.03902	27
205.01215	52
205.0405	28
205.05785	25
207.08693	24
209.06351	56
209.83119	20
210.06796	27
211.04202	64
212.0704	28
213.05556	76
213.08975	30
214.02899	23
214.0477	28
215.04027	67
217.01575	29
217.03683	20
217.0497	21
219.02715	27
221.06129	44
223.03374	23
224.04707	28
225.05489	39
226.05832	43
227.03506	26
227.08603	35
229.01457	27
229.04477	21
229.05568	18
229.93787	29
230.04884	18
231.03609	18
232.03824	21
232.99893	24
233.04005	19
233.05711	25
235.04427	22
235.05824	22
236.03639	22
238.07005	22
239.0784	23
240.0367	24
241.04369	22
241.05614	20
241.07217	26
242.0529	27
243.02725	56
244.03584	22
245.04454	108
247.02621	21
247.05928	22
250.06952	31
251.02197	19
251.07201	20
253.05095	94
254.05109	48
254.06975	18
255.02834	49
255.03966	26
255.06407	20
255.08386	24
256.05219	18
257.04489	30
258.05698	21
262.0517	51
264.04077	25
267.0434	30
267.06619	58
267.07538	20
268.04758	51
269.04257	78
269.05261	53
270.04529	32
270.05573	20
270.08115	28
271.09259	25
273.03818	20
275.05154	27
278.05756	44
280.03513	18
280.04581	40
280.06693	27
281.04434	20
281.0723	30
282.00824	32
282.05249	28
282.0921	21
283.0191	19
283.04898	101
283.06125	173
283.14334	19
284.06726	123
285.0495	57
290.02487	30
292.07455	22
295.06042	68
296.05347	24
297.0267	19
297.04297	51
297.05869	24
298.02982	42
298.04651	505
298.0589	174
299.05173	185
300.04938	68
301.54495	21
305.03717	19
306.03958	21
307.08719	22
308.06415	48
308.0845	35
309.03842	121
309.05069	26
310.03564	46
310.05173	38
311.03296	20
311.05615	274
312.04376	47
312.0621	757
313.07108	1000
314.08105	100
314.09592	18
314.50742	20
322.03613	20
322.91019	26
323.05347	143
324.05411	66
325.07236	150
325.08899	21
326.04269	22
326.06125	27
327.04837	239
328.0462	30
328.06552	21
335.06268	26
337.05133	26
338.07593	27
339.03894	79
339.05576	332
339.08185	27
339.10815	20
340.04709	135
340.06702	23
340.09653	27
340.22043	24
341.05667	57
341.06793	207
341.08032	41
342.07642	69
343.08023	22
349.07053	22
351.04587	25
351.05826	28
353.06708	281
354.069	58
355.0838	81
357.05801	80
363.04367	20
367.0426	25
367.07678	24
367.15863	30
369.04785	110
369.06741	154
370.06073	141
370.0766	20
371.05194	21
378.05972	46
379.03381	20
379.04388	41
381.05859	43
381.08038	28
382.04483	20
382.0748	20
383.06229	23
384.09592	21
385.05527	28
399.07135	136
399.09357	32
411.06415	68
414.08783	20
425.09259	24
438.12857	34
513.12146	19
607.13745	43
608.12097	20
608.13708	27
609.14062	109

NAME: trans-Caffeic acid
PRECURSORMZ: 179.03498224783
PRECURSORTYPE: [M-H]-
INSTRUMENTTYPE: LC-ESI-QTOF
SMILES: OC(=O)C=CC1=CC(O)=C(O)C=C1
INCHIKEY: QAIPRVGONGVQAS-UHFFFAOYSA-N
Ontology: Hydroxycinnamic acids
COLLISIONENERGY: 50
FORMULA: C9H8O4
RETENTIONTIME: 3.43555
IONMODE: Negative
Comment: registered in RIKEN PlaSMA
Num Peaks: 1
89.03958	1000

NAME: Chrysin
PRECURSORMZ: 253.05063234783
PRECURSORTYPE: [M-H]-
INSTRUMENTTYPE: LC-ESI-QTOF
SMILES: OC1=CC(O)=C2C(=O)C=C(OC2=C1)C1=CC=CC=C1
INCHIKEY: RTIXKCRFFJGDFG-UHFFFAOYSA-N
Ontology: Flavones
COLLISIONENERGY: 50
FORMULA: C15H10O4
RETENTIONTIME: 7.375134
IONMODE: Negative
Comment: registered in RIKEN PlaSMA
Num Peaks: 11
65.00269	436
88.99902	157
101.04272	650
115.05939	350
117.03728	421
119.04662	229
119.05482	350
125.04366	229
143.04973	357
145.02571	1000
253.04512	721

NAME: Kaempferol 3-O-sophoroside
PRECURSORMZ: 609.14610844783
PRECURSORTYPE: [M-H]-
INSTRUMENTTYPE: LC-ESI-QTOF
SMILES: OCC1OC(OC2C(O)C(O)C(CO)OC2OC2=C(OC3=CC(O)=CC(O)=C3C2=O)C2=CC=C(O)C=C2)C(O)C(O)C1O
INCHIKEY: LKZDFKLGDGSGEO-UHFFFAOYNA-N
Ontology: Flavonoid-3-O-glycosides
COLLISIONENERGY: 10
FORMULA: C27H30O16
RETENTIONTIME: 3.789717
IONMODE: Negative
Comment: registered in RIKEN PlaSMA
Num Peaks: 19
150.99927	12
179.00339	9
227.03694	31
229.04765	11
255.03094	130
256.03116	6
256.04224	11
257.04498	8
283.02472	10
283.03775	5
284.03241	540
285.039	277
286.026	8
286.0423	51
326.03873	7
327.05414	11
429.0842	58
430.08221	11
609.14612	1000

NAME: Isovitexin(4)
PRECURSORMZ: 431.09837034783
PRECURSORTYPE: [M-H]-
INSTRUMENTTYPE: LC-ESI-QTOF
SMILES: OCC1OC(C(O)C(O)C1O)C1=C(O)C2=C(OC(=CC2=O)C2=CC=C(O)C=C2)C=C1O
INCHIKEY: MYXNWGACZJSMBT-UHFFFAOYNA-N
Ontology: Flavonoid C-glycosides
COLLISIONENERGY: 10
FORMULA: C21H20O10
RETENTIONTIME: 3.945533
IONMODE: Negative
Comment: registered in RIKEN PlaSMA
Num Peaks: 59
80.54824	5
117.03086	6
117.03856	12
121.02628	9
135.04535	18
149.0257	5
159.04472	20
161.02226	37
163.04066	7
165.02164	19
175.03717	7
179.03828	5
183.04572	8
185.02629	8
196.05486	11
197.06059	11
201.76753	6
203.04007	13
211.06992	8
215.08391	8
223.04245	7
224.04413	7
239.03229	5
239.08018	7
251.07039	7
254.0547	7
268.04333	40
269.04019	37
269.05276	43
270.05023	13
279.07159	7
281.04709	106
282.05566	72
283.06201	543
284.06363	98
285.06927	38
293.05341	11
295.06186	36
309.04233	17
311.05676	1000
312.06073	199
313.05347	12
313.06564	43
323.04742	40
323.06009	77
324.06027	12
325.07187	16
341.06854	428
342.07111	81
343.07492	13
353.05789	16
353.0712	7
357.45233	8
377.07513	6
395.06784	7
395.08701	10
413.0997	15
414.09067	13
431.09995	821

NAME: Kaempferol 3-O-sophoroside
PRECURSORMZ: 609.14610844783
PRECURSORTYPE: [M-H]-
INSTRUMENTTYPE: LC-ESI-QTOF
SMILES: OCC1OC(OC2C(O)C(O)C(CO)OC2OC2=C(OC3=CC(O)=CC(O)=C3C2=O)C2=CC=C(O)C=C2)C(O)C(O)C1O
INCHIKEY: LKZDFKLGDGSGEO-UHFFFAOYNA-N
Ontology: Flavonoid-3-O-glycosides
COLLISIONENERGY: 10
FORMULA: C27H30O16
RETENTIONTIME: 3.789717
IONMODE: Negative
Comment: registered in RIKEN PlaSMA
Num Peaks: 2
284.03287	12
609.14624	1000

NAME: Isovitexin(4)
PRECURSORMZ: 431.09837034783
PRECURSORTYPE: [M-H]-
INSTRUMENTTYPE: LC-ESI-QTOF
SMILES: OCC1OC(C(O)C(O)C1O)C1=C(O)C2=C(OC(=CC2=O)C2=CC=C(O)C=C2)C=C1O
INCHIKEY: MYXNWGACZJSMBT-UHFFFAOYNA-N
Ontology: Flavonoid C-glycosides
COLLISIONENERGY: 10
FORMULA: C21H20O10
RETENTIONTIME: 3.945533
IONMODE: Negative
Comment: registered in RIKEN PlaSMA
Num Peaks: 9
311.05557	275
312.05121	18
312.06009	51
313.05902	9
341.06607	105
342.06879	16
371.08533	5
413.08292	16
431.09741	1000

NAME: Kaempferol 3-O-sophoroside
PRECURSORMZ: 609.14610844783
PRECURSORTYPE: [M-H]-
INSTRUMENTTYPE: LC-ESI-QTOF
SMILES: OCC1OC(OC2C(O)C(O)C(CO)OC2OC2=C(OC3=CC(O)=CC(O)=C3C2=O)C2=CC=C(O)C=C2)C(O)C(O)C1O
INCHIKEY: LKZDFKLGDGSGEO-UHFFFAOYNA-N
Ontology: Flavonoid-3-O-glycosides
COLLISIONENERGY: 30
FORMULA: C27H30O16
RETENTIONTIME: 3.789717
IONMODE: Negative
Comment: registered in RIKEN PlaSMA
Num Peaks: 21
151.00279	24
178.99756	34
180.00061	12
227.02884	16
255.02798	104
256.03638	36
257.0397	7
257.05032	6
281.04028	10
283.02362	17
284.03214	1000
285.03745	427
286.03452	30
286.04471	45
287.04822	7
309.0462	5
327.04385	9
327.05423	16
429.06345	8
429.08145	32
609.14752	39

NAME: Isovitexin(4)
PRECURSORMZ: 431.09837034783
PRECURSORTYPE: [M-H]-
INSTRUMENTTYPE: LC-ESI-QTOF
SMILES: OCC1OC(C(O)C(O)C1O)C1=C(O)C2=C(OC(=CC2=O)C2=CC=C(O)C=C2)C=C1O
INCHIKEY: MYXNWGACZJSMBT-UHFFFAOYNA-N
Ontology: Flavonoid C-glycosides
COLLISIONENERGY: 30
FORMULA: C21H20O10
RETENTIONTIME: 3.945533
IONMODE: Negative
Comment: registered in RIKEN PlaSMA
Num Peaks: 76
117.03298	30
119.04838	6
149.02209	9
159.03923	5
161.02371	28
162.02393	11
163.00502	8
163.03964	17
165.0231	10
169.05992	6
183.04124	24
183.07468	7
185.02333	5
188.00963	5
191.04025	7
193.02422	5
195.07762	8
198.06622	7
202.93089	8
203.03685	6
209.05644	6
211.07361	12
223.07452	6
224.0601	6
225.04898	12
226.05304	6
226.06735	6
227.07353	5
239.06567	16
239.07719	7
240.06952	6
254.05804	16
255.05608	5
255.0692	5
265.05255	6
268.03467	24
269.04568	169
270.04376	17
270.06351	10
279.06613	9
281.04434	133
281.0625	14
282.05383	155
283.06219	1000
284.06601	182
285.06238	22
285.08435	10
293.04266	23
293.056	11
295.06332	127
296.06415	17
296.0737	6
297.07318	8
307.05692	7
308.03168	9
308.05872	5
309.03339	14
309.05441	15
311.05643	621
312.06107	103
313.06186	26
322.0509	6
323.05231	150
323.06265	82
324.06125	46
325.0578	7
325.0722	20
326.06702	6
339.04932	11
341.06653	197
342.06592	49
343.0701	7
349.0769	15
353.05698	10
353.0723	8
428.41638	5

NAME: Kaempferol 3-O-sophoroside
PRECURSORMZ: 609.14610844783
PRECURSORTYPE: [M-H]-
INSTRUMENTTYPE: LC-ESI-QTOF
SMILES: OCC1OC(OC2C(O)C(O)C(CO)OC2OC2=C(OC3=CC(O)=CC(O)=C3C2=O)C2=CC=C(O)C=C2)C(O)C(O)C1O
INCHIKEY: LKZDFKLGDGSGEO-UHFFFAOYNA-N
Ontology: Flavonoid-3-O-glycosides
COLLISIONENERGY: 50
FORMULA: C27H30O16
RETENTIONTIME: 3.789717
IONMODE: Negative
Comment: registered in RIKEN PlaSMA
Num Peaks: 35
107.01215	24
107.01885	6
132.0237	6
135.00842	19
137.0258	8
151.0009	33
157.06432	12
159.04362	6
162.9995	7
164.00664	7
183.04602	5
185.0614	19
197.05922	9
211.04036	33
212.04982	12
213.05576	12
214.02251	6
227.03537	473
228.03531	79
228.05316	5
229.04382	48
230.04964	8
237.05208	12
239.03325	10
242.04895	5
255.02812	1000
256.03357	261
257.03818	43
258.04745	5
283.02316	10
284.03168	284
284.04056	88
285.03873	108
286.03635	7
309.03256	7

NAME: Isovitexin(4)
PRECURSORMZ: 431.09837034783
PRECURSORTYPE: [M-H]-
INSTRUMENTTYPE: LC-ESI-QTOF
SMILES: OCC1OC(C(O)C(O)C1O)C1=C(O)C2=C(OC(=CC2=O)C2=CC=C(O)C=C2)C=C1O
INCHIKEY: MYXNWGACZJSMBT-UHFFFAOYNA-N
Ontology: Flavonoid C-glycosides
COLLISIONENERGY: 50
FORMULA: C21H20O10
RETENTIONTIME: 3.945533
IONMODE: Negative
Comment: registered in RIKEN PlaSMA
Num Peaks: 186
65.00404	16
75.02166	13
77.03876	115
77.04572	16
78.04095	12
78.04396	20
79.01968	47
80.90203	12
90.04162	24
91.05523	12
93.03613	94
95.01043	23
97.0294	42
105.03749	28
106.04633	12
107.01398	33
107.04111	10
108.02203	74
109.02831	24
116.02785	14
117.03436	1000
118.04076	60
118.0475	25
119.01101	23
119.05048	102
119.05811	13
120.0234	15
120.34883	11
121.02929	105
122.03093	12
123.00273	14
124.34306	13
127.05224	19
129.03065	24
130.0399	16
130.04871	12
131.01456	51
131.04987	12
132.01796	18
133.02516	25
133.03159	27
134.03308	13
135.00288	16
135.01212	11
135.04076	39
135.0471	68
136.01845	57
137.0118	14
137.04776	14
139.02948	15
143.02461	13
143.05157	14
146.03372	23
147.00502	10
147.01443	12
147.04292	38
148.0233	13
148.04185	15
149.99117	12
151.01152	15
153.06621	10
154.03918	13
156.06107	27
157.0614	27
159.04436	182
160.04793	14
160.05646	12
161.02391	431
162.03096	42
162.9944	39
163.00389	198
163.03479	26
163.04527	18
163.05508	23
164.01256	58
165.01749	90
165.06462	16
166.02393	16
167.06271	17
168.05583	49
169.02762	14
169.05707	15
169.0668	28
170.8997	14
171.00414	12
171.04149	12
171.05261	21
173.05856	33
174.02464	13
175.00134	10
175.01006	17
177.01004	15
177.02109	24
178.01619	25
180.05359	17
180.06329	12
181.06805	106
182.03754	86
182.0752	35
183.03877	46
183.04805	23
183.08401	28
184.03889	16
185.03021	32
185.06256	15
186.03658	15
187.04626	25
190.99327	14
193.05669	12
194.06645	29
195.04706	48
195.08121	25
196.04559	61
196.08643	13
197.06459	23
197.07137	28
199.06995	27
200.0414	13
202.06963	10
202.99141	12
203.07065	14
203.88698	13
206.06593	15
208.05255	40
209.05864	24
209.06747	13
210.03653	11
211.04713	22
212.04813	12
212.08075	17
213.04543	24
213.05402	45
214.063	12
215.07777	18
222.07846	16
223.04576	17
223.07458	12
224.04741	137
225.05307	76
226.0675	13
227.06866	16
227.07504	25
228.07857	17
235.049	25
237.0468	25
237.05913	80
237.62416	12
238.06395	12
239.03284	30
239.04181	12
239.06689	38
240.03967	37
240.07674	14
248.05078	14
249.06279	20
250.05997	13
250.06938	16
253.04433	54
253.05322	86
254.04329	26
254.05949	24
255.02817	12
255.05998	28
256.06512	12
267.02896	11
268.0311	24
268.04797	27
269.03912	50
269.04987	61
269.06473	16
278.04868	15
279.05807	10
281.04324	253
281.05637	65
282.05347	94
283.05966	150
284.05917	57
284.07266	35
294.04486	14
295.05392	102
295.07166	23
296.06006	12
297.07343	16
308.013	16
323.05444	11
324.06772	30

NAME: Kaempferol 3-O-sophoroside
PRECURSORMZ: 609.14610844783
PRECURSORTYPE: [M-H]-
INSTRUMENTTYPE: LC-ESI-QTOF
SMILES: OCC1OC(OC2C(O)C(O)C(CO)OC2OC2=C(OC3=CC(O)=CC(O)=C3C2=O)C2=CC=C(O)C=C2)C(O)C(O)C1O
INCHIKEY: LKZDFKLGDGSGEO-UHFFFAOYNA-N
Ontology: Flavonoid-3-O-glycosides
COLLISIONENERGY: 10
FORMULA: C27H30O16
RETENTIONTIME: 3.789717
IONMODE: Negative
Comment: registered in RIKEN PlaSMA
Num Peaks: 25
151.00209	15
163.00539	6
227.02895	13
227.03751	37
229.04962	7
255.03053	136
256.02939	24
256.04196	7
257.0437	16
283.02762	21
284.03171	589
285.0372	303
286.03339	33
286.0462	26
287.04242	7
309.0336	6
309.04507	12
327.0509	8
429.07104	9
429.08505	31
430.07159	7
430.08975	6
489.10501	10
609.14539	1000
609.19769	7

NAME: Isovitexin(4)
PRECURSORMZ: 431.09837034783
PRECURSORTYPE: [M-H]-
INSTRUMENTTYPE: LC-ESI-QTOF
SMILES: OCC1OC(C(O)C(O)C1O)C1=C(O)C2=C(OC(=CC2=O)C2=CC=C(O)C=C2)C=C1O
INCHIKEY: MYXNWGACZJSMBT-UHFFFAOYNA-N
Ontology: Flavonoid C-glycosides
COLLISIONENERGY: 10
FORMULA: C21H20O10
RETENTIONTIME: 3.945533
IONMODE: Negative
Comment: registered in RIKEN PlaSMA
Num Peaks: 74
96.01672	5
117.03019	6
117.03664	20
121.035	9
145.02519	7
150.99988	8
159.04561	9
161.02319	21
163.00244	12
163.03465	6
183.04541	21
185.03192	6
186.03072	5
197.07013	7
200.04901	6
203.0394	8
210.06816	9
211.06572	8
211.07797	26
215.07396	9
224.04366	7
225.05557	5
227.03178	8
237.0563	21
240.05325	5
253.0488	10
254.056	8
267.96094	5
269.04483	52
270.04858	21
279.0654	8
281.0256	6
281.04852	120
282.05392	78
283.03424	5
283.06082	474
284.05902	17
284.06946	35
285.07416	6
293.04504	11
295.04843	12
295.05835	37
295.07275	7
296.06354	6
309.03931	7
309.05966	5
310.04382	5
311.05533	1000
311.08417	9
312.05908	217
313.05402	16
313.06689	10
323.05042	51
323.06537	46
324.05423	9
324.06711	7
325.07779	6
335.05481	11
339.07089	8
341.06528	418
342.07242	61
343.0752	7
347.06244	8
353.05472	5
353.06888	19
354.08432	6
377.06989	6
383.0762	12
395.08179	13
413.06992	6
413.09314	30
414.0921	5
415.10013	6
431.09695	841

NAME: Isovitexin(4)
PRECURSORMZ: 431.09837034783
PRECURSORTYPE: [M-H]-
INSTRUMENTTYPE: LC-ESI-QTOF
SMILES: OCC1OC(C(O)C(O)C1O)C1=C(O)C2=C(OC(=CC2=O)C2=CC=C(O)C=C2)C=C1O
INCHIKEY: MYXNWGACZJSMBT-UHFFFAOYNA-N
Ontology: Flavonoid C-glycosides
COLLISIONENERGY: 10
FORMULA: C21H20O10
RETENTIONTIME: 3.945533
IONMODE: Negative
Comment: registered in RIKEN PlaSMA
Num Peaks: 9
311.05484	228
312.05713	47
313.05359	6
341.0661	93
342.0687	27
353.06738	5
413.0809	7
413.09314	7
431.09692	1000

NAME: Kaempferol 3-O-sophoroside
PRECURSORMZ: 609.14610844783
PRECURSORTYPE: [M-H]-
INSTRUMENTTYPE: LC-ESI-QTOF
SMILES: OCC1OC(OC2C(O)C(O)C(CO)OC2OC2=C(OC3=CC(O)=CC(O)=C3C2=O)C2=CC=C(O)C=C2)C(O)C(O)C1O
INCHIKEY: LKZDFKLGDGSGEO-UHFFFAOYNA-N
Ontology: Flavonoid-3-O-glycosides
COLLISIONENERGY: 30
FORMULA: C27H30O16
RETENTIONTIME: 3.789717
IONMODE: Negative
Comment: registered in RIKEN PlaSMA
Num Peaks: 23
150.99825	8
151.00369	24
179.00011	9
211.04868	5
227.02638	8
227.035	29
255.0313	103
256.02869	10
256.04263	26
257.04407	12
283.02014	10
283.03223	6
284.03204	1000
285.03873	430
286.04068	70
287.04718	15
309.02722	6
326.04367	7
327.04773	10
327.06638	6
429.08408	34
430.08594	10
609.14502	53

NAME: Isovitexin(4)
PRECURSORMZ: 431.09837034783
PRECURSORTYPE: [M-H]-
INSTRUMENTTYPE: LC-ESI-QTOF
SMILES: OCC1OC(C(O)C(O)C1O)C1=C(O)C2=C(OC(=CC2=O)C2=CC=C(O)C=C2)C=C1O
INCHIKEY: MYXNWGACZJSMBT-UHFFFAOYNA-N
Ontology: Flavonoid C-glycosides
COLLISIONENERGY: 30
FORMULA: C21H20O10
RETENTIONTIME: 3.945533
IONMODE: Negative
Comment: registered in RIKEN PlaSMA
Num Peaks: 70
77.03863	8
79.01634	5
117.03377	24
121.03124	11
146.97307	7
149.02794	10
159.04376	22
161.02348	32
163.0045	10
163.036	18
165.02692	5
166.01714	6
175.04161	14
177.02335	7
183.04474	22
183.08594	11
185.02084	9
196.04701	5
196.06439	5
197.05095	6
197.06087	13
199.0417	9
205.05215	6
211.07962	9
224.04791	5
224.05795	7
237.05621	8
239.07074	53
241.0518	7
249.02588	5
251.07808	5
253.0529	12
254.0556	6
264.03961	7
267.06348	12
268.03134	30
268.04242	25
269.04395	119
270.05392	26
279.06052	16
281.04633	124
282.0502	187
283.05981	1000
284.06329	174
284.07932	33
285.0513	9
285.06473	29
293.04294	25
295.05829	108
296.05878	18
305.04236	5
307.05624	6
308.03702	20
309.04175	15
311.05417	621
312.05881	113
313.05453	13
313.06662	7
321.05661	5
323.05524	159
324.0632	10
325.04352	5
325.07184	9
341.06845	151
342.07227	40
343.06931	8
349.06815	6
353.06088	7
353.07587	10
367.08633	6

NAME: Kaempferol 3-O-sophoroside
PRECURSORMZ: 609.14610844783
PRECURSORTYPE: [M-H]-
INSTRUMENTTYPE: LC-ESI-QTOF
SMILES: OCC1OC(OC2C(O)C(O)C(CO)OC2OC2=C(OC3=CC(O)=CC(O)=C3C2=O)C2=CC=C(O)C=C2)C(O)C(O)C1O
INCHIKEY: LKZDFKLGDGSGEO-UHFFFAOYNA-N
Ontology: Flavonoid-3-O-glycosides
COLLISIONENERGY: 50
FORMULA: C27H30O16
RETENTIONTIME: 3.789717
IONMODE: Negative
Comment: registered in RIKEN PlaSMA
Num Peaks: 39
108.01926	6
132.01816	7
135.00873	16
151.00464	22
154.04227	7
163.00293	8
164.01183	12
167.05505	8
183.05081	14
185.04524	6
185.05762	25
187.03647	12
187.04832	18
189.05739	6
191.00108	9
195.04144	10
195.04829	5
199.0351	10
211.03111	9
211.04184	17
227.03377	475
228.03806	83
229.05411	27
239.03339	19
240.03937	8
241.04439	10
255.02898	1000
256.03281	183
257.0322	22
257.04352	30
257.05862	8
267.0231	8
269.03488	6
284.03113	334
285.03317	78
285.04474	59
286.02945	7
286.03909	23
286.05182	7

NAME: Isovitexin(4)
PRECURSORMZ: 431.09837034783
PRECURSORTYPE: [M-H]-
INSTRUMENTTYPE: LC-ESI-QTOF
SMILES: OCC1OC(C(O)C(O)C1O)C1=C(O)C2=C(OC(=CC2=O)C2=CC=C(O)C=C2)C=C1O
INCHIKEY: MYXNWGACZJSMBT-UHFFFAOYNA-N
Ontology: Flavonoid C-glycosides
COLLISIONENERGY: 50
FORMULA: C21H20O10
RETENTIONTIME: 3.945533
IONMODE: Negative
Comment: registered in RIKEN PlaSMA
Num Peaks: 203
52.8539	10
59.06099	10
63.02246	13
64.99962	13
65.72576	12
67.02059	11
77.03611	78
77.04066	113
79.01492	28
79.02297	27
89.00105	12
89.03667	28
90.04174	11
91.01782	13
93.03535	75
94.00587	14
94.03377	18
95.01089	40
95.01704	30
97.02351	19
101.03688	22
103.01728	15
105.03435	32
106.35545	14
108.01704	40
108.02375	14
109.03145	21
117.03452	1000
118.03086	24
118.03655	19
119.01359	12
119.0493	101
120.01911	38
120.05399	24
121.02584	89
121.03369	14
123.0491	18
125.02265	21
129.03137	16
131.01369	112
131.04692	16
132.02742	23
133.01582	11
133.02875	95
134.00169	13
134.03406	31
135.00774	70
135.04376	149
139.04837	12
141.02553	21
143.01744	14
143.04799	14
143.0592	21
145.03276	13
145.06653	11
146.03644	24
147.04701	27
148.0161	12
149.02078	21
149.02646	18
150.02887	12
151.00143	37
152.05714	12
152.07051	11
153.92766	11
155.04266	17
155.05078	14
157.06419	11
157.99968	14
159.00681	13
159.04588	203
160.04391	41
160.05028	31
160.92003	11
161.0215	204
161.03006	144
161.99487	18
162.02666	68
163.00276	272
163.03604	45
163.04581	25
164.00708	40
165.01405	145
166.07956	14
167.05116	24
168.04924	17
168.05797	33
168.06535	22
169.03336	16
169.06139	62
170.07005	12
171.04417	42
171.05232	18
173.01915	12
173.02702	12
173.05554	11
174.03876	11
174.05998	10
175.00188	67
175.01349	12
175.03488	18
176.01115	10
177.02133	47
180.0582	25
181.06026	31
181.06885	13
181.46263	16
182.03497	67
182.07703	30
182.08302	13
183.04164	77
183.05135	17
183.07928	85
184.04152	51
185.02174	26
185.05115	12
186.02985	11
186.03979	11
187.00212	16
187.03766	10
188.00031	14
188.04562	15
189.02374	13
189.98836	13
192.04065	11
194.07382	55
195.04721	24
196.0211	13
196.05518	44
197.06129	144
198.06435	66
199.03291	15
200.04482	11
201.019	17
201.05643	43
205.06758	11
207.08723	17
208.05608	30
209.05331	28
209.06221	32
210.03011	10
210.07233	101
210.21103	11
211.0441	41
211.07686	11
212.04239	12
212.05617	13
213.05402	40
213.08319	13
222.06203	17
223.0752	12
224.04491	41
224.05504	12
224.58429	11
225.05045	50
227.02994	11
227.03885	12
233.04884	13
235.03311	10
235.06618	10
237.04799	20
237.06268	14
238.0553	16
238.06538	10
239.03566	51
239.06683	38
239.08255	18
240.06023	14
240.07434	29
240.6489	16
241.04427	11
242.05054	11
248.03535	16
251.06212	12
252.02705	17
252.03632	11
252.07571	14
253.04582	100
254.06148	32
255.07678	18
263.03134	12
265.03882	29
265.06525	15
267.06979	12
268.03912	87
269.03589	26
270.05164	14
280.0394	17
281.03851	126
281.05072	266
282.0484	76
282.07306	14
283.06042	332
284.05673	68
284.0665	27
285.0502	13
292.04697	17
293.03842	17
295.05826	53
305.03015	17
307.0675	10
308.02307	12
311.0473	13

NAME: Kaempferol 3-O-sophoroside
PRECURSORMZ: 609.14610844783
PRECURSORTYPE: [M-H]-
INSTRUMENTTYPE: LC-ESI-QTOF
SMILES: OCC1OC(OC2C(O)C(O)C(CO)OC2OC2=C(OC3=CC(O)=CC(O)=C3C2=O)C2=CC=C(O)C=C2)C(O)C(O)C1O
INCHIKEY: LKZDFKLGDGSGEO-UHFFFAOYNA-N
Ontology: Flavonoid-3-O-glycosides
COLLISIONENERGY: 10
FORMULA: C27H30O16
RETENTIONTIME: 3.789717
IONMODE: Negative
Comment: registered in RIKEN PlaSMA
Num Peaks: 19
151.00601	7
178.99864	16
227.0376	46
228.03526	8
229.04872	6
239.03783	8
255.02795	102
256.02768	15
256.04327	16
257.03964	27
283.02386	13
284.03284	557
285.03809	303
286.02527	5
286.03799	29
286.05368	13
429.08026	26
430.08752	6
609.14471	1000

NAME: Isovitexin(4)
PRECURSORMZ: 431.09837034783
PRECURSORTYPE: [M-H]-
INSTRUMENTTYPE: LC-ESI-QTOF
SMILES: OCC1OC(C(O)C(O)C1O)C1=C(O)C2=C(OC(=CC2=O)C2=CC=C(O)C=C2)C=C1O
INCHIKEY: MYXNWGACZJSMBT-UHFFFAOYNA-N
Ontology: Flavonoid C-glycosides
COLLISIONENERGY: 10
FORMULA: C21H20O10
RETENTIONTIME: 3.945533
IONMODE: Negative
Comment: registered in RIKEN PlaSMA
Num Peaks: 57
117.03271	17
121.02924	15
146.03654	6
151.00171	9
159.04578	7
161.02513	22
163.00037	9
163.03539	9
165.01471	7
165.02417	13
169.06224	6
177.01759	7
183.04309	20
197.05643	6
197.06618	7
211.0835	9
213.05803	5
223.08095	8
225.05397	7
239.06999	12
253.062	10
254.0213	6
255.0625	6
267.02225	6
268.03354	7
268.04633	6
268.05991	5
269.04721	33
281.04532	70
282.0524	118
283.06097	486
284.06387	90
293.04016	15
293.05811	6
295.06195	79
296.06131	10
307.05673	5
309.03455	27
311.05527	1000
312.0574	196
313.05063	15
313.06815	34
314.05368	6
314.06439	6
323.05643	93
324.05084	8
324.06256	6
325.07596	6
335.06342	8
339.05441	5
341.06497	359
342.06732	62
343.07974	11
353.06439	18
383.07413	10
413.07898	28
431.09732	768

NAME: Kaempferol 3-O-sophoroside
PRECURSORMZ: 609.14610844783
PRECURSORTYPE: [M-H]-
INSTRUMENTTYPE: LC-ESI-QTOF
SMILES: OCC1OC(OC2C(O)C(O)C(CO)OC2OC2=C(OC3=CC(O)=CC(O)=C3C2=O)C2=CC=C(O)C=C2)C(O)C(O)C1O
INCHIKEY: LKZDFKLGDGSGEO-UHFFFAOYNA-N
Ontology: Flavonoid-3-O-glycosides
COLLISIONENERGY: 10
FORMULA: C27H30O16
RETENTIONTIME: 3.789717
IONMODE: Negative
Comment: registered in RIKEN PlaSMA
Num Peaks: 2
284.02905	9
609.14624	1000

NAME: Isovitexin(4)
PRECURSORMZ: 431.09837034783
PRECURSORTYPE: [M-H]-
INSTRUMENTTYPE: LC-ESI-QTOF
SMILES: OCC1OC(C(O)C(O)C1O)C1=C(O)C2=C(OC(=CC2=O)C2=CC=C(O)C=C2)C=C1O
INCHIKEY: MYXNWGACZJSMBT-UHFFFAOYNA-N
Ontology: Flavonoid C-glycosides
COLLISIONENERGY: 10
FORMULA: C21H20O10
RETENTIONTIME: 3.945533
IONMODE: Negative
Comment: registered in RIKEN PlaSMA
Num Peaks: 10
311.05368	268
312.04715	19
312.05838	50
323.05017	5
341.06537	118
342.06271	16
342.07556	9
353.07339	6
413.08218	12
431.09714	1000

NAME: Kaempferol 3-O-sophoroside
PRECURSORMZ: 609.14610844783
PRECURSORTYPE: [M-H]-
INSTRUMENTTYPE: LC-ESI-QTOF
SMILES: OCC1OC(OC2C(O)C(O)C(CO)OC2OC2=C(OC3=CC(O)=CC(O)=C3C2=O)C2=CC=C(O)C=C2)C(O)C(O)C1O
INCHIKEY: LKZDFKLGDGSGEO-UHFFFAOYNA-N
Ontology: Flavonoid-3-O-glycosides
COLLISIONENERGY: 30
FORMULA: C27H30O16
RETENTIONTIME: 3.789717
IONMODE: Negative
Comment: registered in RIKEN PlaSMA
Num Peaks: 16
151.00223	27
179.00095	8
180.01033	7
227.03154	21
255.03064	98
256.03265	31
257.04379	23
283.02487	18
284.03235	1000
285.03867	418
286.04282	59
287.04025	9
287.05176	5
327.04477	7
429.08301	37
609.14557	45

NAME: Isovitexin(4)
PRECURSORMZ: 431.09837034783
PRECURSORTYPE: [M-H]-
INSTRUMENTTYPE: LC-ESI-QTOF
SMILES: OCC1OC(C(O)C(O)C1O)C1=C(O)C2=C(OC(=CC2=O)C2=CC=C(O)C=C2)C=C1O
INCHIKEY: MYXNWGACZJSMBT-UHFFFAOYNA-N
Ontology: Flavonoid C-glycosides
COLLISIONENERGY: 30
FORMULA: C21H20O10
RETENTIONTIME: 3.945533
IONMODE: Negative
Comment: registered in RIKEN PlaSMA
Num Peaks: 88
93.03152	7
108.01842	5
117.03544	26
119.04973	6
121.02802	10
132.83858	5
146.03432	7
149.02193	19
159.0368	9
159.04578	6
159.05458	6
161.02365	23
161.03339	9
162.03242	6
163.0361	18
163.04587	7
164.0415	6
165.01863	9
166.0276	7
182.03468	7
183.04457	25
187.04428	6
191.02539	6
191.04088	6
193.0226	6
195.07948	9
196.0522	13
197.05226	7
203.02818	20
210.06879	5
211.07594	12
211.09363	5
212.07664	6
215.07147	15
224.04401	10
225.05299	10
226.05727	8
237.05431	12
238.05986	6
239.06181	24
239.07179	19
239.0838	16
240.07791	5
251.07162	9
255.05283	6
267.02707	9
268.0314	24
268.0415	16
268.06442	8
269.04465	157
280.07291	5
281.04535	143
282.04544	65
282.05374	138
283.05963	1000
284.06256	214
285.05774	12
285.07147	7
293.0434	38
295.05966	136
296.06076	24
296.07498	16
307.06558	14
308.02664	16
308.04431	7
309.04446	32
309.07843	9
311.05408	699
312.05591	44
312.06641	43
313.05545	31
313.06946	7
323.05621	177
324.05115	18
324.06458	28
325.07339	26
335.05426	8
339.05624	9
341.06601	210
342.06381	18
342.07407	18
343.06577	5
343.08069	6
353.05618	10
354.07465	7
365.07309	5
377.09811	5
378.08273	5

NAME: Kaempferol 3-O-sophoroside
PRECURSORMZ: 609.14610844783
PRECURSORTYPE: [M-H]-
INSTRUMENTTYPE: LC-ESI-QTOF
SMILES: OCC1OC(OC2C(O)C(O)C(CO)OC2OC2=C(OC3=CC(O)=CC(O)=C3C2=O)C2=CC=C(O)C=C2)C(O)C(O)C1O
INCHIKEY: LKZDFKLGDGSGEO-UHFFFAOYNA-N
Ontology: Flavonoid-3-O-glycosides
COLLISIONENERGY: 50
FORMULA: C27H30O16
RETENTIONTIME: 3.789717
IONMODE: Negative
Comment: registered in RIKEN PlaSMA
Num Peaks: 35
99.40697	6
107.01192	11
117.0347	6
132.02336	9
135.00998	8
143.05463	5
151.00055	39
151.00983	7
171.04701	9
183.04688	13
185.05878	14
187.03654	8
191.99896	6
195.04713	9
199.04042	7
200.0515	5
211.03775	27
212.05241	8
227.03488	492
228.03709	76
229.0511	28
239.02408	6
239.03816	8
240.03703	6
255.02919	1000
256.03311	204
257.02283	5
257.04181	23
258.05215	6
267.03732	5
283.03052	12
284.0314	323
285.03821	146
286.04916	19
309.04202	14

NAME: Isovitexin(4)
PRECURSORMZ: 431.09837034783
PRECURSORTYPE: [M-H]-
INSTRUMENTTYPE: LC-ESI-QTOF
SMILES: OCC1OC(C(O)C(O)C1O)C1=C(O)C2=C(OC(=CC2=O)C2=CC=C(O)C=C2)C=C1O
INCHIKEY: MYXNWGACZJSMBT-UHFFFAOYNA-N
Ontology: Flavonoid C-glycosides
COLLISIONENERGY: 50
FORMULA: C21H20O10
RETENTIONTIME: 3.945533
IONMODE: Negative
Comment: registered in RIKEN PlaSMA
Num Peaks: 215
63.02135	16
77.03869	134
78.03991	22
79.01703	163
79.97447	13
83.01347	35
89.03745	16
90.04124	32
91.01746	43
92.02576	16
93.02991	16
93.03382	26
93.63392	12
95.01441	49
97.02663	15
97.0321	23
101.0436	32
103.01579	28
103.05833	21
104.02998	18
105.03784	28
107.01135	43
108.0154	16
108.02287	32
109.0257	13
109.99755	18
110.03458	21
115.02124	12
117.03326	1000
118.03859	92
119.01535	56
119.04868	32
120.0173	14
121.02797	101
121.03604	12
122.03358	13
122.04176	17
123.00663	11
123.05334	14
125.02882	14
129.03613	30
130.03088	15
130.05006	15
131.01671	37
132.01479	16
132.02617	11
132.06113	20
133.02605	44
133.03322	52
134.00014	15
134.03192	12
134.03964	26
135.00145	34
135.0101	57
135.04501	242
136.01266	85
136.13702	12
137.01543	11
137.02307	26
141.03233	15
141.17082	15
143.05028	30
145.03156	104
146.03949	15
147.04698	11
148.01651	23
148.04642	14
149.02219	54
151.00081	44
153.0643	15
154.03235	13
155.05031	12
157.06992	15
158.0352	39
159.04391	279
160.01315	16
160.04808	33
160.05803	18
161.02437	310
162.02434	15
162.03186	25
163.00589	208
163.03308	72
163.04486	28
163.052	11
163.99971	17
164.01384	25
164.04332	11
165.01773	193
166.01418	17
167.04814	25
167.05746	23
168.05397	59
169.06438	101
170.03111	12
171.0459	39
173.02069	29
173.05495	32
173.73642	16
174.03296	18
175.00052	59
175.03769	29
175.04652	14
177.02071	30
178.02417	15
179.04247	11
179.05066	13
180.05933	27
181.05916	16
181.06761	20
182.03569	38
183.04253	100
183.05154	25
183.07559	43
184.04401	24
185.02557	15
185.04681	11
185.06078	12
186.02708	57
186.06616	18
187	13
188.00682	12
188.04054	12
189.01373	36
190.99261	12
191.03404	14
193.06651	31
194.06476	26
195.04269	56
195.08229	25
196.05109	83
196.06262	16
197.05986	153
198.06436	26
198.07188	22
199.05992	15
200.04948	32
201.05238	12
202.99825	29
203.02899	13
206.07277	19
207.07387	12
209.06186	56
210.03767	13
210.06049	29
210.07179	37
211.03679	36
211.04393	36
211.07553	96
212.07623	16
213.06146	16
220.04997	12
221.06329	49
222.06499	18
222.0798	12
223.03569	19
223.07616	43
224.03719	28
224.04599	58
225.0433	35
225.05487	107
226.06091	12
226.08083	12
226.23825	18
227.03391	14
227.07036	29
237.04065	20
237.06029	66
238.0536	11
238.06854	12
239.06842	61
240.05005	15
240.06395	11
240.08617	13
241.03857	13
245.05859	16
248.04465	13
249.04303	15
251.03705	32
251.05338	12
253.04195	75
253.05551	68
253.07919	18
254.04933	15
255.02518	11
255.05124	22
255.06392	20
264.0415	12
265.05246	29
266.0275	12
267.06479	11
268.03122	43
268.04456	34
268.09497	11
269.03906	51
269.04895	28
279.05887	15
280.05579	22
281.04395	455
282.04691	13
283.04044	13
283.05936	326
283.33755	11
284.05658	22
284.06854	97
285.06516	12
286.06512	12
293.04251	25
295.02289	16
295.05594	68
296.07065	16
305.0538	12
307.04428	19
308.02939	11
323.05362	12

NAME: NP-000286(7)
PRECURSORMZ: 447.09328504783
PRECURSORTYPE: [M-H]-
INSTRUMENTTYPE: LC-ESI-QTOF
SMILES: OCC1OC(C(O)C(O)C1O)C1=C(O)C2=C(OC(=CC2=O)C2=CC(O)=C(O)C=C2)C=C1O
INCHIKEY: ODBRNZZJSYPIDI-UHFFFAOYNA-N
Ontology: Flavonoid C-glycosides
COLLISIONENERGY: 10
FORMULA: C21H20O11
RETENTIONTIME: 3.582367
IONMODE: Negative
Comment: registered in RIKEN PlaSMA
Num Peaks: 131
89.02065	14
119.05093	12
122.03228	28
132.02489	17
133.02693	48
133.04044	13
134.02615	10
135.04295	11
150.9986	10
161.02414	11
161.0334	11
163.03671	21
165.01735	10
168.08578	12
177.01012	10
180.04118	16
181.02875	9
181.05539	11
185.0601	12
185.06847	14
189.01813	11
191.03999	11
194.01552	16
197.06026	10
198.0696	10
201.02386	19
202.06635	10
202.95529	12
203.02644	13
203.42744	11
211.07199	11
213.04878	13
213.06223	16
216.06358	15
224.04065	9
226.02791	14
227.02783	24
229.02161	10
231.40942	14
236.95656	11
238.46779	10
242.05235	12
246.22079	10
251.02641	12
252.0358	15
253.06239	11
254.05908	25
255.02119	11
255.02969	35
255.06693	12
257.03455	28
258.05347	9
268.04459	27
269.05777	11
270.0452	52
278.04288	10
282.03961	11
283.07266	13
284.02954	12
284.07721	11
285.0379	97
286.03583	31
286.0498	58
295.01569	15
297.03696	94
297.0502	17
298.0459	293
299.05347	244
300.05045	65
300.06174	47
301.36075	9
309.03815	14
311.064	22
312.05759	9
313.03317	58
313.05908	34
314.04868	13
314.0788	13
315.49725	9
316.9606	10
318.37903	23
323.07047	18
324.02661	37
325.01401	10
325.02515	14
325.05084	12
326.02957	16
326.04239	25
327.0509	1000
328.05664	402
329.0574	40
329.07507	21
330.0618	9
330.09253	13
335.0296	9
339.0434	11
340.05103	46
341.05237	12
341.06488	14
346.12183	9
354.05817	11
356.03793	15
356.0498	21
357.06314	447
358.0415	11
358.05954	98
358.07385	132
358.36758	9
359.07031	80
366.05011	12
368.43835	15
369.06445	27
370.05835	12
382.08246	9
388.07242	11
391.07504	11
392.04117	13
393.07098	12
399.06693	17
411.08817	9
412.06857	17
429.06503	21
429.08823	62
430.07596	32
430.1008	31
432.08719	11
442.17871	11
445.0719	18
445.08643	17
446.08374	196
447.09164	889

NAME: trans-Ferulic acid
PRECURSORMZ: 193.05063234783
PRECURSORTYPE: [M-H]-
INSTRUMENTTYPE: LC-ESI-QTOF
SMILES: COC1=C(O)C=CC(C=CC(O)=O)=C1
INCHIKEY: KSEBMYQBYZTDHS-UHFFFAOYSA-N
Ontology: Hydroxycinnamic acids
COLLISIONENERGY: 10
FORMULA: C10H10O4
RETENTIONTIME: 4.228233
IONMODE: Negative
Comment: registered in RIKEN PlaSMA
Num Peaks: 20
106.04781	10
107.04649	10
117.03937	16
132.0183	10
133.02844	40
134.03725	1000
135.03975	77
136.04874	8
149.05797	105
149.06549	33
150.05901	19
150.06854	9
153.47983	8
178.02745	303
179.02649	28
179.03709	17
179.04321	7
179.25197	9
193.05067	262
193.06558	9

NAME: NP-000286(7)
PRECURSORMZ: 447.09328504783
PRECURSORTYPE: [M-H]-
INSTRUMENTTYPE: LC-ESI-QTOF
SMILES: OCC1OC(C(O)C(O)C1O)C1=C(O)C2=C(OC(=CC2=O)C2=CC(O)=C(O)C=C2)C=C1O
INCHIKEY: ODBRNZZJSYPIDI-UHFFFAOYNA-N
Ontology: Flavonoid C-glycosides
COLLISIONENERGY: 10
FORMULA: C21H20O11
RETENTIONTIME: 3.582367
IONMODE: Negative
Comment: registered in RIKEN PlaSMA
Num Peaks: 24
298.05692	10
313.03006	12
314.03275	7
325.03632	10
326.03012	9
327.05069	188
328.04352	28
328.0596	46
329.05902	21
354.05634	7
356.04648	10
357.06143	109
358.05923	16
358.07193	61
359.06821	11
388.0675	7
429.06546	12
429.0824	10
430.07513	8
445.06793	21
445.08316	24
445.10233	6
446.08356	163
447.09274	1000

NAME: trans-Ferulic acid
PRECURSORMZ: 193.05063234783
PRECURSORTYPE: [M-H]-
INSTRUMENTTYPE: LC-ESI-QTOF
SMILES: COC1=C(O)C=CC(C=CC(O)=O)=C1
INCHIKEY: KSEBMYQBYZTDHS-UHFFFAOYSA-N
Ontology: Hydroxycinnamic acids
COLLISIONENERGY: 10
FORMULA: C10H10O4
RETENTIONTIME: 4.228233
IONMODE: Negative
Comment: registered in RIKEN PlaSMA
Num Peaks: 17
59.86396	7
106.04546	9
117.03571	9
134.03676	1000
134.88309	7
135.03542	52
135.04414	59
149.06021	368
150.06168	46
150.07169	11
160.84267	7
178.02672	832
179.032	104
180.02864	8
180.04041	9
182.94051	9
193.05099	867

NAME: NP-000286(7)
PRECURSORMZ: 447.09328504783
PRECURSORTYPE: [M-H]-
INSTRUMENTTYPE: LC-ESI-QTOF
SMILES: OCC1OC(C(O)C(O)C1O)C1=C(O)C2=C(OC(=CC2=O)C2=CC(O)=C(O)C=C2)C=C1O
INCHIKEY: ODBRNZZJSYPIDI-UHFFFAOYNA-N
Ontology: Flavonoid C-glycosides
COLLISIONENERGY: 30
FORMULA: C21H20O11
RETENTIONTIME: 3.582367
IONMODE: Negative
Comment: registered in RIKEN PlaSMA
Num Peaks: 162
66.0957	15
101.02449	18
109.03124	12
121.02697	12
122.11707	22
125.03387	12
133.01988	13
133.02884	94
134.02904	23
146.8577	32
148.0099	16
152.0087	16
161.01836	18
163.00769	18
163.0345	17
163.04636	16
164.00888	12
165.01193	29
166.02248	30
170.07114	15
171.15236	23
175.0027	20
175.02711	16
175.03464	23
177.01546	47
178.02629	12
179.03937	35
182.58009	16
185.08986	18
191.03717	14
197.06125	13
199.0442	17
200.04759	14
201.01753	34
204.0401	19
209.0562	19
211.04268	22
211.05333	14
212.05225	16
214.02762	18
214.05556	13
217.04454	36
217.05649	15
218.05115	14
219.02715	16
223.02994	12
225.06082	36
226.03268	12
227.0721	16
229.01657	16
229.04204	23
231.05496	19
240.04158	25
242.05482	22
243.0311	14
243.05817	16
253.04799	29
254.06146	18
255.03343	29
255.06328	16
255.07802	22
256.03223	16
256.07416	17
263.07419	13
267.02441	16
268.02567	12
268.03925	25
269.04449	157
269.07898	12
270.04938	423
270.11255	18
271.05695	65
274.3735	17
279.02161	27
280.07138	16
281.0387	13
281.86844	12
283.02866	16
283.0629	17
283.49719	16
284.02676	59
284.04001	12
285.03958	389
286.02457	13
286.0437	151
287.05276	17
287.9115	13
295.02505	18
295.05292	31
295.06332	17
297.03854	405
298.04767	630
298.87665	13
299.05255	1000
299.67188	12
300.06104	410
301.0448	35
301.06741	45
301.08139	43
308.03522	15
309.02637	16
309.03903	18
310.03958	16
310.05957	16
311.01846	28
311.05103	138
311.06754	56
311.13364	13
312.05493	111
312.0744	27
313.02798	16
313.04559	47
313.07477	12
313.43976	15
314.04123	14
314.05087	35
315.03998	20
316.65738	28
321.07184	31
323.06259	16
323.71005	12
324.02777	48
324.05902	14
325.02707	34
325.03748	41
325.07422	18
326.07544	17
327.05081	888
327.08594	33
328.05753	618
329.04187	14
329.05847	47
329.06641	84
337.02939	14
338.02731	14
339.02518	29
339.05219	125
339.08368	21
340.04358	42
340.0564	56
340.06784	12
341.05408	16
341.06625	33
342.06226	44
343.08447	22
349.06796	31
351.04715	46
355.0437	12
357.05862	389
357.08008	35
358.03922	22
358.05762	60
358.07025	95
358.08157	35
365.06653	20
369.03757	16
369.0499	13
369.07666	23
370.0733	12
382.0571	16
399.07999	18
431.09512	16

NAME: trans-Ferulic acid
PRECURSORMZ: 193.05063234783
PRECURSORTYPE: [M-H]-
INSTRUMENTTYPE: LC-ESI-QTOF
SMILES: COC1=C(O)C=CC(C=CC(O)=O)=C1
INCHIKEY: KSEBMYQBYZTDHS-UHFFFAOYSA-N
Ontology: Hydroxycinnamic acids
COLLISIONENERGY: 30
FORMULA: C10H10O4
RETENTIONTIME: 4.228233
IONMODE: Negative
Comment: registered in RIKEN PlaSMA
Num Peaks: 6
89.04498	201
106.04021	157
133.02835	1000
134.03485	910
134.04315	351
136.01591	142

NAME: NP-000286(7)
PRECURSORMZ: 447.09328504783
PRECURSORTYPE: [M-H]-
INSTRUMENTTYPE: LC-ESI-QTOF
SMILES: OCC1OC(C(O)C(O)C1O)C1=C(O)C2=C(OC(=CC2=O)C2=CC(O)=C(O)C=C2)C=C1O
INCHIKEY: ODBRNZZJSYPIDI-UHFFFAOYNA-N
Ontology: Flavonoid C-glycosides
COLLISIONENERGY: 50
FORMULA: C21H20O11
RETENTIONTIME: 3.582367
IONMODE: Negative
Comment: registered in RIKEN PlaSMA
Num Peaks: 165
63.02349	26
65.00261	22
77.03932	47
78.04397	29
79.01263	17
79.01704	20
83.0113	25
93.03426	48
103.05687	18
104.02755	22
104.62715	16
106.03932	42
107.00996	36
109.02749	94
109.03435	30
116.06769	20
118.0358	20
119.01439	35
119.05013	19
120.01401	26
120.98907	29
121.02605	66
121.03349	45
122.03461	123
124.09071	20
130.03812	29
131.04471	18
131.05579	20
132.02412	78
133.02803	1000
134.03319	147
135.0023	26
135.01109	36
135.04196	22
135.04959	63
136.00917	31
136.01802	68
136.04974	46
137.02603	29
145.03099	62
146.02899	26
146.03502	20
147.00134	16
147.00705	20
148.04929	33
148.06078	37
149.02849	75
150.99986	18
152.01147	16
155.05418	22
157.02721	38
157.06009	21
160.01299	21
160.02045	20
161.02156	142
162.02618	18
163.00293	115
163.03989	86
164.00946	85
165.0186	82
165.02834	21
166.0258	32
168.04756	22
169.06621	17
171.03697	16
172.01949	19
174.03728	23
175.00351	47
175.02844	28
175.04321	121
177.01445	37
178.02719	36
181.01828	22
182.07697	21
183.0376	58
183.08012	19
187.04794	20
189.04991	16
189.0592	33
189.99048	19
190.02766	37
191.03728	18
195.02019	31
195.02924	16
195.04492	16
195.29726	20
196.04692	34
197.05888	18
198.02313	23
198.05756	37
198.07104	18
198.33218	18
199.03781	49
199.04869	45
201.0172	16
201.0507	23
201.06313	23
202.05972	16
203.02928	20
210.0305	18
211.03552	18
212.04008	19
212.04771	19
212.05763	21
213.05829	31
214.06207	30
215.04935	20
217.05714	21
218.06044	37
224.04904	21
225.05392	161
226.04868	16
227.03151	83
227.06758	24
230.04753	21
238.06136	18
239.03333	19
239.07521	22
240.03911	16
240.04883	17
241.00183	20
241.03671	21
241.04843	46
242.00934	21
242.05772	16
242.06694	30
244.06462	23
250.02449	22
251.03821	18
252.0415	42
253.03502	36
254.04672	22
255.0175	22
256.0307	44
256.0451	35
256.07349	20
258.03488	29
267.0278	17
267.07584	29
269.04132	177
270.03479	20
270.05096	109
271.05728	16
279.02902	21
280.03482	20
280.04617	20
281.035	16
284.02899	92
284.04037	89
285.03043	78
285.04068	27
286.04001	22
295.0506	16
297.03467	64
297.04901	102
298.04987	90
298.07281	41
299.05811	41
300.05197	53
300.06674	18
309.04953	20
311.05148	80
311.07651	18
325.02515	24
327.03729	16

NAME: NP-000286(7)
PRECURSORMZ: 447.09328504783
PRECURSORTYPE: [M-H]-
INSTRUMENTTYPE: LC-ESI-QTOF
SMILES: OCC1OC(C(O)C(O)C1O)C1=C(O)C2=C(OC(=CC2=O)C2=CC(O)=C(O)C=C2)C=C1O
INCHIKEY: ODBRNZZJSYPIDI-UHFFFAOYNA-N
Ontology: Flavonoid C-glycosides
COLLISIONENERGY: 10
FORMULA: C21H20O11
RETENTIONTIME: 3.582367
IONMODE: Negative
Comment: registered in RIKEN PlaSMA
Num Peaks: 124
119.01623	11
131.04559	15
133.02904	35
135.04001	14
150.02855	11
151.01251	22
151.03696	13
159.04688	10
162.99857	21
163.03557	24
164.04474	13
165.01732	11
166.02649	13
172.09073	30
173.02411	19
175.0367	9
177.02454	20
177.0549	15
191.0318	40
193.01022	29
200.04002	16
200.0681	12
200.07674	11
201.01082	14
209.05557	10
212.08659	9
213.05153	28
221.21643	14
223.94112	9
225.05907	10
227.06683	17
237.05571	18
238.06204	14
241.05141	14
243.08363	11
252.02965	17
253.04636	14
254.06023	27
255.03104	10
256.03671	49
256.07333	17
260.0683	10
269.04022	19
269.05109	39
270.04684	34
270.05585	79
271.05969	37
272.04654	12
282.05002	12
283.02069	29
283.06476	9
285.04065	153
285.07034	19
286.0502	49
296.02948	26
296.03885	9
297.02676	27
297.04163	114
298.0448	219
299.04797	141
299.06	174
299.64261	9
300.05856	129
309.05173	13
311.05896	22
312.06699	9
312.07785	14
313.03021	91
313.04529	11
314.03891	30
314.05151	10
315.03564	12
316.22751	9
322.04028	15
324.01431	20
324.06155	16
325.04007	39
325.07303	14
326.89899	12
327.0495	1000
327.10986	13
328.05542	457
329.05829	69
330.07309	12
339.05582	86
340.03754	13
340.05801	22
340.38901	12
343.05557	9
351.04282	12
355.05331	13
356.04822	40
357.0589	525
358.05725	97
358.06955	173
359.05426	12
359.07169	66
360.06927	10
360.08463	11
362.55786	15
365.06537	14
365.08972	11
366.07126	17
369.05212	10
370.07541	28
382.05951	10
386.07797	10
387.06421	10
387.09277	19
393.9942	10
394.06622	13
400.0687	9
400.08484	19
411.08499	12
428.0639	10
429.08041	55
430.08496	25
434.74219	9
445.07462	47
445.0957	12
446.06934	30
446.07993	66
446.09714	61
447.09116	882

NAME: trans-Ferulic acid
PRECURSORMZ: 193.05063234783
PRECURSORTYPE: [M-H]-
INSTRUMENTTYPE: LC-ESI-QTOF
SMILES: COC1=C(O)C=CC(C=CC(O)=O)=C1
INCHIKEY: KSEBMYQBYZTDHS-UHFFFAOYSA-N
Ontology: Hydroxycinnamic acids
COLLISIONENERGY: 10
FORMULA: C10H10O4
RETENTIONTIME: 4.228233
IONMODE: Negative
Comment: registered in RIKEN PlaSMA
Num Peaks: 19
107.47633	11
133.02385	17
134.03671	1000
134.04968	22
135.03876	100
135.40041	8
135.54576	8
138.5648	8
148.05557	12
149.05974	156
149.16023	10
150.06384	53
150.12463	7
177.75507	8
178.02679	346
179.02724	21
179.03882	38
180.02924	8
193.04942	149

NAME: NP-000286(7)
PRECURSORMZ: 447.09328504783
PRECURSORTYPE: [M-H]-
INSTRUMENTTYPE: LC-ESI-QTOF
SMILES: OCC1OC(C(O)C(O)C1O)C1=C(O)C2=C(OC(=CC2=O)C2=CC(O)=C(O)C=C2)C=C1O
INCHIKEY: ODBRNZZJSYPIDI-UHFFFAOYNA-N
Ontology: Flavonoid C-glycosides
COLLISIONENERGY: 10
FORMULA: C21H20O11
RETENTIONTIME: 3.582367
IONMODE: Negative
Comment: registered in RIKEN PlaSMA
Num Peaks: 24
101.70434	5
285.04404	6
297.03632	6
298.04886	14
313.02975	10
326.03461	23
327.03375	19
327.05264	163
328.04041	26
328.05817	109
329.06137	29
356.05441	8
357.06219	131
358.0575	30
358.07141	35
359.07376	17
387.06601	17
391.51352	6
393.06442	9
429.07788	42
430.08633	34
445.07803	42
446.08453	137
447.09296	1000

NAME: trans-Ferulic acid
PRECURSORMZ: 193.05063234783
PRECURSORTYPE: [M-H]-
INSTRUMENTTYPE: LC-ESI-QTOF
SMILES: COC1=C(O)C=CC(C=CC(O)=O)=C1
INCHIKEY: KSEBMYQBYZTDHS-UHFFFAOYSA-N
Ontology: Hydroxycinnamic acids
COLLISIONENERGY: 10
FORMULA: C10H10O4
RETENTIONTIME: 4.228233
IONMODE: Negative
Comment: registered in RIKEN PlaSMA
Num Peaks: 20
117.0347	22
118.0359	9
118.051	7
133.03088	6
133.10414	8
133.91197	7
134.03667	1000
135.03801	102
136.03717	13
149.06046	290
150.06589	42
151.06082	13
171.1093	6
172.63538	10
178.02643	592
178.77449	7
179.02927	138
181.04381	6
187.39279	6
193.05052	748

NAME: NP-000286(7)
PRECURSORMZ: 447.09328504783
PRECURSORTYPE: [M-H]-
INSTRUMENTTYPE: LC-ESI-QTOF
SMILES: OCC1OC(C(O)C(O)C1O)C1=C(O)C2=C(OC(=CC2=O)C2=CC(O)=C(O)C=C2)C=C1O
INCHIKEY: ODBRNZZJSYPIDI-UHFFFAOYNA-N
Ontology: Flavonoid C-glycosides
COLLISIONENERGY: 30
FORMULA: C21H20O11
RETENTIONTIME: 3.582367
IONMODE: Negative
Comment: registered in RIKEN PlaSMA
Num Peaks: 169
65.00487	16
109.02074	15
109.03043	42
121.03091	14
122.77413	16
129.03465	18
133.02966	140
134.03368	46
135.01062	12
136.04903	12
147.04727	15
147.69516	18
149.02023	26
151.03906	16
155.21701	12
161.05786	14
163.04115	46
164.00722	24
164.76695	21
165.01562	15
166.02438	16
167.90822	18
171.04082	14
175.03519	14
175.04344	23
175.05309	15
177.5972	12
178.03139	20
179.03656	16
185.06363	17
185.13597	28
185.23148	12
191.0442	18
193.01035	14
194.08214	14
195.04637	14
198.03493	12
199.04408	40
200.0446	12
200.05423	14
201.01341	33
203.03622	14
204.0107	27
204.03992	14
205.02122	14
209.05605	14
211.03207	17
213.0524	80
213.06441	13
216.03711	20
217.05348	27
227.03429	15
227.06682	12
229.00938	12
229.04414	18
229.05005	44
231.05794	20
236.03807	14
240.03531	20
241.04639	31
241.05818	23
241.92471	15
243.0184	14
243.06267	14
251.02751	15
254.05656	58
255.02582	64
255.07359	16
256.03058	14
256.05365	14
256.07007	13
257.04343	23
258.03949	20
258.08707	18
263.02191	19
263.03937	25
266.06039	21
268.03098	35
268.04285	16
269.03784	134
269.05521	51
270.05081	276
271.04736	53
274.08981	28
281.03598	12
282.04428	18
282.05511	12
284.02823	109
284.0386	29
284.06662	13
285.04022	696
285.83713	14
286.03439	47
286.04971	229
286.06543	26
287.03711	30
287.05719	16
288.04831	22
294.05533	14
296.03616	14
297.04114	583
298.04953	763
299.056	781
300.06039	429
301.05722	132
301.07718	17
302.05914	12
307.91302	16
309.03137	16
309.04449	14
309.30487	13
310.04797	46
310.88864	19
311.05664	199
312.02002	25
312.05939	116
313.02747	25
313.0517	25
313.06384	32
314.03128	37
321.05005	14
322.0304	35
322.05252	14
324.01294	26
324.02905	16
325.03656	38
326.03381	33
326.04288	60
326.06094	13
327.05139	1000
328.0463	170
328.05881	519
329.05569	54
329.07455	53
330.05267	16
338.04544	31
339.04407	60
339.05685	238
340.0405	37
340.05301	91
342.71869	14
343.06891	18
351.04654	17
351.05948	67
353.06027	29
353.0733	16
354.08575	14
355.03293	27
355.04736	22
356.0733	16
357.06204	391
357.08627	16
357.66336	12
358.00723	14
358.06305	131
358.07861	79
359.06189	35
360.06885	12
363.05728	15
364.04935	14
365.05554	16
365.07816	14
369.05603	56
369.06906	37
370.07324	28
395.06534	16
400.07333	27
400.09311	14
430.0809	14

NAME: trans-Ferulic acid
PRECURSORMZ: 193.05063234783
PRECURSORTYPE: [M-H]-
INSTRUMENTTYPE: LC-ESI-QTOF
SMILES: COC1=C(O)C=CC(C=CC(O)=O)=C1
INCHIKEY: KSEBMYQBYZTDHS-UHFFFAOYSA-N
Ontology: Hydroxycinnamic acids
COLLISIONENERGY: 30
FORMULA: C10H10O4
RETENTIONTIME: 4.228233
IONMODE: Negative
Comment: registered in RIKEN PlaSMA
Num Peaks: 6
108.02687	178
117.02853	123
132.01849	129
133.02847	479
134.0359	1000
135.95834	110

NAME: NP-000286(7)
PRECURSORMZ: 447.09328504783
PRECURSORTYPE: [M-H]-
INSTRUMENTTYPE: LC-ESI-QTOF
SMILES: OCC1OC(C(O)C(O)C1O)C1=C(O)C2=C(OC(=CC2=O)C2=CC(O)=C(O)C=C2)C=C1O
INCHIKEY: ODBRNZZJSYPIDI-UHFFFAOYNA-N
Ontology: Flavonoid C-glycosides
COLLISIONENERGY: 50
FORMULA: C21H20O11
RETENTIONTIME: 3.582367
IONMODE: Negative
Comment: registered in RIKEN PlaSMA
Num Peaks: 164
55.01849	24
63.02301	15
77.0391	28
78.01849	22
79.01855	15
80.06328	29
82.03662	22
83.01115	16
89.03687	16
91.01759	36
92.03048	26
95.04553	18
96.01919	22
97.02999	19
107.01064	17
108.02113	35
109.02411	21
110.03732	22
111.03728	25
115.05947	26
118.0399	35
121.02527	83
122.03072	54
123.00723	18
123.04173	38
126.03145	15
128.06087	25
128.23915	18
132.01733	20
132.0239	79
133.02945	1000
134.0287	91
134.99959	16
135.01218	16
136.01408	39
136.04401	32
137.02061	32
138.03661	26
141.07259	19
145.03305	21
145.07433	15
146.0307	15
146.03975	22
147.03661	19
147.04254	15
149.02071	34
150.02322	15
150.03398	35
151.00107	72
152.00208	14
152.01299	30
153.01312	15
157.02528	22
158.07433	38
159.04115	19
160.05215	58
161.02205	111
162.02609	69
163.00363	72
163.0336	62
163.04938	17
164.00885	94
165.00887	18
165.02075	101
166.01268	15
166.02773	19
167.05038	18
167.06163	27
169.06433	14
170.07539	17
171.04463	50
172.05544	19
174.02492	17
175.03981	44
176.01479	57
177.01807	84
177.98151	18
179.99538	23
180.06123	31
181.06534	14
181.51978	15
183.06972	14
184.05223	25
185.05681	16
187.04321	25
188.04201	18
188.37347	23
189.04996	25
189.99292	32
190.99242	15
193.00917	15
195.04086	16
196.05901	15
197.06068	35
198.02725	14
198.03595	32
198.06346	32
198.07608	25
199.03308	35
199.04446	34
200.03812	31
200.04707	19
201.0146	43
201.02527	55
202.01097	22
202.02167	32
202.85706	15
203.02788	23
208.04089	17
209.06822	25
210.80566	15
211.0352	47
211.0724	25
212.03607	22
212.04483	18
213.04962	59
214.05994	18
214.06685	16
225.05215	68
225.06265	34
226.02811	31
226.92354	14
227.0334	90
227.04106	31
229.04993	76
230.0576	20
236.05519	17
240.04015	43
241.03448	15
241.04672	29
242.04703	32
250.03394	29
251.04137	21
251.06908	21
253.05243	17
255.03641	23
256.02902	15
258.03867	15
268.04028	39
268.52454	24
269.03857	59
270.04153	32
270.05817	45
271.05655	14
279.02667	20
282.05905	15
284.01691	15
284.0376	109
285.02856	37
285.05704	46
286.02621	31
286.04239	16
286.05121	14
297.0379	143
298.0419	210
299.04987	69
300.05716	32
300.07162	25
301.06467	43
310.03238	15
311.07053	19
314.02924	16
324.01553	14
327.05106	19

NAME: trans-Ferulic acid
PRECURSORMZ: 193.05063234783
PRECURSORTYPE: [M-H]-
INSTRUMENTTYPE: LC-ESI-QTOF
SMILES: COC1=C(O)C=CC(C=CC(O)=O)=C1
INCHIKEY: KSEBMYQBYZTDHS-UHFFFAOYSA-N
Ontology: Hydroxycinnamic acids
COLLISIONENERGY: 50
FORMULA: C10H10O4
RETENTIONTIME: 4.228233
IONMODE: Negative
Comment: registered in RIKEN PlaSMA
Num Peaks: 2
105.03308	526
132.02028	1000

NAME: NP-000286(7)
PRECURSORMZ: 447.09328504783
PRECURSORTYPE: [M-H]-
INSTRUMENTTYPE: LC-ESI-QTOF
SMILES: OCC1OC(C(O)C(O)C1O)C1=C(O)C2=C(OC(=CC2=O)C2=CC(O)=C(O)C=C2)C=C1O
INCHIKEY: ODBRNZZJSYPIDI-UHFFFAOYNA-N
Ontology: Flavonoid C-glycosides
COLLISIONENERGY: 10
FORMULA: C21H20O11
RETENTIONTIME: 3.582367
IONMODE: Negative
Comment: registered in RIKEN PlaSMA
Num Peaks: 131
97.02257	10
110.03503	10
120.05684	19
121.02823	17
133.028	38
135.04568	19
149.03162	17
151.03902	12
164.01147	21
165.01782	12
169.05946	16
174.02811	13
174.06648	15
175.02831	13
175.04626	31
175.64534	11
179.03387	21
179.35275	11
183.04524	10
185.05928	22
189.05849	11
199.03551	18
201.01582	13
202.02928	14
203.03484	11
205.01692	11
211.04369	11
211.07774	15
213.01392	11
213.0495	13
213.06451	16
215.03596	24
217.0491	13
218.05956	13
225.04039	10
225.06284	13
226.03792	11
226.05945	25
227.32861	11
229.05176	31
238.06848	17
240.03677	13
240.05928	13
241.04416	13
241.05296	22
243.03316	12
252.03781	14
252.04839	15
253.04922	10
254.0202	14
254.06038	10
255.06625	21
256.04327	11
256.07004	12
257.04562	14
269.0361	15
269.04556	33
270.04678	194
271.04062	11
271.0863	14
280.03867	23
281.03012	12
281.04126	16
282.04922	33
282.0621	10
283.04941	16
284.03427	113
285.03448	125
285.04599	71
286.03897	59
286.05194	12
297.03885	217
298.04617	305
299.03601	41
299.05475	495
300.05798	84
300.07266	113
301.07108	11
301.08453	10
307.05722	13
311.06204	49
312.05573	14
312.06677	12
313.02411	14
313.03708	42
314.02725	16
321.03522	16
324.03149	11
324.05981	12
325.02963	12
325.04288	39
326.03937	137
327.02652	33
327.04974	865
327.08441	15
327.18961	13
328.05212	428
328.09708	15
329.06363	123
330.04153	12
337.03012	12
337.04065	15
339.04901	10
340.05734	106
353.07019	13
354.07849	11
356.04868	51
357.06018	619
357.09088	11
358.06519	376
358.09073	12
359.07654	10
363.04785	19
365.0679	22
367.06821	17
369.07086	31
370.05981	35
370.073	11
371.08011	34
381.07239	20
385.0788	10
388.06696	14
414.68793	10
429.08881	96
429.10464	12
430.0784	58
430.09702	35
445.07211	48
445.09344	21
446.08078	252
447.09296	1000

NAME: trans-Ferulic acid
PRECURSORMZ: 193.05063234783
PRECURSORTYPE: [M-H]-
INSTRUMENTTYPE: LC-ESI-QTOF
SMILES: COC1=C(O)C=CC(C=CC(O)=O)=C1
INCHIKEY: KSEBMYQBYZTDHS-UHFFFAOYSA-N
Ontology: Hydroxycinnamic acids
COLLISIONENERGY: 10
FORMULA: C10H10O4
RETENTIONTIME: 4.228233
IONMODE: Negative
Comment: registered in RIKEN PlaSMA
Num Peaks: 16
89.03331	13
106.04221	16
107.04719	23
132.02754	10
133.02002	11
133.02826	72
134.03581	1000
135.03336	10
135.04285	12
149.05899	198
150.07097	13
178.02574	344
179.02434	14
179.03319	14
193.04309	53
193.05193	224

NAME: NP-000286(7)
PRECURSORMZ: 447.09328504783
PRECURSORTYPE: [M-H]-
INSTRUMENTTYPE: LC-ESI-QTOF
SMILES: OCC1OC(C(O)C(O)C1O)C1=C(O)C2=C(OC(=CC2=O)C2=CC(O)=C(O)C=C2)C=C1O
INCHIKEY: ODBRNZZJSYPIDI-UHFFFAOYNA-N
Ontology: Flavonoid C-glycosides
COLLISIONENERGY: 10
FORMULA: C21H20O11
RETENTIONTIME: 3.582367
IONMODE: Negative
Comment: registered in RIKEN PlaSMA
Num Peaks: 24
115.88057	6
269.05035	7
297.03516	5
298.04074	8
313.04071	12
325.04608	12
326.04095	11
327.05139	190
328.0553	77
329.06171	12
357.06119	80
358.06134	56
359.0676	6
360.06931	8
363.77277	5
371.08026	10
397.92596	5
429.07346	31
430.09518	9
445.07339	25
445.08856	14
446.07385	79
446.08984	85
447.09286	1000

NAME: trans-Ferulic acid
PRECURSORMZ: 193.05063234783
PRECURSORTYPE: [M-H]-
INSTRUMENTTYPE: LC-ESI-QTOF
SMILES: COC1=C(O)C=CC(C=CC(O)=O)=C1
INCHIKEY: KSEBMYQBYZTDHS-UHFFFAOYSA-N
Ontology: Hydroxycinnamic acids
COLLISIONENERGY: 10
FORMULA: C10H10O4
RETENTIONTIME: 4.228233
IONMODE: Negative
Comment: registered in RIKEN PlaSMA
Num Peaks: 16
69.94172	7
95.82967	11
132.46567	6
133.99709	7
134.03693	1000
134.24542	7
135.03947	50
136.04625	6
149.06012	366
150.06378	56
178.02684	858
179.02879	117
180.03104	7
180.03912	9
193.04955	764
193.09586	6

NAME: NP-000286(7)
PRECURSORMZ: 447.09328504783
PRECURSORTYPE: [M-H]-
INSTRUMENTTYPE: LC-ESI-QTOF
SMILES: OCC1OC(C(O)C(O)C1O)C1=C(O)C2=C(OC(=CC2=O)C2=CC(O)=C(O)C=C2)C=C1O
INCHIKEY: ODBRNZZJSYPIDI-UHFFFAOYNA-N
Ontology: Flavonoid C-glycosides
COLLISIONENERGY: 30
FORMULA: C21H20O11
RETENTIONTIME: 3.582367
IONMODE: Negative
Comment: registered in RIKEN PlaSMA
Num Peaks: 143
92.02078	11
109.0265	11
119.04912	13
121.02782	27
122.03061	16
133.02754	33
133.03348	11
134.03099	36
135.03932	12
137.02379	18
138.20078	18
148.05304	14
148.05864	11
149.02399	23
161.02151	23
161.0316	14
161.06247	12
163.04036	42
166.02693	13
174.02928	12
175.00909	13
175.03999	26
176.04144	13
179.03633	32
187.04442	13
188.00682	19
191.02708	28
191.03645	20
193.01825	33
196.45903	27
197.63597	20
198.03534	16
199.03381	27
199.0461	19
200.05054	11
201.01797	12
203.02838	12
208.03491	12
212.04469	34
216.07913	22
217.05501	14
219.02388	20
223.04744	13
225.05862	27
226.06036	13
227.03517	11
227.07022	34
231.03328	17
242.05278	21
243.02974	28
243.06862	14
244.02818	11
251.03494	14
253.05585	16
253.06543	12
254.06056	25
255.02861	11
255.07433	11
256.03348	19
257.04266	30
266.05377	24
267.07431	11
268.03824	13
268.47357	11
268.60077	21
269.04236	86
269.05774	61
270.03915	73
270.0531	205
271.06448	14
281.04453	14
282.0484	17
283.04605	17
284.03375	202
285.02542	31
285.03922	190
285.04944	42
286.0372	98
286.05212	33
286.08646	16
287.05594	50
293.03897	17
295.02628	14
295.06387	19
296.03864	11
297.04291	481
298.04761	528
299.05249	935
300.06015	286
300.07129	75
301.0416	11
301.05508	30
301.07001	46
301.08447	13
303.25635	20
309.02985	16
309.04102	47
310.04721	28
311.04999	69
311.06097	66
312.0278	12
312.06412	36
313.04874	61
314.04813	33
315.03268	25
315.05634	14
324.01886	17
324.04688	13
325.03192	16
325.04697	12
326.07629	12
327.04919	1000
328.04037	62
328.05566	499
329.05948	49
329.07169	37
330.05881	20
337.06796	20
337.08444	19
339.04739	66
339.05865	129
340.05737	233
341.06149	52
342.082	23
349.05466	11
350.07629	16
355.91394	13
357.05768	231
358.06042	72
358.07309	57
365.0777	11
366.06638	14
369.05411	12
370.05185	33
370.06421	12
371.06952	15
381.04456	14
382.06918	15
383.07312	20
394.07132	14
412.2565	15
413.10031	15
429.06915	30

NAME: trans-Ferulic acid
PRECURSORMZ: 193.05063234783
PRECURSORTYPE: [M-H]-
INSTRUMENTTYPE: LC-ESI-QTOF
SMILES: COC1=C(O)C=CC(C=CC(O)=O)=C1
INCHIKEY: KSEBMYQBYZTDHS-UHFFFAOYSA-N
Ontology: Hydroxycinnamic acids
COLLISIONENERGY: 30
FORMULA: C10H10O4
RETENTIONTIME: 4.228233
IONMODE: Negative
Comment: registered in RIKEN PlaSMA
Num Peaks: 5
132.61731	101
133.01471	235
133.02817	721
133.03656	101
134.03741	1000

NAME: NP-000286(7)
PRECURSORMZ: 447.09328504783
PRECURSORTYPE: [M-H]-
INSTRUMENTTYPE: LC-ESI-QTOF
SMILES: OCC1OC(C(O)C(O)C1O)C1=C(O)C2=C(OC(=CC2=O)C2=CC(O)=C(O)C=C2)C=C1O
INCHIKEY: ODBRNZZJSYPIDI-UHFFFAOYNA-N
Ontology: Flavonoid C-glycosides
COLLISIONENERGY: 50
FORMULA: C21H20O11
RETENTIONTIME: 3.582367
IONMODE: Negative
Comment: registered in RIKEN PlaSMA
Num Peaks: 174
66.00613	17
69.03217	23
72.01814	19
75.01876	20
77.0378	37
79.0145	42
83.00871	20
89.03751	23
91.01942	21
93.03253	27
97.0293	27
101.04049	23
104.02573	17
107.01501	39
107.04617	25
108.01317	28
109.0295	113
110.03179	51
118.03997	19
119.00894	31
119.05029	19
121.02535	53
121.03165	31
122.03458	127
123.00887	47
123.0425	26
129.03404	25
132.02094	27
132.17317	17
133.02806	1000
134.02806	125
134.04057	28
134.0475	34
135.03996	43
135.04582	33
136.01869	41
136.05591	46
141.06339	19
144.02045	39
146.0359	25
147.04767	33
149.02451	19
149.99899	20
150.02754	23
151.00392	20
151.03484	17
153.01196	22
156.05272	20
157.02063	37
157.02997	45
157.06776	95
159.03807	47
161.02213	140
161.03386	47
162.03328	42
163.00406	100
163.032	25
164.00035	20
164.00955	128
164.04991	66
165.00592	19
165.0163	112
166.02693	91
167.04807	20
169.06274	18
169.07269	17
171.04228	53
172.02277	26
173.02737	18
173.05461	18
175.03947	66
176.04356	38
176.05309	21
177.02142	62
178.01784	24
178.02724	23
181.07285	18
182.06654	19
183.04402	25
183.08025	57
184.05133	20
186.02808	20
186.07657	19
187.04094	17
188.04895	23
189.01404	25
190.02539	40
190.65036	21
193.01613	23
194.01781	37
195.03853	21
196.04756	33
196.05603	20
197.06598	72
198.04018	43
199.03458	112
200.03964	21
200.04831	19
201.01598	78
201.02937	26
201.05902	60
202.02048	18
208.04692	37
210.03142	23
211.05089	19
211.07658	22
212.04282	41
212.0818	19
213.0434	28
213.05986	36
214.05521	18
215.02831	65
216.03523	21
223.04489	22
224.05217	17
225.04607	44
225.05974	23
225.06874	23
226.02237	20
226.06178	17
226.07191	28
227.0318	76
227.07982	19
228.03615	66
228.05441	29
229.04732	18
230.0576	22
235.04077	21
239.02415	21
239.06546	25
240.05002	65
241.05283	97
243.0311	18
243.07248	22
247.58015	18
252.03056	31
252.0433	59
253.04056	28
254.06175	78
255.0197	25
255.03534	19
256.04355	20
267.06223	23
268.03409	24
268.06622	22
269.03476	22
269.04608	22
270.05087	93
271.05237	19
272.05283	23
282.01321	18
282.04904	24
283.05624	36
284.03424	125
285.03564	47
286.03711	20
286.04675	19
293.05042	21
295.03967	20
297.03177	102
297.04416	47
297.05466	18
298.03854	153
298.0549	94
299.04282	77
299.06015	61
300.05045	41
300.06427	42
305.0332	25
311.02332	38
311.05145	23
313.07352	20
325.02673	20
327.05292	18

NAME: 2-Propenyl glucosinolate
PRECURSORMZ: 358.02719704783
PRECURSORTYPE: [M-H]-
INSTRUMENTTYPE: LC-ESI-QTOF
SMILES: OCC1OC(SC(CC=C)=NOS(O)(=O)=O)C(O)C(O)C1O
INCHIKEY: PHZOWSSBXJXFOR-UHFFFAOYNA-N
Ontology: Alkylglucosinolates
COLLISIONENERGY: 10
FORMULA: C10H17NO9S2
RETENTIONTIME: 1.76795
IONMODE: Negative
Comment: registered in RIKEN PlaSMA
Num Peaks: 39
74.99071	113
76.98824	12
80.96726	17
81.95284	22
82.96304	12
85.02579	12
89.02121	13
95.951	263
96.94765	10
96.95935	503
98.95549	10
101.02737	14
102.9859	9
104.99822	14
105.95774	11
116.01781	104
119.03986	18
125.00475	14
128.9335	11
131.03304	14
143.03624	13
147.53841	9
161.98781	31
164.97017	16
179.99461	13
183.89613	14
184.03702	9
189.1776	21
195.03537	72
197.02226	12
227.01993	23
241.01315	15
242.00122	10
259.00443	26
259.01572	108
260.01517	17
278.0748	10
292.79749	10
358.0267	1000

NAME: (2R)-2-Hydroxy-2-phenethylglucosinolate
PRECURSORMZ: 438.05341174783
PRECURSORTYPE: [M-H]-
INSTRUMENTTYPE: LC-ESI-QTOF
SMILES: OCC1OC(SC(CC(O)C2=CC=CC=C2)=NOS(O)(=O)=O)C(O)C(O)C1O
INCHIKEY: GAPDDBFHNYHZIS-UHFFFAOYNA-N
Ontology: Alkylglucosinolates
COLLISIONENERGY: 10
FORMULA: C15H21NO10S2
RETENTIONTIME: 2.70645
IONMODE: Negative
Comment: registered in RIKEN PlaSMA
Num Peaks: 35
74.99015	57
79.95791	11
85.02828	7
90.00209	9
95.95175	135
96.95988	530
98.95734	26
101.01923	5
101.02393	8
117.02267	5
119.03206	8
135.96992	128
137.96565	10
138.94995	12
138.96544	9
138.97232	25
153.98163	28
169.95274	6
195.03302	35
196.04443	69
197.04883	6
211.02895	9
215.99829	8
238.02914	7
241.00334	11
242.0127	20
259.013	91
260.02307	25
261.02518	6
274.99008	44
301.00302	10
332.00848	21
358.11273	7
438.05353	1000
438.11682	8

NAME: 4-Methylthiobutyl glucosinolate
PRECURSORMZ: 420.04621834783
PRECURSORTYPE: [M-H]-
INSTRUMENTTYPE: LC-ESI-QTOF
SMILES: CSCCCCC(SC1OC(CO)C(O)C(O)C1O)=NOS(O)(=O)=O
INCHIKEY: GKUMMDFLKGFCKH-UHFFFAOYNA-N
Ontology: Alkylglucosinolates
COLLISIONENERGY: 10
FORMULA: C12H23NO9S3
RETENTIONTIME: 2.8739
IONMODE: Negative
Comment: registered in RIKEN PlaSMA
Num Peaks: 29
74.98973	77
76.98587	7
79.95393	12
79.95912	15
85.02724	9
95.95156	182
96.95954	561
98.95473	20
101.02357	11
119.0317	8
127.9214	11
128.93321	6
138.97119	21
145.04811	7
178.03619	49
195.03214	28
196.99179	7
197.02417	5
198.9906	6
226.98264	7
228.99905	6
241.00352	36
242.01138	11
259.013	59
261.0199	6
274.98541	22
274.99747	15
340.09323	6
420.04535	1000

NAME: 1-Methylsulfinylbutenyl isothiocyante
PRECURSORMZ: 174.00527984783
PRECURSORTYPE: [M-H]-
INSTRUMENTTYPE: LC-ESI-QTOF
SMILES: CS(=O)C=CCCN=C=S
INCHIKEY: QKGJFQMGPDVOQE-UHFFFAOYNA-N
Ontology: Sulfoxides
COLLISIONENERGY: 10
FORMULA: C6H9NOS2
RETENTIONTIME: 3.786567
IONMODE: Negative
Comment: registered in RIKEN PlaSMA
Num Peaks: 11
97.00429	111
99.92545	83
110.00571	218
112.98922	102
112.99462	134
129.01755	97
141.98209	171
158.97595	713
158.98546	1000
161.97969	93
174.00728	218

NAME: 2-Propenyl glucosinolate
PRECURSORMZ: 358.02719704783
PRECURSORTYPE: [M-H]-
INSTRUMENTTYPE: LC-ESI-QTOF
SMILES: OCC1OC(SC(CC=C)=NOS(O)(=O)=O)C(O)C(O)C1O
INCHIKEY: PHZOWSSBXJXFOR-UHFFFAOYNA-N
Ontology: Alkylglucosinolates
COLLISIONENERGY: 10
FORMULA: C10H17NO9S2
RETENTIONTIME: 1.76795
IONMODE: Negative
Comment: registered in RIKEN PlaSMA
Num Peaks: 17
74.99527	5
79.95697	10
95.95326	29
96.96079	160
98.95627	11
101.02691	5
116.01855	15
161.98514	40
180.00139	17
195.0313	26
195.04173	6
227.02434	8
259.01276	11
261.00491	8
278.06226	8
282.56076	8
358.02756	1000

NAME: (2R)-2-Hydroxy-2-phenethylglucosinolate
PRECURSORMZ: 438.05341174783
PRECURSORTYPE: [M-H]-
INSTRUMENTTYPE: LC-ESI-QTOF
SMILES: OCC1OC(SC(CC(O)C2=CC=CC=C2)=NOS(O)(=O)=O)C(O)C(O)C1O
INCHIKEY: GAPDDBFHNYHZIS-UHFFFAOYNA-N
Ontology: Alkylglucosinolates
COLLISIONENERGY: 10
FORMULA: C15H21NO10S2
RETENTIONTIME: 2.70645
IONMODE: Negative
Comment: registered in RIKEN PlaSMA
Num Peaks: 14
95.95361	8
96.9594	125
98.95435	7
135.96964	39
195.03477	17
196.04372	35
241.00224	6
242.00928	7
259.01224	33
260.02087	12
274.99112	18
332.01089	29
438.0527	1000
438.11209	5

NAME: 4-Methylthiobutyl glucosinolate
PRECURSORMZ: 420.04621834783
PRECURSORTYPE: [M-H]-
INSTRUMENTTYPE: LC-ESI-QTOF
SMILES: CSCCCCC(SC1OC(CO)C(O)C(O)C1O)=NOS(O)(=O)=O
INCHIKEY: GKUMMDFLKGFCKH-UHFFFAOYNA-N
Ontology: Alkylglucosinolates
COLLISIONENERGY: 10
FORMULA: C12H23NO9S3
RETENTIONTIME: 2.8739
IONMODE: Negative
Comment: registered in RIKEN PlaSMA
Num Peaks: 10
74.98949	5
95.95065	18
96.95878	115
98.95477	6
178.03566	20
195.03415	11
259.01315	17
274.98886	10
420.04559	1000
420.1041	7

NAME: 1-Methylsulfinylbutenyl isothiocyante
PRECURSORMZ: 174.00527984783
PRECURSORTYPE: [M-H]-
INSTRUMENTTYPE: LC-ESI-QTOF
SMILES: CS(=O)C=CCCN=C=S
INCHIKEY: QKGJFQMGPDVOQE-UHFFFAOYNA-N
Ontology: Sulfoxides
COLLISIONENERGY: 10
FORMULA: C6H9NOS2
RETENTIONTIME: 3.786567
IONMODE: Negative
Comment: registered in RIKEN PlaSMA
Num Peaks: 12
110.00732	49
111.00433	36
112.98542	40
112.99232	53
113.00522	43
128.01689	286
158.98053	1000
158.99112	141
160.97359	109
160.98112	71
169.50108	49
174.00374	799

NAME: 2-Propenyl glucosinolate
PRECURSORMZ: 358.02719704783
PRECURSORTYPE: [M-H]-
INSTRUMENTTYPE: LC-ESI-QTOF
SMILES: OCC1OC(SC(CC=C)=NOS(O)(=O)=O)C(O)C(O)C1O
INCHIKEY: PHZOWSSBXJXFOR-UHFFFAOYNA-N
Ontology: Alkylglucosinolates
COLLISIONENERGY: 30
FORMULA: C10H17NO9S2
RETENTIONTIME: 1.76795
IONMODE: Negative
Comment: registered in RIKEN PlaSMA
Num Peaks: 18
74.99016	563
75.98981	30
79.95631	74
79.9626	88
85.03384	24
95.95145	795
96.95872	1000
97.95348	26
98.95638	99
99.51644	21
101.02435	117
116.01949	33
116.02487	41
117.00333	25
120.03607	26
161.98898	43
240.99956	42
259.00696	23

NAME: (2R)-2-Hydroxy-2-phenethylglucosinolate
PRECURSORMZ: 438.05341174783
PRECURSORTYPE: [M-H]-
INSTRUMENTTYPE: LC-ESI-QTOF
SMILES: OCC1OC(SC(CC(O)C2=CC=CC=C2)=NOS(O)(=O)=O)C(O)C(O)C1O
INCHIKEY: GAPDDBFHNYHZIS-UHFFFAOYNA-N
Ontology: Alkylglucosinolates
COLLISIONENERGY: 30
FORMULA: C15H21NO10S2
RETENTIONTIME: 2.70645
IONMODE: Negative
Comment: registered in RIKEN PlaSMA
Num Peaks: 53
71.01511	19
73.02629	6
74.98997	297
76.42811	6
76.98465	5
76.98849	8
79.95557	68
80.96386	40
85.03069	42
89.02672	16
90.00217	87
91.99879	9
95.95139	432
96.95888	1000
97.94704	14
97.95215	14
97.95937	14
98.95027	15
98.95795	44
101.02252	22
101.02846	11
108.95741	9
113.02437	12
115.00269	6
117.02339	7
119.03348	43
119.04069	9
120.03391	5
127.92078	13
127.93029	9
135.97107	218
136.95505	6
136.96977	16
137.96928	5
138.95096	11
138.96762	68
138.97484	36
143.03995	6
153.98669	9
161.04146	5
168.97438	7
168.99313	5
195.03354	20
196.04332	74
198.98065	9
240.99878	58
259.00162	26
259.01477	80
260.01581	8
274.99207	15
275.9946	7
303.00113	5
332.00958	7

NAME: 4-Methylthiobutyl glucosinolate
PRECURSORMZ: 420.04621834783
PRECURSORTYPE: [M-H]-
INSTRUMENTTYPE: LC-ESI-QTOF
SMILES: CSCCCCC(SC1OC(CO)C(O)C(O)C1O)=NOS(O)(=O)=O
INCHIKEY: GKUMMDFLKGFCKH-UHFFFAOYNA-N
Ontology: Alkylglucosinolates
COLLISIONENERGY: 30
FORMULA: C12H23NO9S3
RETENTIONTIME: 2.8739
IONMODE: Negative
Comment: registered in RIKEN PlaSMA
Num Peaks: 44
59.01237	10
69.03567	6
71.01212	20
74.98983	303
75.99567	12
76.9982	6
79.95187	25
79.95563	82
80.96147	8
80.96642	20
90.98035	6
95.95129	440
96.95926	1000
97.94708	27
97.95639	44
98.95882	54
98.96452	17
101.02389	32
113.02263	6
119.03252	23
127.9247	39
135.00874	15
138.9695	54
139.97394	6
145.04504	6
161.03969	6
163.02066	6
164.02847	6
166.9594	6
168.98497	7
172.47284	6
178.03702	79
179.04507	9
180.03432	8
195.03427	10
199.0038	7
226.99162	10
240.99954	35
242.99484	6
259.01065	41
260.01996	12
261.02896	5
274.9783	13
339.63864	5

NAME: 1-Methylsulfinylbutenyl isothiocyante
PRECURSORMZ: 174.00527984783
PRECURSORTYPE: [M-H]-
INSTRUMENTTYPE: LC-ESI-QTOF
SMILES: CS(=O)C=CCCN=C=S
INCHIKEY: QKGJFQMGPDVOQE-UHFFFAOYNA-N
Ontology: Sulfoxides
COLLISIONENERGY: 30
FORMULA: C6H9NOS2
RETENTIONTIME: 3.786567
IONMODE: Negative
Comment: registered in RIKEN PlaSMA
Num Peaks: 1
57.97667	1000

NAME: 2-Propenyl glucosinolate
PRECURSORMZ: 358.02719704783
PRECURSORTYPE: [M-H]-
INSTRUMENTTYPE: LC-ESI-QTOF
SMILES: OCC1OC(SC(CC=C)=NOS(O)(=O)=O)C(O)C(O)C1O
INCHIKEY: PHZOWSSBXJXFOR-UHFFFAOYNA-N
Ontology: Alkylglucosinolates
COLLISIONENERGY: 50
FORMULA: C10H17NO9S2
RETENTIONTIME: 1.76795
IONMODE: Negative
Comment: registered in RIKEN PlaSMA
Num Peaks: 8
64.96677	109
74.98952	497
79.95209	131
95.94881	1000
95.95471	806
96.95521	177
96.9601	120
98.96785	126

NAME: (2R)-2-Hydroxy-2-phenethylglucosinolate
PRECURSORMZ: 438.05341174783
PRECURSORTYPE: [M-H]-
INSTRUMENTTYPE: LC-ESI-QTOF
SMILES: OCC1OC(SC(CC(O)C2=CC=CC=C2)=NOS(O)(=O)=O)C(O)C(O)C1O
INCHIKEY: GAPDDBFHNYHZIS-UHFFFAOYNA-N
Ontology: Alkylglucosinolates
COLLISIONENERGY: 50
FORMULA: C15H21NO10S2
RETENTIONTIME: 2.70645
IONMODE: Negative
Comment: registered in RIKEN PlaSMA
Num Peaks: 29
62.9979	11
71.01048	26
74.98886	372
75.98627	18
76.98015	10
76.98997	26
79.95573	92
80.35237	10
80.9637	27
80.96815	15
81.03644	29
89.02194	47
89.99847	35
90.00343	59
95.01225	11
95.95116	800
96.22481	11
96.24049	11
96.95963	1000
97.94687	39
97.96056	17
98.95289	19
98.96001	47
122.97366	11
135.9644	19
135.9747	31
138.96838	59
153.97356	12
241.00435	11

NAME: 4-Methylthiobutyl glucosinolate
PRECURSORMZ: 420.04621834783
PRECURSORTYPE: [M-H]-
INSTRUMENTTYPE: LC-ESI-QTOF
SMILES: CSCCCCC(SC1OC(CO)C(O)C(O)C1O)=NOS(O)(=O)=O
INCHIKEY: GKUMMDFLKGFCKH-UHFFFAOYNA-N
Ontology: Alkylglucosinolates
COLLISIONENERGY: 50
FORMULA: C12H23NO9S3
RETENTIONTIME: 2.8739
IONMODE: Negative
Comment: registered in RIKEN PlaSMA
Num Peaks: 22
64.9519	17
71.00652	11
74.99065	234
75.98943	18
76.98559	15
79.95678	69
80.96267	23
80.96764	10
95.95192	1000
95.97073	14
96.95956	725
97.94931	68
98.95427	40
98.96146	14
99.65907	8
100.15838	16
113.03037	13
117.00406	10
138.96703	59
150.99013	11
163.02319	8
240.99696	8

NAME: 1-Methylsulfinylbutenyl isothiocyante
PRECURSORMZ: 174.00527984783
PRECURSORTYPE: [M-H]-
INSTRUMENTTYPE: LC-ESI-QTOF
SMILES: CS(=O)C=CCCN=C=S
INCHIKEY: QKGJFQMGPDVOQE-UHFFFAOYNA-N
Ontology: Sulfoxides
COLLISIONENERGY: 50
FORMULA: C6H9NOS2
RETENTIONTIME: 3.786567
IONMODE: Negative
Comment: registered in RIKEN PlaSMA
Num Peaks: 1
91.00312	1000

NAME: 2-Propenyl glucosinolate
PRECURSORMZ: 358.02719704783
PRECURSORTYPE: [M-H]-
INSTRUMENTTYPE: LC-ESI-QTOF
SMILES: OCC1OC(SC(CC=C)=NOS(O)(=O)=O)C(O)C(O)C1O
INCHIKEY: PHZOWSSBXJXFOR-UHFFFAOYNA-N
Ontology: Alkylglucosinolates
COLLISIONENERGY: 10
FORMULA: C10H17NO9S2
RETENTIONTIME: 1.76795
IONMODE: Negative
Comment: registered in RIKEN PlaSMA
Num Peaks: 36
65.55094	25
74.99098	174
76.98309	24
79.95712	72
85.0283	42
95.95161	437
96.95906	733
97.95417	29
97.96099	16
98.9508	14
98.95592	24
101.02374	17
116.0182	76
117.01718	13
119.02661	11
119.0376	12
129.0471	12
138.97525	19
145.05257	22
161.98959	65
163.05908	31
166.96484	15
180.00127	16
182.84116	30
189.69487	13
195.03429	60
196.04599	17
214.27039	26
241.00581	21
259.0079	15
259.01666	28
274.99258	53
276.99783	11
279.01385	12
300.06543	23
358.02481	1000

NAME: 4-Methylthiobutyl glucosinolate
PRECURSORMZ: 420.04621834783
PRECURSORTYPE: [M-H]-
INSTRUMENTTYPE: LC-ESI-QTOF
SMILES: CSCCCCC(SC1OC(CO)C(O)C(O)C1O)=NOS(O)(=O)=O
INCHIKEY: GKUMMDFLKGFCKH-UHFFFAOYNA-N
Ontology: Alkylglucosinolates
COLLISIONENERGY: 10
FORMULA: C12H23NO9S3
RETENTIONTIME: 2.8739
IONMODE: Negative
Comment: registered in RIKEN PlaSMA
Num Peaks: 30
74.98978	53
79.95737	24
85.02877	12
95.95145	142
96.95934	521
97.94827	8
98.95599	37
101.01999	9
119.03424	7
127.92266	9
127.9276	6
128.92891	6
131.0322	5
138.96608	9
145.04892	13
163.05916	7
178.03821	49
195.03131	25
195.03871	9
223.99982	5
226.97955	5
226.98961	13
241.00105	16
259.00861	21
259.01855	39
260.02069	6
274.99371	12
340.095	9
420.0451	1000
420.10513	8

NAME: 1-Methylsulfinylbutenyl isothiocyante
PRECURSORMZ: 174.00527984783
PRECURSORTYPE: [M-H]-
INSTRUMENTTYPE: LC-ESI-QTOF
SMILES: CS(=O)C=CCCN=C=S
INCHIKEY: QKGJFQMGPDVOQE-UHFFFAOYNA-N
Ontology: Sulfoxides
COLLISIONENERGY: 10
FORMULA: C6H9NOS2
RETENTIONTIME: 3.786567
IONMODE: Negative
Comment: registered in RIKEN PlaSMA
Num Peaks: 12
69.80746	100
110.00562	103
112.99267	43
113.00009	112
128.01288	50
139.96497	66
143.82639	94
158.98195	1000
160.9767	78
160.98383	39
174.01038	128
174.12807	59

NAME: 2-Propenyl glucosinolate
PRECURSORMZ: 358.02719704783
PRECURSORTYPE: [M-H]-
INSTRUMENTTYPE: LC-ESI-QTOF
SMILES: OCC1OC(SC(CC=C)=NOS(O)(=O)=O)C(O)C(O)C1O
INCHIKEY: PHZOWSSBXJXFOR-UHFFFAOYNA-N
Ontology: Alkylglucosinolates
COLLISIONENERGY: 10
FORMULA: C10H17NO9S2
RETENTIONTIME: 1.76795
IONMODE: Negative
Comment: registered in RIKEN PlaSMA
Num Peaks: 19
79.9578	6
95.95174	62
96.95957	187
98.9574	5
116.01558	23
145.05083	8
161.9856	20
162.99158	8
163.9827	7
164.96968	17
195.03499	25
195.97214	20
223.73668	7
241.00833	7
259.01151	40
274.98938	24
275.0029	10
280.72308	7
358.02652	1000

NAME: (2R)-2-Hydroxy-2-phenethylglucosinolate
PRECURSORMZ: 438.05341174783
PRECURSORTYPE: [M-H]-
INSTRUMENTTYPE: LC-ESI-QTOF
SMILES: OCC1OC(SC(CC(O)C2=CC=CC=C2)=NOS(O)(=O)=O)C(O)C(O)C1O
INCHIKEY: GAPDDBFHNYHZIS-UHFFFAOYNA-N
Ontology: Alkylglucosinolates
COLLISIONENERGY: 10
FORMULA: C15H21NO10S2
RETENTIONTIME: 2.70645
IONMODE: Negative
Comment: registered in RIKEN PlaSMA
Num Peaks: 13
74.9894	8
95.94726	7
95.95212	17
96.95963	174
135.9715	41
195.03236	17
196.04366	33
196.05418	6
259.01236	22
260.02551	11
274.98703	9
332.0098	31
438.05353	1000

NAME: 4-Methylthiobutyl glucosinolate
PRECURSORMZ: 420.04621834783
PRECURSORTYPE: [M-H]-
INSTRUMENTTYPE: LC-ESI-QTOF
SMILES: CSCCCCC(SC1OC(CO)C(O)C(O)C1O)=NOS(O)(=O)=O
INCHIKEY: GKUMMDFLKGFCKH-UHFFFAOYNA-N
Ontology: Alkylglucosinolates
COLLISIONENERGY: 10
FORMULA: C12H23NO9S3
RETENTIONTIME: 2.8739
IONMODE: Negative
Comment: registered in RIKEN PlaSMA
Num Peaks: 10
74.98911	8
95.95116	8
96.95916	113
98.95428	6
178.03624	15
195.03236	14
259.01187	24
274.99435	7
420.04532	1000
420.10333	8

NAME: 1-Methylsulfinylbutenyl isothiocyante
PRECURSORMZ: 174.00527984783
PRECURSORTYPE: [M-H]-
INSTRUMENTTYPE: LC-ESI-QTOF
SMILES: CS(=O)C=CCCN=C=S
INCHIKEY: QKGJFQMGPDVOQE-UHFFFAOYNA-N
Ontology: Sulfoxides
COLLISIONENERGY: 10
FORMULA: C6H9NOS2
RETENTIONTIME: 3.786567
IONMODE: Negative
Comment: registered in RIKEN PlaSMA
Num Peaks: 13
64.80973	28
110.00552	82
111.98116	30
112.99326	191
113.99309	30
128.01237	92
128.01758	85
130.01042	58
158.98186	1000
159.98265	80
160.97975	66
173.99786	204
174.006	237

NAME: 2-Propenyl glucosinolate
PRECURSORMZ: 358.02719704783
PRECURSORTYPE: [M-H]-
INSTRUMENTTYPE: LC-ESI-QTOF
SMILES: OCC1OC(SC(CC=C)=NOS(O)(=O)=O)C(O)C(O)C1O
INCHIKEY: PHZOWSSBXJXFOR-UHFFFAOYNA-N
Ontology: Alkylglucosinolates
COLLISIONENERGY: 30
FORMULA: C10H17NO9S2
RETENTIONTIME: 1.76795
IONMODE: Negative
Comment: registered in RIKEN PlaSMA
Num Peaks: 21
71.01256	29
74.99007	288
79.94991	42
79.95998	31
80.96345	23
85.0294	19
89.02309	104
95.94855	181
95.95255	491
96.95891	1000
98.95287	23
98.95846	34
101.02332	27
105.96145	34
118.01154	26
119.03281	35
128.92931	25
136.03534	24
138.9622	47
138.97217	43
164.9632	27

NAME: (2R)-2-Hydroxy-2-phenethylglucosinolate
PRECURSORMZ: 438.05341174783
PRECURSORTYPE: [M-H]-
INSTRUMENTTYPE: LC-ESI-QTOF
SMILES: OCC1OC(SC(CC(O)C2=CC=CC=C2)=NOS(O)(=O)=O)C(O)C(O)C1O
INCHIKEY: GAPDDBFHNYHZIS-UHFFFAOYNA-N
Ontology: Alkylglucosinolates
COLLISIONENERGY: 30
FORMULA: C15H21NO10S2
RETENTIONTIME: 2.70645
IONMODE: Negative
Comment: registered in RIKEN PlaSMA
Num Peaks: 44
59.00925	5
69.03679	12
71.01185	8
74.99045	296
76.9836	7
79.95496	25
80.96339	20
85.0285	14
89.02712	7
90.00093	97
91.99487	6
92.00285	6
95.95198	516
96.95927	1000
97.03071	7
97.94698	23
97.95734	18
98.95712	22
98.96255	8
101.02184	26
111.93031	6
119.03469	7
127.92263	11
128.92403	8
131.03398	12
135.96806	89
135.97623	47
137.96536	13
138.95345	24
138.97076	70
138.97748	16
143.034	7
153.97968	26
180.06155	5
195.03954	6
196.03371	18
196.04375	32
198.99413	18
215.00818	6
241.00223	24
259.01114	60
261.00577	10
274.98373	21
412.06454	7

NAME: 4-Methylthiobutyl glucosinolate
PRECURSORMZ: 420.04621834783
PRECURSORTYPE: [M-H]-
INSTRUMENTTYPE: LC-ESI-QTOF
SMILES: CSCCCCC(SC1OC(CO)C(O)C(O)C1O)=NOS(O)(=O)=O
INCHIKEY: GKUMMDFLKGFCKH-UHFFFAOYNA-N
Ontology: Alkylglucosinolates
COLLISIONENERGY: 30
FORMULA: C12H23NO9S3
RETENTIONTIME: 2.8739
IONMODE: Negative
Comment: registered in RIKEN PlaSMA
Num Peaks: 34
71.01241	13
74.99019	263
79.95578	67
80.96478	21
85.02824	12
85.0343	5
89.02328	16
95.95151	590
96.95935	1000
97.9483	56
97.9591	6
98.95701	53
99.94785	6
101.02229	21
113.02569	9
119.03166	25
127.92931	8
130.03235	6
138.96838	51
150.9722	6
163.01935	6
163.02715	7
164.03922	6
178.03596	63
179.03821	13
195.03714	7
196.99455	18
224.0118	6
226.98886	25
240.9989	25
259.00168	10
259.01569	35
261.0199	6
274.98483	15

NAME: 1-Methylsulfinylbutenyl isothiocyante
PRECURSORMZ: 174.00527984783
PRECURSORTYPE: [M-H]-
INSTRUMENTTYPE: LC-ESI-QTOF
SMILES: CS(=O)C=CCCN=C=S
INCHIKEY: QKGJFQMGPDVOQE-UHFFFAOYNA-N
Ontology: Sulfoxides
COLLISIONENERGY: 30
FORMULA: C6H9NOS2
RETENTIONTIME: 3.786567
IONMODE: Negative
Comment: registered in RIKEN PlaSMA
Num Peaks: 3
95.98833	686
110.00148	1000
114.99048	714

NAME: 2-Propenyl glucosinolate
PRECURSORMZ: 358.02719704783
PRECURSORTYPE: [M-H]-
INSTRUMENTTYPE: LC-ESI-QTOF
SMILES: OCC1OC(SC(CC=C)=NOS(O)(=O)=O)C(O)C(O)C1O
INCHIKEY: PHZOWSSBXJXFOR-UHFFFAOYNA-N
Ontology: Alkylglucosinolates
COLLISIONENERGY: 50
FORMULA: C10H17NO9S2
RETENTIONTIME: 1.76795
IONMODE: Negative
Comment: registered in RIKEN PlaSMA
Num Peaks: 10
55.01295	105
56.9822	127
59.00971	73
74.98764	295
95.95326	1000
96.95778	218
96.96421	218
97.94444	91
98.96272	73
101.02532	87

NAME: (2R)-2-Hydroxy-2-phenethylglucosinolate
PRECURSORMZ: 438.05341174783
PRECURSORTYPE: [M-H]-
INSTRUMENTTYPE: LC-ESI-QTOF
SMILES: OCC1OC(SC(CC(O)C2=CC=CC=C2)=NOS(O)(=O)=O)C(O)C(O)C1O
INCHIKEY: GAPDDBFHNYHZIS-UHFFFAOYNA-N
Ontology: Alkylglucosinolates
COLLISIONENERGY: 50
FORMULA: C15H21NO10S2
RETENTIONTIME: 2.70645
IONMODE: Negative
Comment: registered in RIKEN PlaSMA
Num Peaks: 25
71.01129	9
71.98998	14
72.43171	10
73.02808	13
74.99043	291
76.98346	23
79.95571	98
79.95924	44
80.96204	40
80.96751	52
89.02073	13
90.00178	38
95.95137	725
96.9596	1000
97.9571	24
98.95388	62
98.96363	22
101.02499	24
113.02753	12
114.93508	11
135.96806	34
135.97481	27
138.9637	18
138.97021	38
240.9949	14

NAME: 4-Methylthiobutyl glucosinolate
PRECURSORMZ: 420.04621834783
PRECURSORTYPE: [M-H]-
INSTRUMENTTYPE: LC-ESI-QTOF
SMILES: CSCCCCC(SC1OC(CO)C(O)C(O)C1O)=NOS(O)(=O)=O
INCHIKEY: GKUMMDFLKGFCKH-UHFFFAOYNA-N
Ontology: Alkylglucosinolates
COLLISIONENERGY: 50
FORMULA: C12H23NO9S3
RETENTIONTIME: 2.8739
IONMODE: Negative
Comment: registered in RIKEN PlaSMA
Num Peaks: 38
59.01154	7
59.01588	14
71.01189	39
74.99055	429
75.99687	14
76.03807	9
76.11297	9
79.95623	63
80.96284	46
81.03421	11
81.86247	11
89.03224	17
90.00357	9
90.02996	14
95.00926	9
95.95179	977
96.95929	1000
97.42373	8
97.69665	14
97.89281	10
97.94163	9
97.94975	61
98.95724	26
98.96789	11
100.63152	9
101.02464	10
101.99996	8
110.00885	9
111.92865	8
114.98428	13
117.00353	16
121.03769	12
138.94194	9
138.96794	32
140.9662	17
156.04596	9
198.98535	11
241.00482	9

NAME: 1-Methylsulfinylbutenyl isothiocyante
PRECURSORMZ: 174.00527984783
PRECURSORTYPE: [M-H]-
INSTRUMENTTYPE: LC-ESI-QTOF
SMILES: CS(=O)C=CCCN=C=S
INCHIKEY: QKGJFQMGPDVOQE-UHFFFAOYNA-N
Ontology: Sulfoxides
COLLISIONENERGY: 50
FORMULA: C6H9NOS2
RETENTIONTIME: 3.786567
IONMODE: Negative
Comment: registered in RIKEN PlaSMA
Num Peaks: 1
158.98344	1000

NAME: 2-Propenyl glucosinolate
PRECURSORMZ: 358.02719704783
PRECURSORTYPE: [M-H]-
INSTRUMENTTYPE: LC-ESI-QTOF
SMILES: OCC1OC(SC(CC=C)=NOS(O)(=O)=O)C(O)C(O)C1O
INCHIKEY: PHZOWSSBXJXFOR-UHFFFAOYNA-N
Ontology: Alkylglucosinolates
COLLISIONENERGY: 10
FORMULA: C10H17NO9S2
RETENTIONTIME: 1.76795
IONMODE: Negative
Comment: registered in RIKEN PlaSMA
Num Peaks: 43
59.01433	20
71.01383	16
74.99089	73
79.95699	24
80.96279	15
80.96646	20
85.02512	11
85.03048	25
89.02006	33
89.02686	11
90.03183	10
95.9511	330
96.95912	798
97.94978	38
97.9552	31
97.96417	22
98.95496	47
101.02112	15
101.02597	14
116.01797	43
119.03711	23
127.92647	14
128.93565	25
129.91823	12
138.96809	13
144.23044	12
144.56079	13
145.04517	11
161.98785	85
163.9828	11
164.96231	13
177.96605	11
179.98868	10
186.6696	15
195.02766	26
195.03932	37
196.02751	11
238.96909	13
259.01215	124
263.00815	13
274.97275	10
274.9852	10
358.02576	1000

NAME: (2R)-2-Hydroxy-2-phenethylglucosinolate
PRECURSORMZ: 438.05341174783
PRECURSORTYPE: [M-H]-
INSTRUMENTTYPE: LC-ESI-QTOF
SMILES: OCC1OC(SC(CC(O)C2=CC=CC=C2)=NOS(O)(=O)=O)C(O)C(O)C1O
INCHIKEY: GAPDDBFHNYHZIS-UHFFFAOYNA-N
Ontology: Alkylglucosinolates
COLLISIONENERGY: 10
FORMULA: C15H21NO10S2
RETENTIONTIME: 2.70645
IONMODE: Negative
Comment: registered in RIKEN PlaSMA
Num Peaks: 32
74.99049	49
76.98737	5
79.96028	9
89.02518	6
90.00067	18
95.95162	95
96.95917	548
97.9465	9
98.95554	18
98.96124	9
101.01707	5
119.03711	15
135.96956	125
138.95766	7
145.05191	10
153.98093	27
195.03183	46
196.04369	89
197.04225	7
241.00354	16
242.01637	6
244.98627	5
245.00182	10
259.00153	23
259.01425	101
260.00433	10
260.02051	32
274.98401	34
275.92996	6
275.99802	10
332.01169	52
438.05182	1000

NAME: 4-Methylthiobutyl glucosinolate
PRECURSORMZ: 420.04621834783
PRECURSORTYPE: [M-H]-
INSTRUMENTTYPE: LC-ESI-QTOF
SMILES: CSCCCCC(SC1OC(CO)C(O)C(O)C1O)=NOS(O)(=O)=O
INCHIKEY: GKUMMDFLKGFCKH-UHFFFAOYNA-N
Ontology: Alkylglucosinolates
COLLISIONENERGY: 10
FORMULA: C12H23NO9S3
RETENTIONTIME: 2.8739
IONMODE: Negative
Comment: registered in RIKEN PlaSMA
Num Peaks: 28
74.99052	72
79.95888	29
85.02744	11
95.9517	190
96.95938	545
97.03107	7
97.95943	5
98.9527	13
98.9582	17
101.02159	11
101.02808	11
119.03586	17
138.96947	18
145.05156	5
163.05856	8
178.03572	58
179.03551	10
195.03516	38
196.99886	5
224.00165	5
224.00946	10
226.98907	10
241.00304	27
242.00937	6
259.01221	52
274.98648	19
274.99557	23
420.04593	1000

NAME: 1-Methylsulfinylbutenyl isothiocyante
PRECURSORMZ: 174.00527984783
PRECURSORTYPE: [M-H]-
INSTRUMENTTYPE: LC-ESI-QTOF
SMILES: CS(=O)C=CCCN=C=S
INCHIKEY: QKGJFQMGPDVOQE-UHFFFAOYNA-N
Ontology: Sulfoxides
COLLISIONENERGY: 10
FORMULA: C6H9NOS2
RETENTIONTIME: 3.786567
IONMODE: Negative
Comment: registered in RIKEN PlaSMA
Num Peaks: 9
110.00953	174
111.98757	75
112.98891	68
112.9961	196
128.02026	100
151.67325	93
158.96996	100
158.98105	1000
174.00255	327

NAME: 2-Propenyl glucosinolate
PRECURSORMZ: 358.02719704783
PRECURSORTYPE: [M-H]-
INSTRUMENTTYPE: LC-ESI-QTOF
SMILES: OCC1OC(SC(CC=C)=NOS(O)(=O)=O)C(O)C(O)C1O
INCHIKEY: PHZOWSSBXJXFOR-UHFFFAOYNA-N
Ontology: Alkylglucosinolates
COLLISIONENERGY: 10
FORMULA: C10H17NO9S2
RETENTIONTIME: 1.76795
IONMODE: Negative
Comment: registered in RIKEN PlaSMA
Num Peaks: 26
74.98897	16
95.95296	17
96.96008	178
97.95039	5
97.95702	12
98.9548	8
101.13132	6
116.01913	14
117.02565	6
119.03371	8
128.93575	6
130.93208	7
145.04919	15
161.9863	28
162.9915	8
164.96271	7
164.97318	11
179.98868	9
195.03462	32
196.04185	6
249.63112	6
259.01019	27
274.99057	17
278.05563	6
278.06702	6
358.0275	1000

NAME: (2R)-2-Hydroxy-2-phenethylglucosinolate
PRECURSORMZ: 438.05341174783
PRECURSORTYPE: [M-H]-
INSTRUMENTTYPE: LC-ESI-QTOF
SMILES: OCC1OC(SC(CC(O)C2=CC=CC=C2)=NOS(O)(=O)=O)C(O)C(O)C1O
INCHIKEY: GAPDDBFHNYHZIS-UHFFFAOYNA-N
Ontology: Alkylglucosinolates
COLLISIONENERGY: 10
FORMULA: C15H21NO10S2
RETENTIONTIME: 2.70645
IONMODE: Negative
Comment: registered in RIKEN PlaSMA
Num Peaks: 16
79.95731	6
95.95183	8
96.95945	114
98.95603	7
135.97122	40
153.98051	6
195.03369	26
196.0426	21
242.01228	5
259.01187	21
260.02319	24
274.98926	14
275.99475	6
332.00955	20
358.10281	5
438.05191	1000

NAME: 4-Methylthiobutyl glucosinolate
PRECURSORMZ: 420.04621834783
PRECURSORTYPE: [M-H]-
INSTRUMENTTYPE: LC-ESI-QTOF
SMILES: CSCCCCC(SC1OC(CO)C(O)C(O)C1O)=NOS(O)(=O)=O
INCHIKEY: GKUMMDFLKGFCKH-UHFFFAOYNA-N
Ontology: Alkylglucosinolates
COLLISIONENERGY: 10
FORMULA: C12H23NO9S3
RETENTIONTIME: 2.8739
IONMODE: Negative
Comment: registered in RIKEN PlaSMA
Num Peaks: 11
95.95168	15
96.95957	101
98.95493	6
178.03575	18
195.03386	12
226.99098	6
241.00218	5
259.01389	18
274.98749	8
420.04578	1000
420.10318	7

NAME: 1-Methylsulfinylbutenyl isothiocyante
PRECURSORMZ: 174.00527984783
PRECURSORTYPE: [M-H]-
INSTRUMENTTYPE: LC-ESI-QTOF
SMILES: CS(=O)C=CCCN=C=S
INCHIKEY: QKGJFQMGPDVOQE-UHFFFAOYNA-N
Ontology: Sulfoxides
COLLISIONENERGY: 10
FORMULA: C6H9NOS2
RETENTIONTIME: 3.786567
IONMODE: Negative
Comment: registered in RIKEN PlaSMA
Num Peaks: 17
83.99	50
86.97235	24
90.79285	41
110.006	197
111.00509	29
112.99512	170
114.98739	24
127.11002	52
128.01553	56
141.98805	46
145.93767	33
156.42464	33
158.9817	1000
159.98582	129
160.97337	106
160.98022	37
174.00331	639

NAME: 2-Propenyl glucosinolate
PRECURSORMZ: 358.02719704783
PRECURSORTYPE: [M-H]-
INSTRUMENTTYPE: LC-ESI-QTOF
SMILES: OCC1OC(SC(CC=C)=NOS(O)(=O)=O)C(O)C(O)C1O
INCHIKEY: PHZOWSSBXJXFOR-UHFFFAOYNA-N
Ontology: Alkylglucosinolates
COLLISIONENERGY: 30
FORMULA: C10H17NO9S2
RETENTIONTIME: 1.76795
IONMODE: Negative
Comment: registered in RIKEN PlaSMA
Num Peaks: 19
59.01098	21
71.00993	115
71.22787	22
74.98978	502
75.99046	19
76.99004	53
79.95638	67
79.96095	50
80.96305	32
82.96877	20
89.02718	37
95.95045	692
96.9584	1000
116.01751	24
116.02402	33
119.03276	32
138.9657	27
161.9839	39
164.96956	22

NAME: (2R)-2-Hydroxy-2-phenethylglucosinolate
PRECURSORMZ: 438.05341174783
PRECURSORTYPE: [M-H]-
INSTRUMENTTYPE: LC-ESI-QTOF
SMILES: OCC1OC(SC(CC(O)C2=CC=CC=C2)=NOS(O)(=O)=O)C(O)C(O)C1O
INCHIKEY: GAPDDBFHNYHZIS-UHFFFAOYNA-N
Ontology: Alkylglucosinolates
COLLISIONENERGY: 30
FORMULA: C15H21NO10S2
RETENTIONTIME: 2.70645
IONMODE: Negative
Comment: registered in RIKEN PlaSMA
Num Peaks: 34
59.01593	8
74.99071	256
75.99734	14
76.98474	17
79.95653	51
80.96342	16
80.97154	6
85.02889	31
86.0342	6
89.02629	18
90.00099	52
91.15637	5
95.9513	399
96.95913	1000
97.94801	31
97.95309	12
98.95517	51
98.96239	20
101.02359	28
113.02536	9
119.03353	9
135.9715	137
138.95349	19
138.96823	56
139.97226	14
140.96844	9
168.98389	9
195.03503	9
196.0434	61
198.04887	5
259.01364	63
274.99072	7
301.00192	8
317.4209	6

NAME: 4-Methylthiobutyl glucosinolate
PRECURSORMZ: 420.04621834783
PRECURSORTYPE: [M-H]-
INSTRUMENTTYPE: LC-ESI-QTOF
SMILES: CSCCCCC(SC1OC(CO)C(O)C(O)C1O)=NOS(O)(=O)=O
INCHIKEY: GKUMMDFLKGFCKH-UHFFFAOYNA-N
Ontology: Alkylglucosinolates
COLLISIONENERGY: 30
FORMULA: C12H23NO9S3
RETENTIONTIME: 2.8739
IONMODE: Negative
Comment: registered in RIKEN PlaSMA
Num Peaks: 37
66.03475	6
71.01341	13
74.98985	306
76.98533	11
76.99422	6
79.95625	93
80.96115	17
80.96679	19
85.02551	8
85.03444	6
89.02233	7
95.95161	659
96.9592	1000
97.94576	45
97.95818	17
98.95457	55
99.0089	7
101.02299	48
111.93024	10
119.0351	12
127.92317	37
138.96936	74
163.0246	24
178.03268	48
178.0414	21
179.04144	9
180.03738	16
195.03746	10
196.98528	6
198.9904	8
226.99141	10
241.00221	43
259.01068	47
260.00592	6
260.01572	6
274.99014	20
376.02313	5

NAME: 1-Methylsulfinylbutenyl isothiocyante
PRECURSORMZ: 174.00527984783
PRECURSORTYPE: [M-H]-
INSTRUMENTTYPE: LC-ESI-QTOF
SMILES: CS(=O)C=CCCN=C=S
INCHIKEY: QKGJFQMGPDVOQE-UHFFFAOYNA-N
Ontology: Sulfoxides
COLLISIONENERGY: 30
FORMULA: C6H9NOS2
RETENTIONTIME: 3.786567
IONMODE: Negative
Comment: registered in RIKEN PlaSMA
Num Peaks: 2
110.00604	453
110.00955	1000

NAME: 2-Propenyl glucosinolate
PRECURSORMZ: 358.02719704783
PRECURSORTYPE: [M-H]-
INSTRUMENTTYPE: LC-ESI-QTOF
SMILES: OCC1OC(SC(CC=C)=NOS(O)(=O)=O)C(O)C(O)C1O
INCHIKEY: PHZOWSSBXJXFOR-UHFFFAOYNA-N
Ontology: Alkylglucosinolates
COLLISIONENERGY: 50
FORMULA: C10H17NO9S2
RETENTIONTIME: 1.76795
IONMODE: Negative
Comment: registered in RIKEN PlaSMA
Num Peaks: 10
74.99044	272
76.98751	47
79.95581	106
80.97007	57
95.95251	1000
96.95544	44
96.96214	207
98.95587	54
101.02627	54
116.0224	49

NAME: (2R)-2-Hydroxy-2-phenethylglucosinolate
PRECURSORMZ: 438.05341174783
PRECURSORTYPE: [M-H]-
INSTRUMENTTYPE: LC-ESI-QTOF
SMILES: OCC1OC(SC(CC(O)C2=CC=CC=C2)=NOS(O)(=O)=O)C(O)C(O)C1O
INCHIKEY: GAPDDBFHNYHZIS-UHFFFAOYNA-N
Ontology: Alkylglucosinolates
COLLISIONENERGY: 50
FORMULA: C15H21NO10S2
RETENTIONTIME: 2.70645
IONMODE: Negative
Comment: registered in RIKEN PlaSMA
Num Peaks: 36
59.0118	9
71.01664	22
73.02881	9
74.026	10
74.99026	421
75.99026	13
76.98583	15
79.53585	9
79.95608	71
80.95923	13
80.96302	10
80.97024	9
89.0256	25
90.0009	21
90.00655	9
92.00114	9
95.95172	552
96.95954	1000
97.59673	13
97.94532	11
97.96391	18
98.05306	14
98.66407	10
98.95606	98
101.02528	22
104.45402	17
111.92613	24
114.98609	12
129.92072	10
135.96588	34
135.97307	45
138.96663	25
138.97412	44
152.98683	10
164.97868	17
242.00737	17

NAME: 4-Methylthiobutyl glucosinolate
PRECURSORMZ: 420.04621834783
PRECURSORTYPE: [M-H]-
INSTRUMENTTYPE: LC-ESI-QTOF
SMILES: CSCCCCC(SC1OC(CO)C(O)C(O)C1O)=NOS(O)(=O)=O
INCHIKEY: GKUMMDFLKGFCKH-UHFFFAOYNA-N
Ontology: Alkylglucosinolates
COLLISIONENERGY: 50
FORMULA: C12H23NO9S3
RETENTIONTIME: 2.8739
IONMODE: Negative
Comment: registered in RIKEN PlaSMA
Num Peaks: 25
55.0205	15
64.97044	13
69.03522	18
74.99016	341
75.96287	12
76.98474	21
77.29741	9
79.95312	39
79.9566	76
85.02867	10
86.02306	10
95.9509	535
96.96005	1000
97.0271	14
97.9451	48
98.95391	50
98.96243	11
102.00472	18
111.92833	22
113.92309	11
138.967	24
152.98926	12
163.02737	11
240.99814	10
420.0517	21

NAME: 1-Isothiocyanato-4-(methylsulfinyl)-butane
PRECURSORMZ: 176.02092984783
PRECURSORTYPE: [M-H]-
INSTRUMENTTYPE: LC-ESI-QTOF
SMILES: CS(=O)CCCCN=C=S
INCHIKEY: SUVMJBTUFCVSAD-UHFFFAOYNA-N
Ontology: Sulfoxides
COLLISIONENERGY: 10
FORMULA: C6H11NOS2
RETENTIONTIME: 3.702517
IONMODE: Negative
Comment: registered in RIKEN PlaSMA
Num Peaks: 4
112.02596	1000
113.02395	366
113.03277	482
176.02054	214

NAME: 7-Methylsulfinylheptyl isothiocyanate
PRECURSORMZ: 218.06788004783
PRECURSORTYPE: [M-H]-
INSTRUMENTTYPE: LC-ESI-QTOF
SMILES: CS(=O)CCCCCCCN=C=S
INCHIKEY: OGYHCBGORZWBPH-UHFFFAOYNA-N
Ontology: Sulfoxides
COLLISIONENERGY: 10
FORMULA: C9H17NOS2
RETENTIONTIME: 5.4069
IONMODE: Negative
Comment: registered in RIKEN PlaSMA
Num Peaks: 3
142.07506	561
156.08659	303
168.08998	1000

NAME: 1-Isothiocyanato-4-(methylsulfinyl)-butane
PRECURSORMZ: 176.02092984783
PRECURSORTYPE: [M-H]-
INSTRUMENTTYPE: LC-ESI-QTOF
SMILES: CS(=O)CCCCN=C=S
INCHIKEY: SUVMJBTUFCVSAD-UHFFFAOYNA-N
Ontology: Sulfoxides
COLLISIONENERGY: 10
FORMULA: C6H11NOS2
RETENTIONTIME: 3.702517
IONMODE: Negative
Comment: registered in RIKEN PlaSMA
Num Peaks: 6
112.02221	683
113.02168	683
113.02942	585
116.03222	622
176.01314	293
176.02037	1000

NAME: 7-Methylsulfinylheptyl isothiocyanate
PRECURSORMZ: 218.06788004783
PRECURSORTYPE: [M-H]-
INSTRUMENTTYPE: LC-ESI-QTOF
SMILES: CS(=O)CCCCCCCN=C=S
INCHIKEY: OGYHCBGORZWBPH-UHFFFAOYNA-N
Ontology: Sulfoxides
COLLISIONENERGY: 10
FORMULA: C9H17NOS2
RETENTIONTIME: 5.4069
IONMODE: Negative
Comment: registered in RIKEN PlaSMA
Num Peaks: 8
94.37391	84
156.06691	80
157.09451	89
168.08777	218
170.09976	116
184.07724	80
200.05219	142
218.06749	1000

NAME: 7-Methylsulfinylheptyl isothiocyanate
PRECURSORMZ: 218.06788004783
PRECURSORTYPE: [M-H]-
INSTRUMENTTYPE: LC-ESI-QTOF
SMILES: CS(=O)CCCCCCCN=C=S
INCHIKEY: OGYHCBGORZWBPH-UHFFFAOYNA-N
Ontology: Sulfoxides
COLLISIONENERGY: 30
FORMULA: C9H17NOS2
RETENTIONTIME: 5.4069
IONMODE: Negative
Comment: registered in RIKEN PlaSMA
Num Peaks: 2
130.87309	600
167.85869	1000

NAME: 1-Isothiocyanato-4-(methylsulfinyl)-butane
PRECURSORMZ: 176.02092984783
PRECURSORTYPE: [M-H]-
INSTRUMENTTYPE: LC-ESI-QTOF
SMILES: CS(=O)CCCCN=C=S
INCHIKEY: SUVMJBTUFCVSAD-UHFFFAOYNA-N
Ontology: Sulfoxides
COLLISIONENERGY: 10
FORMULA: C6H11NOS2
RETENTIONTIME: 3.702517
IONMODE: Negative
Comment: registered in RIKEN PlaSMA
Num Peaks: 3
88.97005	377
112.02003	1000
114.02113	396

NAME: 7-Methylsulfinylheptyl isothiocyanate
PRECURSORMZ: 218.06788004783
PRECURSORTYPE: [M-H]-
INSTRUMENTTYPE: LC-ESI-QTOF
SMILES: CS(=O)CCCCCCCN=C=S
INCHIKEY: OGYHCBGORZWBPH-UHFFFAOYNA-N
Ontology: Sulfoxides
COLLISIONENERGY: 10
FORMULA: C9H17NOS2
RETENTIONTIME: 5.4069
IONMODE: Negative
Comment: registered in RIKEN PlaSMA
Num Peaks: 8
116.93077	333
126.86988	214
142.06461	286
154.07094	262
156.08092	274
166.06534	369
168.0843	595
218.07126	1000

NAME: 1-Isothiocyanato-4-(methylsulfinyl)-butane
PRECURSORMZ: 176.02092984783
PRECURSORTYPE: [M-H]-
INSTRUMENTTYPE: LC-ESI-QTOF
SMILES: CS(=O)CCCCN=C=S
INCHIKEY: SUVMJBTUFCVSAD-UHFFFAOYNA-N
Ontology: Sulfoxides
COLLISIONENERGY: 10
FORMULA: C6H11NOS2
RETENTIONTIME: 3.702517
IONMODE: Negative
Comment: registered in RIKEN PlaSMA
Num Peaks: 4
66.036	506
112.02155	1000
126.03436	247
176.01743	351

NAME: 7-Methylsulfinylheptyl isothiocyanate
PRECURSORMZ: 218.06788004783
PRECURSORTYPE: [M-H]-
INSTRUMENTTYPE: LC-ESI-QTOF
SMILES: CS(=O)CCCCCCCN=C=S
INCHIKEY: OGYHCBGORZWBPH-UHFFFAOYNA-N
Ontology: Sulfoxides
COLLISIONENERGY: 10
FORMULA: C9H17NOS2
RETENTIONTIME: 5.4069
IONMODE: Negative
Comment: registered in RIKEN PlaSMA
Num Peaks: 15
154.06834	222
155.06781	120
155.07941	111
156.08717	519
156.09253	162
157.08318	255
157.09274	97
166.07887	144
168.08681	1000
170.08656	245
175.8723	125
200.06126	241
201.05743	111
218.05962	556
218.07361	338

NAME: 7-Methylsulfinylheptyl isothiocyanate
PRECURSORMZ: 218.06788004783
PRECURSORTYPE: [M-H]-
INSTRUMENTTYPE: LC-ESI-QTOF
SMILES: CS(=O)CCCCCCCN=C=S
INCHIKEY: OGYHCBGORZWBPH-UHFFFAOYNA-N
Ontology: Sulfoxides
COLLISIONENERGY: 30
FORMULA: C9H17NOS2
RETENTIONTIME: 5.4069
IONMODE: Negative
Comment: registered in RIKEN PlaSMA
Num Peaks: 1
166.8665	1000

NAME: 1-Isothiocyanato-4-(methylsulfinyl)-butane
PRECURSORMZ: 176.02092984783
PRECURSORTYPE: [M-H]-
INSTRUMENTTYPE: LC-ESI-QTOF
SMILES: CS(=O)CCCCN=C=S
INCHIKEY: SUVMJBTUFCVSAD-UHFFFAOYNA-N
Ontology: Sulfoxides
COLLISIONENERGY: 10
FORMULA: C6H11NOS2
RETENTIONTIME: 3.702517
IONMODE: Negative
Comment: registered in RIKEN PlaSMA
Num Peaks: 5
100.02078	282
112.02016	1000
112.02467	295
113.03635	321
114.0164	269

NAME: 7-Methylsulfinylheptyl isothiocyanate
PRECURSORMZ: 218.06788004783
PRECURSORTYPE: [M-H]-
INSTRUMENTTYPE: LC-ESI-QTOF
SMILES: CS(=O)CCCCCCCN=C=S
INCHIKEY: OGYHCBGORZWBPH-UHFFFAOYNA-N
Ontology: Sulfoxides
COLLISIONENERGY: 10
FORMULA: C9H17NOS2
RETENTIONTIME: 5.4069
IONMODE: Negative
Comment: registered in RIKEN PlaSMA
Num Peaks: 5
74.00322	306
154.06577	355
156.08163	1000
168.08235	435
218.06038	323

NAME: 1-Isothiocyanato-4-(methylsulfinyl)-butane
PRECURSORMZ: 176.02092984783
PRECURSORTYPE: [M-H]-
INSTRUMENTTYPE: LC-ESI-QTOF
SMILES: CS(=O)CCCCN=C=S
INCHIKEY: SUVMJBTUFCVSAD-UHFFFAOYNA-N
Ontology: Sulfoxides
COLLISIONENERGY: 10
FORMULA: C6H11NOS2
RETENTIONTIME: 3.702517
IONMODE: Negative
Comment: registered in RIKEN PlaSMA
Num Peaks: 8
112.02186	1000
113.02318	189
113.0301	406
114.03526	274
141.86824	143
144.88022	120
176.02052	274
176.02814	154

NAME: 7-Methylsulfinylheptyl isothiocyanate
PRECURSORMZ: 218.06788004783
PRECURSORTYPE: [M-H]-
INSTRUMENTTYPE: LC-ESI-QTOF
SMILES: CS(=O)CCCCCCCN=C=S
INCHIKEY: OGYHCBGORZWBPH-UHFFFAOYNA-N
Ontology: Sulfoxides
COLLISIONENERGY: 10
FORMULA: C9H17NOS2
RETENTIONTIME: 5.4069
IONMODE: Negative
Comment: registered in RIKEN PlaSMA
Num Peaks: 9
57.97707	89
156.08609	823
157.09225	105
168.08424	1000
169.08461	177
170.09787	76
200.0502	97
201.05261	105
218.07094	435

NAME: 1-Isothiocyanato-4-(methylsulfinyl)-butane
PRECURSORMZ: 176.02092984783
PRECURSORTYPE: [M-H]-
INSTRUMENTTYPE: LC-ESI-QTOF
SMILES: CS(=O)CCCCN=C=S
INCHIKEY: SUVMJBTUFCVSAD-UHFFFAOYNA-N
Ontology: Sulfoxides
COLLISIONENERGY: 30
FORMULA: C6H11NOS2
RETENTIONTIME: 3.702517
IONMODE: Negative
Comment: registered in RIKEN PlaSMA
Num Peaks: 1
66.03745	1000

NAME: 7-Methylsulfinylheptyl isothiocyanate
PRECURSORMZ: 218.06788004783
PRECURSORTYPE: [M-H]-
INSTRUMENTTYPE: LC-ESI-QTOF
SMILES: CS(=O)CCCCCCCN=C=S
INCHIKEY: OGYHCBGORZWBPH-UHFFFAOYNA-N
Ontology: Sulfoxides
COLLISIONENERGY: 30
FORMULA: C9H17NOS2
RETENTIONTIME: 5.4069
IONMODE: Negative
Comment: registered in RIKEN PlaSMA
Num Peaks: 2
102.94946	1000
127.87074	800

NAME: p-Hydroxybenzyl glucosinolate
PRECURSORMZ: 424.03776174783
PRECURSORTYPE: [M-H]-
INSTRUMENTTYPE: LC-ESI-QTOF
SMILES: OCC1OC(SC(CC2=CC=C(O)C=C2)=NOS(O)(=O)=O)C(O)C(O)C1O
INCHIKEY: WWBNBPSEKLOHJU-UHFFFAOYNA-N
Ontology: Alkylglucosinolates
COLLISIONENERGY: 10
FORMULA: C14H19NO10S2
RETENTIONTIME: 2.003917
IONMODE: Negative
Comment: registered in RIKEN PlaSMA
Num Peaks: 50
71.01402	11
74.99106	95
79.95725	39
85.02888	27
89.02143	6
95.95141	163
96.95978	570
97.86503	6
97.95021	23
98.95717	42
98.96326	11
99.01881	5
101.02971	11
101.62	5
117.02118	6
118.03089	6
119.03282	18
121.9532	7
127.92222	13
135.82574	11
138.96877	16
138.97472	6
148.03816	19
149.00685	12
149.02025	5
182.03383	45
183.03224	9
195.03534	39
200.98378	5
227.02238	12
227.99133	12
230.97485	5
230.98538	21
232.97464	5
242.0034	10
259.01248	57
259.02188	27
259.03308	5
261.00836	5
274.01944	5
274.98434	28
275.99478	10
276.81104	8
340.67459	7
341.82791	7
344.09174	8
346.4884	7
423.02057	7
424.03809	1000
424.06827	17

NAME: 8-Methylsulfinyloctyl isothiocyanate
PRECURSORMZ: 231.07570511576
PRECURSORTYPE: [M-2H]-
INSTRUMENTTYPE: LC-ESI-QTOF
SMILES: CS(=O)CCCCCCCCN=C=S
INCHIKEY: BCRXKWOQVFKZAG-UHFFFAOYNA-N
Ontology: Sulfoxides
COLLISIONENERGY: 10
FORMULA: C10H19NOS2
RETENTIONTIME: 3.56425
IONMODE: Negative
Comment: registered in RIKEN PlaSMA
Num Peaks: 4
79.95717	213
80.96854	26
229.09544	13
231.06845	1000

NAME: p-Hydroxybenzyl glucosinolate
PRECURSORMZ: 424.03776174783
PRECURSORTYPE: [M-H]-
INSTRUMENTTYPE: LC-ESI-QTOF
SMILES: OCC1OC(SC(CC2=CC=C(O)C=C2)=NOS(O)(=O)=O)C(O)C(O)C1O
INCHIKEY: WWBNBPSEKLOHJU-UHFFFAOYNA-N
Ontology: Alkylglucosinolates
COLLISIONENERGY: 10
FORMULA: C14H19NO10S2
RETENTIONTIME: 2.003917
IONMODE: Negative
Comment: registered in RIKEN PlaSMA
Num Peaks: 12
95.95141	16
96.95989	142
121.95112	5
182.03	17
195.03809	12
230.97652	9
240.99213	6
259.0166	26
274.97821	6
274.9903	11
275.00281	5
424.03738	1000

NAME: 8-Methylsulfinyloctyl isothiocyanate
PRECURSORMZ: 231.07570511576
PRECURSORTYPE: [M-2H]-
INSTRUMENTTYPE: LC-ESI-QTOF
SMILES: CS(=O)CCCCCCCCN=C=S
INCHIKEY: BCRXKWOQVFKZAG-UHFFFAOYNA-N
Ontology: Sulfoxides
COLLISIONENERGY: 10
FORMULA: C10H19NOS2
RETENTIONTIME: 3.56425
IONMODE: Negative
Comment: registered in RIKEN PlaSMA
Num Peaks: 2
79.95592	7
231.06923	1000

NAME: p-Hydroxybenzyl glucosinolate
PRECURSORMZ: 424.03776174783
PRECURSORTYPE: [M-H]-
INSTRUMENTTYPE: LC-ESI-QTOF
SMILES: OCC1OC(SC(CC2=CC=C(O)C=C2)=NOS(O)(=O)=O)C(O)C(O)C1O
INCHIKEY: WWBNBPSEKLOHJU-UHFFFAOYNA-N
Ontology: Alkylglucosinolates
COLLISIONENERGY: 30
FORMULA: C14H19NO10S2
RETENTIONTIME: 2.003917
IONMODE: Negative
Comment: registered in RIKEN PlaSMA
Num Peaks: 46
64.96799	11
71.01135	9
74.98963	326
75.98915	8
76.99061	11
79.95539	19
80.96181	31
85.03263	15
87.03432	17
89.02203	9
95.95197	508
95.99649	8
96.95921	1000
97.03023	8
97.95229	8
98.96258	10
101.02508	8
102.0265	11
107.05161	12
111.01328	13
111.93372	12
118.02883	9
119.03475	25
121.02551	26
127.92605	38
131.03119	9
138.96008	10
138.97049	52
147.99538	8
148.04001	49
149.00784	54
149.04379	11
150.00749	8
150.04578	12
150.99876	9
168.98213	11
182.02332	103
183.02773	8
195.02715	9
198.99126	10
199.83955	11
230.97574	21
240.99677	8
241.01044	11
259.0087	34
274.99826	8

NAME: 8-Methylsulfinyloctyl isothiocyanate
PRECURSORMZ: 231.07570511576
PRECURSORTYPE: [M-2H]-
INSTRUMENTTYPE: LC-ESI-QTOF
SMILES: CS(=O)CCCCCCCCN=C=S
INCHIKEY: BCRXKWOQVFKZAG-UHFFFAOYNA-N
Ontology: Sulfoxides
COLLISIONENERGY: 30
FORMULA: C10H19NOS2
RETENTIONTIME: 3.56425
IONMODE: Negative
Comment: registered in RIKEN PlaSMA
Num Peaks: 3
79.95676	1000
81.95233	46
231.06662	212

NAME: p-Hydroxybenzyl glucosinolate
PRECURSORMZ: 424.03776174783
PRECURSORTYPE: [M-H]-
INSTRUMENTTYPE: LC-ESI-QTOF
SMILES: OCC1OC(SC(CC2=CC=C(O)C=C2)=NOS(O)(=O)=O)C(O)C(O)C1O
INCHIKEY: WWBNBPSEKLOHJU-UHFFFAOYNA-N
Ontology: Alkylglucosinolates
COLLISIONENERGY: 50
FORMULA: C14H19NO10S2
RETENTIONTIME: 2.003917
IONMODE: Negative
Comment: registered in RIKEN PlaSMA
Num Peaks: 14
68.40976	23
71.01119	24
74.98971	451
79.95796	127
80.96341	58
80.96876	93
89.0279	48
95.95142	1000
96.96054	761
98.00512	28
98.95336	38
99.0095	21
138.97128	20
149.00848	22

NAME: 8-Methylsulfinyloctyl isothiocyanate
PRECURSORMZ: 231.07570511576
PRECURSORTYPE: [M-2H]-
INSTRUMENTTYPE: LC-ESI-QTOF
SMILES: CS(=O)CCCCCCCCN=C=S
INCHIKEY: BCRXKWOQVFKZAG-UHFFFAOYNA-N
Ontology: Sulfoxides
COLLISIONENERGY: 50
FORMULA: C10H19NOS2
RETENTIONTIME: 3.56425
IONMODE: Negative
Comment: registered in RIKEN PlaSMA
Num Peaks: 1
79.95817	1000

NAME: p-Hydroxybenzyl glucosinolate
PRECURSORMZ: 424.03776174783
PRECURSORTYPE: [M-H]-
INSTRUMENTTYPE: LC-ESI-QTOF
SMILES: OCC1OC(SC(CC2=CC=C(O)C=C2)=NOS(O)(=O)=O)C(O)C(O)C1O
INCHIKEY: WWBNBPSEKLOHJU-UHFFFAOYNA-N
Ontology: Alkylglucosinolates
COLLISIONENERGY: 10
FORMULA: C14H19NO10S2
RETENTIONTIME: 2.003917
IONMODE: Negative
Comment: registered in RIKEN PlaSMA
Num Peaks: 53
59.01528	6
74.98864	44
79.95634	24
82.95596	8
85.03191	12
95.951	221
96.95897	606
97.02699	15
98.94781	8
98.95618	28
98.96426	30
101.01427	6
101.02456	17
112.92934	6
113.02312	7
120.1273	8
121.02871	8
121.95577	29
128.06764	7
128.92912	9
131.0368	6
138.97704	5
143.03859	7
145.05258	18
148.03967	13
149.0051	27
177.02393	5
182.03036	57
183.03633	10
195.0331	42
196.04129	6
197.02492	5
199.81786	6
199.98669	5
200.98363	7
211.46028	5
227.02206	18
228.00067	7
230.93596	6
230.97141	6
230.98691	24
240.99583	5
241.00616	5
246.01003	5
259.00851	43
259.02393	14
274.98639	16
277.99222	6
346.07736	6
366.7399	6
369.26718	9
424.0368	1000
424.08539	10

NAME: 8-Methylsulfinyloctyl isothiocyanate
PRECURSORMZ: 231.07570511576
PRECURSORTYPE: [M-2H]-
INSTRUMENTTYPE: LC-ESI-QTOF
SMILES: CS(=O)CCCCCCCCN=C=S
INCHIKEY: BCRXKWOQVFKZAG-UHFFFAOYNA-N
Ontology: Sulfoxides
COLLISIONENERGY: 10
FORMULA: C10H19NOS2
RETENTIONTIME: 3.56425
IONMODE: Negative
Comment: registered in RIKEN PlaSMA
Num Peaks: 3
79.9593	125
80.96688	15
231.06895	1000

NAME: p-Hydroxybenzyl glucosinolate
PRECURSORMZ: 424.03776174783
PRECURSORTYPE: [M-H]-
INSTRUMENTTYPE: LC-ESI-QTOF
SMILES: OCC1OC(SC(CC2=CC=C(O)C=C2)=NOS(O)(=O)=O)C(O)C(O)C1O
INCHIKEY: WWBNBPSEKLOHJU-UHFFFAOYNA-N
Ontology: Alkylglucosinolates
COLLISIONENERGY: 10
FORMULA: C14H19NO10S2
RETENTIONTIME: 2.003917
IONMODE: Negative
Comment: registered in RIKEN PlaSMA
Num Peaks: 9
95.95031	24
96.95948	136
98.95994	6
121.94958	12
182.02873	19
195.03004	11
259.01163	18
274.98993	12
424.03616	1000

NAME: 8-Methylsulfinyloctyl isothiocyanate
PRECURSORMZ: 231.07570511576
PRECURSORTYPE: [M-2H]-
INSTRUMENTTYPE: LC-ESI-QTOF
SMILES: CS(=O)CCCCCCCCN=C=S
INCHIKEY: BCRXKWOQVFKZAG-UHFFFAOYNA-N
Ontology: Sulfoxides
COLLISIONENERGY: 10
FORMULA: C10H19NOS2
RETENTIONTIME: 3.56425
IONMODE: Negative
Comment: registered in RIKEN PlaSMA
Num Peaks: 4
79.95673	18
81.952	7
227.55608	8
231.07002	1000

NAME: p-Hydroxybenzyl glucosinolate
PRECURSORMZ: 424.03776174783
PRECURSORTYPE: [M-H]-
INSTRUMENTTYPE: LC-ESI-QTOF
SMILES: OCC1OC(SC(CC2=CC=C(O)C=C2)=NOS(O)(=O)=O)C(O)C(O)C1O
INCHIKEY: WWBNBPSEKLOHJU-UHFFFAOYNA-N
Ontology: Alkylglucosinolates
COLLISIONENERGY: 30
FORMULA: C14H19NO10S2
RETENTIONTIME: 2.003917
IONMODE: Negative
Comment: registered in RIKEN PlaSMA
Num Peaks: 47
57.97219	10
65.95719	17
71.01353	17
72.01769	16
74.99001	228
76.3681	12
76.55981	8
76.98653	9
79.95017	10
79.958	36
80.96487	9
85.02882	11
94.46529	9
95.95182	496
96.95966	1000
97.94524	11
97.95022	12
97.95895	17
98.95444	25
98.96503	12
101.00717	12
101.02241	40
101.02626	21
111.93264	36
112.93398	13
127.92406	11
131.03279	12
138.97108	47
139.98093	10
148.03067	10
148.04198	8
149.00487	33
168.01848	11
170.98463	9
182.02705	75
195.03429	8
199.00374	11
200.98997	8
222.99632	15
228.00021	16
230.98019	18
233.97293	11
241.00439	29
246.02095	9
259.00568	26
259.02008	9
274.9939	13

NAME: 8-Methylsulfinyloctyl isothiocyanate
PRECURSORMZ: 231.07570511576
PRECURSORTYPE: [M-2H]-
INSTRUMENTTYPE: LC-ESI-QTOF
SMILES: CS(=O)CCCCCCCCN=C=S
INCHIKEY: BCRXKWOQVFKZAG-UHFFFAOYNA-N
Ontology: Sulfoxides
COLLISIONENERGY: 30
FORMULA: C10H19NOS2
RETENTIONTIME: 3.56425
IONMODE: Negative
Comment: registered in RIKEN PlaSMA
Num Peaks: 3
79.95821	1000
231.06061	100
231.07127	153

NAME: p-Hydroxybenzyl glucosinolate
PRECURSORMZ: 424.03776174783
PRECURSORTYPE: [M-H]-
INSTRUMENTTYPE: LC-ESI-QTOF
SMILES: OCC1OC(SC(CC2=CC=C(O)C=C2)=NOS(O)(=O)=O)C(O)C(O)C1O
INCHIKEY: WWBNBPSEKLOHJU-UHFFFAOYNA-N
Ontology: Alkylglucosinolates
COLLISIONENERGY: 50
FORMULA: C14H19NO10S2
RETENTIONTIME: 2.003917
IONMODE: Negative
Comment: registered in RIKEN PlaSMA
Num Peaks: 16
59.01349	45
74.99065	401
79.9558	28
79.96211	29
95.952	1000
96.96117	948
97.36558	24
97.95052	26
98.9532	38
98.96729	21
101.02522	26
118.83453	21
120.12812	22
131.03587	68
148.00035	26
225.19055	21

NAME: 8-Methylsulfinyloctyl isothiocyanate
PRECURSORMZ: 231.07570511576
PRECURSORTYPE: [M-2H]-
INSTRUMENTTYPE: LC-ESI-QTOF
SMILES: CS(=O)CCCCCCCCN=C=S
INCHIKEY: BCRXKWOQVFKZAG-UHFFFAOYNA-N
Ontology: Sulfoxides
COLLISIONENERGY: 50
FORMULA: C10H19NOS2
RETENTIONTIME: 3.56425
IONMODE: Negative
Comment: registered in RIKEN PlaSMA
Num Peaks: 2
79.95666	1000
81.8056	360

NAME: p-Hydroxybenzyl glucosinolate
PRECURSORMZ: 424.03776174783
PRECURSORTYPE: [M-H]-
INSTRUMENTTYPE: LC-ESI-QTOF
SMILES: OCC1OC(SC(CC2=CC=C(O)C=C2)=NOS(O)(=O)=O)C(O)C(O)C1O
INCHIKEY: WWBNBPSEKLOHJU-UHFFFAOYNA-N
Ontology: Alkylglucosinolates
COLLISIONENERGY: 10
FORMULA: C14H19NO10S2
RETENTIONTIME: 2.003917
IONMODE: Negative
Comment: registered in RIKEN PlaSMA
Num Peaks: 59
71.0118	14
74.98971	60
75.98727	6
79.9569	36
80.96298	6
85.03177	16
89.02132	6
95.94922	106
95.95403	86
96.94788	8
96.95954	537
97.02549	6
98.95652	27
99.04082	7
101.02167	17
113.02193	7
119.03034	11
119.03896	9
121.025	11
121.9577	6
127.92648	11
128.93498	8
131.0313	9
138.96748	14
143.03313	6
145.05109	17
148.03902	19
149.00728	7
149.03893	5
163.05438	6
163.06725	10
168.9818	6
182.02412	49
182.03426	28
183.02264	6
183.04189	6
185.99103	6
193.02061	6
194.06812	6
195.0296	13
195.03809	16
201.98683	7
224.03992	8
227.02509	5
230.98201	27
232.96529	7
232.97459	5
233.50812	6
241.01186	6
245.99736	6
246.99918	6
259.01358	45
259.99908	6
260.01773	10
261.02832	7
274.99194	40
284.92255	5
343.4678	6
424.03848	1000

NAME: 8-Methylsulfinyloctyl isothiocyanate
PRECURSORMZ: 231.07570511576
PRECURSORTYPE: [M-2H]-
INSTRUMENTTYPE: LC-ESI-QTOF
SMILES: CS(=O)CCCCCCCCN=C=S
INCHIKEY: BCRXKWOQVFKZAG-UHFFFAOYNA-N
Ontology: Sulfoxides
COLLISIONENERGY: 10
FORMULA: C10H19NOS2
RETENTIONTIME: 3.56425
IONMODE: Negative
Comment: registered in RIKEN PlaSMA
Num Peaks: 6
79.95538	93
79.96398	17
80.96206	15
153.881	14
177.69168	13
231.06789	1000

NAME: p-Hydroxybenzyl glucosinolate
PRECURSORMZ: 424.03776174783
PRECURSORTYPE: [M-H]-
INSTRUMENTTYPE: LC-ESI-QTOF
SMILES: OCC1OC(SC(CC2=CC=C(O)C=C2)=NOS(O)(=O)=O)C(O)C(O)C1O
INCHIKEY: WWBNBPSEKLOHJU-UHFFFAOYNA-N
Ontology: Alkylglucosinolates
COLLISIONENERGY: 10
FORMULA: C14H19NO10S2
RETENTIONTIME: 2.003917
IONMODE: Negative
Comment: registered in RIKEN PlaSMA
Num Peaks: 14
79.95718	7
95.9504	16
96.95875	145
97.95766	10
121.95485	10
145.04785	6
182.02852	21
195.03221	24
230.98219	6
241.00214	7
259.01633	28
274.9837	6
344.08295	7
424.03564	1000

NAME: 8-Methylsulfinyloctyl isothiocyanate
PRECURSORMZ: 231.07570511576
PRECURSORTYPE: [M-2H]-
INSTRUMENTTYPE: LC-ESI-QTOF
SMILES: CS(=O)CCCCCCCCN=C=S
INCHIKEY: BCRXKWOQVFKZAG-UHFFFAOYNA-N
Ontology: Sulfoxides
COLLISIONENERGY: 10
FORMULA: C10H19NOS2
RETENTIONTIME: 3.56425
IONMODE: Negative
Comment: registered in RIKEN PlaSMA
Num Peaks: 7
130.74278	6
142.83911	7
145.47804	6
153.76038	7
185.85818	6
194.41953	6
231.0688	1000

NAME: p-Hydroxybenzyl glucosinolate
PRECURSORMZ: 424.03776174783
PRECURSORTYPE: [M-H]-
INSTRUMENTTYPE: LC-ESI-QTOF
SMILES: OCC1OC(SC(CC2=CC=C(O)C=C2)=NOS(O)(=O)=O)C(O)C(O)C1O
INCHIKEY: WWBNBPSEKLOHJU-UHFFFAOYNA-N
Ontology: Alkylglucosinolates
COLLISIONENERGY: 30
FORMULA: C14H19NO10S2
RETENTIONTIME: 2.003917
IONMODE: Negative
Comment: registered in RIKEN PlaSMA
Num Peaks: 46
71.0156	13
72.01936	9
72.98885	12
74.99023	317
75.99129	8
76.9874	8
79.95832	90
80.96258	8
81.9539	11
85.02659	24
89.02518	22
95.95181	580
96.95948	1000
97.94866	22
97.96069	18
98.47034	10
98.94891	16
98.95769	58
99.65674	12
101.02122	25
101.03167	23
111.92482	26
119.02615	11
119.0336	42
121.95613	8
127.92382	22
133.02539	11
138.96872	75
138.97739	19
148.03938	26
149.00967	46
150.00214	8
165.02194	9
168.97731	12
182.03017	108
195.03273	32
198.98485	10
200.9946	8
232.95981	10
232.98087	18
240.99998	29
241.00995	14
258.99966	35
259.01447	21
260.02213	8
274.98468	14

NAME: 8-Methylsulfinyloctyl isothiocyanate
PRECURSORMZ: 231.07570511576
PRECURSORTYPE: [M-2H]-
INSTRUMENTTYPE: LC-ESI-QTOF
SMILES: CS(=O)CCCCCCCCN=C=S
INCHIKEY: BCRXKWOQVFKZAG-UHFFFAOYNA-N
Ontology: Sulfoxides
COLLISIONENERGY: 30
FORMULA: C10H19NOS2
RETENTIONTIME: 3.56425
IONMODE: Negative
Comment: registered in RIKEN PlaSMA
Num Peaks: 3
79.95599	1000
81.95498	54
231.07022	56

NAME: p-Hydroxybenzyl glucosinolate
PRECURSORMZ: 424.03776174783
PRECURSORTYPE: [M-H]-
INSTRUMENTTYPE: LC-ESI-QTOF
SMILES: OCC1OC(SC(CC2=CC=C(O)C=C2)=NOS(O)(=O)=O)C(O)C(O)C1O
INCHIKEY: WWBNBPSEKLOHJU-UHFFFAOYNA-N
Ontology: Alkylglucosinolates
COLLISIONENERGY: 50
FORMULA: C14H19NO10S2
RETENTIONTIME: 2.003917
IONMODE: Negative
Comment: registered in RIKEN PlaSMA
Num Peaks: 20
59.01226	25
73.30984	25
74.99157	469
75.99035	49
75.99457	60
79.95315	71
79.95823	87
83.01569	34
95.9514	1000
96.95921	520
96.98772	28
98.95738	99
98.96532	50
123.03003	38
127.93064	56
131.03555	34
138.96887	50
148.0002	29
259.01697	25
345.53558	38

NAME: 8-Methylsulfinyloctyl isothiocyanate
PRECURSORMZ: 231.07570511576
PRECURSORTYPE: [M-2H]-
INSTRUMENTTYPE: LC-ESI-QTOF
SMILES: CS(=O)CCCCCCCCN=C=S
INCHIKEY: BCRXKWOQVFKZAG-UHFFFAOYNA-N
Ontology: Sulfoxides
COLLISIONENERGY: 50
FORMULA: C10H19NOS2
RETENTIONTIME: 3.56425
IONMODE: Negative
Comment: registered in RIKEN PlaSMA
Num Peaks: 1
79.95529	1000

NAME: (2S)-2-Hydroxy-3-butenyl-glucosinolate
PRECURSORMZ: 388.03776174783
PRECURSORTYPE: [M-H]-
INSTRUMENTTYPE: LC-ESI-QTOF
SMILES: OCC1OC(SC(CC(O)C=C)=NOS(O)(=O)=O)C(O)C(O)C1O
INCHIKEY: MYHSVHWQEVDFQT-UHFFFAOYNA-N
Ontology: Alkylglucosinolates
COLLISIONENERGY: 10
FORMULA: C11H19NO10S2
RETENTIONTIME: 1.768383
IONMODE: Negative
Comment: registered in RIKEN PlaSMA
Num Peaks: 39
74.00817	32
74.99042	13
74.99618	24
75.98919	20
79.95873	19
80.96609	20
90.00009	39
95.95182	124
96.95998	959
97.95701	15
101.02078	39
119.03381	18
127.92667	31
134.96184	24
135.96701	57
135.97342	34
137.97482	16
138.96486	14
138.97501	22
145.04739	14
146.02364	25
146.03021	19
153.97591	15
153.9854	17
164.9827	14
168.9838	24
195.03065	130
196.03766	26
210.00815	64
225.98676	13
242.0009	14
259.00864	89
259.03214	19
260.01044	19
274.99646	13
301.00668	31
308.08047	22
333.0162	14
388.0372	1000

NAME: (2S)-2-Hydroxy-3-butenyl-glucosinolate
PRECURSORMZ: 388.03776174783
PRECURSORTYPE: [M-H]-
INSTRUMENTTYPE: LC-ESI-QTOF
SMILES: OCC1OC(SC(CC(O)C=C)=NOS(O)(=O)=O)C(O)C(O)C1O
INCHIKEY: MYHSVHWQEVDFQT-UHFFFAOYNA-N
Ontology: Alkylglucosinolates
COLLISIONENERGY: 10
FORMULA: C11H19NO10S2
RETENTIONTIME: 1.768383
IONMODE: Negative
Comment: registered in RIKEN PlaSMA
Num Peaks: 22
74.98869	7
95.95361	17
96.95991	212
98.96369	6
101.02579	6
135.96297	7
135.9695	19
146.02531	42
191.99977	16
195.0325	49
210.00568	12
225.99472	8
227.01939	9
259.0144	49
264.51999	6
274.98816	14
275.00406	6
290.98215	6
308.08484	12
332.01242	17
388.03641	1000
388.08478	9

NAME: (2S)-2-Hydroxy-3-butenyl-glucosinolate
PRECURSORMZ: 388.03776174783
PRECURSORTYPE: [M-H]-
INSTRUMENTTYPE: LC-ESI-QTOF
SMILES: OCC1OC(SC(CC(O)C=C)=NOS(O)(=O)=O)C(O)C(O)C1O
INCHIKEY: MYHSVHWQEVDFQT-UHFFFAOYNA-N
Ontology: Alkylglucosinolates
COLLISIONENERGY: 30
FORMULA: C11H19NO10S2
RETENTIONTIME: 1.768383
IONMODE: Negative
Comment: registered in RIKEN PlaSMA
Num Peaks: 28
59.012	80
64.46275	20
73.97343	22
74.98992	383
75.19498	22
76.98478	31
79.95521	22
79.95988	43
85.02888	28
89.02343	59
90.00018	66
95.95212	494
96.95938	1000
98.22433	20
98.95521	42
101.03499	49
119.03744	55
135.96928	100
138.95369	46
138.96687	109
146.02832	21
154.98344	30
163.13805	22
166.59714	34
195.0323	37
241.00162	51
259.01343	22
274.98688	28

NAME: (2S)-2-Hydroxy-3-butenyl-glucosinolate
PRECURSORMZ: 388.03776174783
PRECURSORTYPE: [M-H]-
INSTRUMENTTYPE: LC-ESI-QTOF
SMILES: OCC1OC(SC(CC(O)C=C)=NOS(O)(=O)=O)C(O)C(O)C1O
INCHIKEY: MYHSVHWQEVDFQT-UHFFFAOYNA-N
Ontology: Alkylglucosinolates
COLLISIONENERGY: 50
FORMULA: C11H19NO10S2
RETENTIONTIME: 1.768383
IONMODE: Negative
Comment: registered in RIKEN PlaSMA
Num Peaks: 10
76.98489	62
80.96517	62
89.99801	57
95.95055	1000
96.95814	769
98.77911	49
98.95061	54
98.95879	155
101.46045	52
135.97287	95

NAME: (2S)-2-Hydroxy-3-butenyl-glucosinolate
PRECURSORMZ: 388.03776174783
PRECURSORTYPE: [M-H]-
INSTRUMENTTYPE: LC-ESI-QTOF
SMILES: OCC1OC(SC(CC(O)C=C)=NOS(O)(=O)=O)C(O)C(O)C1O
INCHIKEY: MYHSVHWQEVDFQT-UHFFFAOYNA-N
Ontology: Alkylglucosinolates
COLLISIONENERGY: 10
FORMULA: C11H19NO10S2
RETENTIONTIME: 1.768383
IONMODE: Negative
Comment: registered in RIKEN PlaSMA
Num Peaks: 41
74.991	125
76.98402	11
79.95217	9
79.95733	36
95.94226	12
95.95234	234
96.95924	563
97.95766	17
98.62168	14
98.96424	15
101.0237	15
111.92757	15
119.04194	12
135.9677	120
138.97227	22
146.03117	95
147.02798	13
177.01845	12
191.98981	27
191.99953	15
195.02605	30
195.03842	32
198.98494	11
209.99986	15
210.0139	17
211.02654	18
225.98283	16
240.99068	12
241.00018	12
259.01175	54
274.98672	17
275.18716	13
278.25159	14
284.23141	13
301.01294	12
308.08649	13
308.09561	13
354.13177	12
357.04999	11
376.81268	12
388.03491	1000

NAME: (2S)-2-Hydroxy-3-butenyl-glucosinolate
PRECURSORMZ: 388.03776174783
PRECURSORTYPE: [M-H]-
INSTRUMENTTYPE: LC-ESI-QTOF
SMILES: OCC1OC(SC(CC(O)C=C)=NOS(O)(=O)=O)C(O)C(O)C1O
INCHIKEY: MYHSVHWQEVDFQT-UHFFFAOYNA-N
Ontology: Alkylglucosinolates
COLLISIONENERGY: 10
FORMULA: C11H19NO10S2
RETENTIONTIME: 1.768383
IONMODE: Negative
Comment: registered in RIKEN PlaSMA
Num Peaks: 22
74.98726	8
79.9574	8
85.03088	5
95.949	9
96.95954	151
119.02775	10
135.96661	10
145.04895	7
146.02687	25
153.97986	9
191.99278	16
195.03053	69
210.01161	11
227.03036	6
259.01535	45
261.18427	8
274.99039	37
294.27051	8
308.08319	6
332.01199	25
334.01843	7
388.03763	1000

NAME: (2S)-2-Hydroxy-3-butenyl-glucosinolate
PRECURSORMZ: 388.03776174783
PRECURSORTYPE: [M-H]-
INSTRUMENTTYPE: LC-ESI-QTOF
SMILES: OCC1OC(SC(CC(O)C=C)=NOS(O)(=O)=O)C(O)C(O)C1O
INCHIKEY: MYHSVHWQEVDFQT-UHFFFAOYNA-N
Ontology: Alkylglucosinolates
COLLISIONENERGY: 30
FORMULA: C11H19NO10S2
RETENTIONTIME: 1.768383
IONMODE: Negative
Comment: registered in RIKEN PlaSMA
Num Peaks: 23
59.01155	28
74.98872	404
75.99613	55
79.95567	148
82.96089	25
89.99592	36
90.00175	32
95.95066	659
96.9601	1000
119.03503	90
132.79909	21
135.97327	59
138.94478	59
138.95219	21
138.96617	59
140.96529	25
140.97809	30
146.02756	60
146.13687	39
147.03464	23
157.6017	46
240.99538	41
259.0134	63

NAME: (2S)-2-Hydroxy-3-butenyl-glucosinolate
PRECURSORMZ: 388.03776174783
PRECURSORTYPE: [M-H]-
INSTRUMENTTYPE: LC-ESI-QTOF
SMILES: OCC1OC(SC(CC(O)C=C)=NOS(O)(=O)=O)C(O)C(O)C1O
INCHIKEY: MYHSVHWQEVDFQT-UHFFFAOYNA-N
Ontology: Alkylglucosinolates
COLLISIONENERGY: 50
FORMULA: C11H19NO10S2
RETENTIONTIME: 1.768383
IONMODE: Negative
Comment: registered in RIKEN PlaSMA
Num Peaks: 7
71.01215	78
74.99069	400
79.95476	102
89.99972	85
95.95029	800
96.95974	1000
98.95037	64

NAME: (2S)-2-Hydroxy-3-butenyl-glucosinolate
PRECURSORMZ: 388.03776174783
PRECURSORTYPE: [M-H]-
INSTRUMENTTYPE: LC-ESI-QTOF
SMILES: OCC1OC(SC(CC(O)C=C)=NOS(O)(=O)=O)C(O)C(O)C1O
INCHIKEY: MYHSVHWQEVDFQT-UHFFFAOYNA-N
Ontology: Alkylglucosinolates
COLLISIONENERGY: 10
FORMULA: C11H19NO10S2
RETENTIONTIME: 1.768383
IONMODE: Negative
Comment: registered in RIKEN PlaSMA
Num Peaks: 45
74.99123	157
76.98399	17
79.95547	12
82.95982	16
89.02048	19
90.00374	41
91.99761	19
95.95071	221
96.95914	718
97.70581	11
98.95662	53
100.38027	24
101.01936	24
101.02517	31
113.02251	11
119.03594	17
128.93402	13
135.96985	53
138.96953	16
143.03571	11
145.05098	12
146.02431	80
146.03294	11
147.03267	17
164.97903	15
169.95238	14
191.99139	32
194.96581	11
195.03395	109
197.02496	16
198.03229	11
210.00478	15
210.01573	20
212.01505	31
241.00304	13
259.008	101
259.02161	46
260.00903	15
273.51538	19
274.98907	27
275.98987	13
332.01181	44
387.02295	12
388.03799	1000
388.0563	80

NAME: (2S)-2-Hydroxy-3-butenyl-glucosinolate
PRECURSORMZ: 388.03776174783
PRECURSORTYPE: [M-H]-
INSTRUMENTTYPE: LC-ESI-QTOF
SMILES: OCC1OC(SC(CC(O)C=C)=NOS(O)(=O)=O)C(O)C(O)C1O
INCHIKEY: MYHSVHWQEVDFQT-UHFFFAOYNA-N
Ontology: Alkylglucosinolates
COLLISIONENERGY: 10
FORMULA: C11H19NO10S2
RETENTIONTIME: 1.768383
IONMODE: Negative
Comment: registered in RIKEN PlaSMA
Num Peaks: 29
74.99003	20
79.95836	9
85.02655	5
95.94554	12
95.95256	28
96.95992	157
98.95459	9
98.96404	13
101.0325	6
115.03926	5
135.96568	7
135.97231	11
146.028	36
153.98393	14
168.98033	5
191.99295	7
193.01778	6
195.02298	8
195.03444	46
210.00362	20
225.9908	6
241.00403	10
259.00339	20
259.01257	27
274.9848	11
301.01913	11
332.00253	10
332.01782	8
388.03683	1000

NAME: (2S)-2-Hydroxy-3-butenyl-glucosinolate
PRECURSORMZ: 388.03776174783
PRECURSORTYPE: [M-H]-
INSTRUMENTTYPE: LC-ESI-QTOF
SMILES: OCC1OC(SC(CC(O)C=C)=NOS(O)(=O)=O)C(O)C(O)C1O
INCHIKEY: MYHSVHWQEVDFQT-UHFFFAOYNA-N
Ontology: Alkylglucosinolates
COLLISIONENERGY: 30
FORMULA: C11H19NO10S2
RETENTIONTIME: 1.768383
IONMODE: Negative
Comment: registered in RIKEN PlaSMA
Num Peaks: 22
73.97272	29
74.98215	33
74.9912	760
75.99361	40
79.95544	33
81.83073	27
90.00117	60
95.95161	589
95.9623	27
95.97197	25
96.95953	1000
97.05844	25
98.95509	29
101.01962	45
105.00047	27
116.99883	36
135.97527	42
138.95744	77
138.96629	46
138.97427	59
146.02855	41
155.98819	34

NAME: (2S)-2-Hydroxy-3-butenyl-glucosinolate
PRECURSORMZ: 388.03776174783
PRECURSORTYPE: [M-H]-
INSTRUMENTTYPE: LC-ESI-QTOF
SMILES: OCC1OC(SC(CC(O)C=C)=NOS(O)(=O)=O)C(O)C(O)C1O
INCHIKEY: MYHSVHWQEVDFQT-UHFFFAOYNA-N
Ontology: Alkylglucosinolates
COLLISIONENERGY: 50
FORMULA: C11H19NO10S2
RETENTIONTIME: 1.768383
IONMODE: Negative
Comment: registered in RIKEN PlaSMA
Num Peaks: 9
74.99072	416
79.95528	87
79.96066	115
82.96384	80
95.95145	1000
96.95731	654
96.96259	381
97.94917	105
98.95492	112

NAME: Benzyl glucosinolate
PRECURSORMZ: 408.04284704783
PRECURSORTYPE: [M-H]-
INSTRUMENTTYPE: LC-ESI-QTOF
SMILES: OCC1OC(SC(CC2=CC=CC=C2)=NOS(O)(=O)=O)C(O)C(O)C1O
INCHIKEY: QQGLQYQXUKHWPX-UHFFFAOYNA-N
Ontology: Alkylglucosinolates
COLLISIONENERGY: 10
FORMULA: C14H19NO9S2
RETENTIONTIME: 2.827433
IONMODE: Negative
Comment: registered in RIKEN PlaSMA
Num Peaks: 32
74.99035	82
79.95783	31
80.96409	18
85.02836	6
95.9521	170
96.95981	672
97.95628	5
98.95295	33
98.95908	16
101.02182	6
111.93112	12
119.03266	13
127.92278	7
132.04425	14
138.9682	15
145.05453	8
166.03247	133
168.03374	10
195.03149	26
195.04193	8
211.99898	27
212.00786	13
214.98776	15
227.01949	6
230.01437	7
241.00209	51
241.01413	9
259.01389	70
260.01489	12
274.98938	14
301.78833	6
408.04251	1000

NAME: Benzyl glucosinolate
PRECURSORMZ: 408.04284704783
PRECURSORTYPE: [M-H]-
INSTRUMENTTYPE: LC-ESI-QTOF
SMILES: OCC1OC(SC(CC2=CC=CC=C2)=NOS(O)(=O)=O)C(O)C(O)C1O
INCHIKEY: QQGLQYQXUKHWPX-UHFFFAOYNA-N
Ontology: Alkylglucosinolates
COLLISIONENERGY: 10
FORMULA: C14H19NO9S2
RETENTIONTIME: 2.827433
IONMODE: Negative
Comment: registered in RIKEN PlaSMA
Num Peaks: 13
95.9502	18
96.95904	151
98.95355	7
166.03122	33
195.03157	19
212.00211	7
214.98271	9
230.009	8
240.99966	7
259.01053	32
274.98767	10
328.08182	6
408.03989	1000

NAME: Benzyl glucosinolate
PRECURSORMZ: 408.04284704783
PRECURSORTYPE: [M-H]-
INSTRUMENTTYPE: LC-ESI-QTOF
SMILES: OCC1OC(SC(CC2=CC=CC=C2)=NOS(O)(=O)=O)C(O)C(O)C1O
INCHIKEY: QQGLQYQXUKHWPX-UHFFFAOYNA-N
Ontology: Alkylglucosinolates
COLLISIONENERGY: 30
FORMULA: C14H19NO9S2
RETENTIONTIME: 2.827433
IONMODE: Negative
Comment: registered in RIKEN PlaSMA
Num Peaks: 53
59.01237	6
63.96156	5
71.0146	7
74.98974	335
76.98459	21
77.04542	6
79.9552	46
80.95664	5
80.96411	32
81.96496	6
85.02471	7
85.02958	26
87.00723	11
89.02297	11
89.02846	5
95.95113	668
96.90105	7
96.95864	1000
97.94933	29
97.95927	10
98.95432	47
98.96233	11
101.01646	10
101.02183	34
111.93149	14
113.02335	9
113.02923	7
117.01682	8
119.03587	26
127.92879	6
130.00357	5
132.04396	42
132.05101	15
133.05273	6
138.96877	70
141.92247	6
150.96901	5
153.99034	6
165.03145	6
166.0323	194
167.04097	22
177.02698	5
195.03366	8
198.99182	7
211.99599	5
215.9904	9
240.99576	36
241.00505	28
244.0193	9
259.00406	13
260.02838	7
261.0127	5
274.98914	22

NAME: Benzyl glucosinolate
PRECURSORMZ: 408.04284704783
PRECURSORTYPE: [M-H]-
INSTRUMENTTYPE: LC-ESI-QTOF
SMILES: OCC1OC(SC(CC2=CC=CC=C2)=NOS(O)(=O)=O)C(O)C(O)C1O
INCHIKEY: QQGLQYQXUKHWPX-UHFFFAOYNA-N
Ontology: Alkylglucosinolates
COLLISIONENERGY: 50
FORMULA: C14H19NO9S2
RETENTIONTIME: 2.827433
IONMODE: Negative
Comment: registered in RIKEN PlaSMA
Num Peaks: 17
59.01267	12
71.01253	12
74.98969	287
76.9824	17
79.95567	76
80.76788	12
89.02094	10
95.95123	1000
96.95924	720
97.94566	18
97.95048	23
97.96111	29
98.95325	72
101.02454	19
113.02106	11
132.04263	12
138.96555	10

NAME: Benzyl glucosinolate
PRECURSORMZ: 408.04284704783
PRECURSORTYPE: [M-H]-
INSTRUMENTTYPE: LC-ESI-QTOF
SMILES: OCC1OC(SC(CC2=CC=CC=C2)=NOS(O)(=O)=O)C(O)C(O)C1O
INCHIKEY: QQGLQYQXUKHWPX-UHFFFAOYNA-N
Ontology: Alkylglucosinolates
COLLISIONENERGY: 10
FORMULA: C14H19NO9S2
RETENTIONTIME: 2.827433
IONMODE: Negative
Comment: registered in RIKEN PlaSMA
Num Peaks: 34
74.99064	89
79.95559	26
79.96234	6
80.96046	8
85.02821	9
89.02531	7
95.95087	217
96.95928	670
96.96939	7
97.95547	9
98.95427	47
101.02301	25
128.92961	9
132.04411	16
132.05034	6
138.96754	19
138.97513	5
145.05064	16
166.0331	136
167.04074	13
195.03145	27
195.04054	8
200.99324	5
212.00166	22
214.97536	8
214.99292	6
230.0108	9
241.00133	29
259.01419	75
274.98083	14
274.9935	14
328.08347	8
408.04251	1000
408.09854	6

NAME: Benzyl glucosinolate
PRECURSORMZ: 408.04284704783
PRECURSORTYPE: [M-H]-
INSTRUMENTTYPE: LC-ESI-QTOF
SMILES: OCC1OC(SC(CC2=CC=CC=C2)=NOS(O)(=O)=O)C(O)C(O)C1O
INCHIKEY: QQGLQYQXUKHWPX-UHFFFAOYNA-N
Ontology: Alkylglucosinolates
COLLISIONENERGY: 10
FORMULA: C14H19NO9S2
RETENTIONTIME: 2.827433
IONMODE: Negative
Comment: registered in RIKEN PlaSMA
Num Peaks: 13
85.02932	7
95.95097	16
96.95947	151
98.95359	11
166.03294	23
195.03339	22
212.00284	13
230.01454	6
259.01288	23
274.98981	15
328.08765	8
408.04321	1000
408.09897	6

NAME: Benzyl glucosinolate
PRECURSORMZ: 408.04284704783
PRECURSORTYPE: [M-H]-
INSTRUMENTTYPE: LC-ESI-QTOF
SMILES: OCC1OC(SC(CC2=CC=CC=C2)=NOS(O)(=O)=O)C(O)C(O)C1O
INCHIKEY: QQGLQYQXUKHWPX-UHFFFAOYNA-N
Ontology: Alkylglucosinolates
COLLISIONENERGY: 30
FORMULA: C14H19NO9S2
RETENTIONTIME: 2.827433
IONMODE: Negative
Comment: registered in RIKEN PlaSMA
Num Peaks: 47
57.03296	6
59.01461	5
63.96197	11
71.01239	11
74.99084	317
75.99334	10
76.98808	12
79.95535	63
80.9651	11
84.01922	7
86.03166	10
89.02401	45
91.05328	5
95.95121	675
96.00246	6
96.95895	1000
97.94631	24
97.95114	37
97.96027	21
98.9547	72
98.96693	6
104.99911	5
111.92934	20
113.02574	10
119.03259	26
127.91974	12
128.92725	8
128.93376	6
129.92297	10
132.04434	65
138.96898	48
138.98138	8
139.97162	5
150.03918	10
152.98398	7
166.03061	124
166.03822	59
167.03415	33
197.02669	6
198.98779	5
198.99661	8
213.00418	5
240.99858	36
241.00949	8
259.01389	36
274.98395	17
408.05118	5

NAME: Benzyl glucosinolate
PRECURSORMZ: 408.04284704783
PRECURSORTYPE: [M-H]-
INSTRUMENTTYPE: LC-ESI-QTOF
SMILES: OCC1OC(SC(CC2=CC=CC=C2)=NOS(O)(=O)=O)C(O)C(O)C1O
INCHIKEY: QQGLQYQXUKHWPX-UHFFFAOYNA-N
Ontology: Alkylglucosinolates
COLLISIONENERGY: 50
FORMULA: C14H19NO9S2
RETENTIONTIME: 2.827433
IONMODE: Negative
Comment: registered in RIKEN PlaSMA
Num Peaks: 17
59.01149	24
59.01703	29
65.6497	13
71.01257	37
74.98938	360
79.95438	120
83.01431	12
95.95135	1000
96.95802	685
97.96996	14
101.02467	14
116.04903	17
132.04268	37
132.05222	25
147.00266	17
148.02205	18
244.00075	12

NAME: Benzyl glucosinolate
PRECURSORMZ: 408.04284704783
PRECURSORTYPE: [M-H]-
INSTRUMENTTYPE: LC-ESI-QTOF
SMILES: OCC1OC(SC(CC2=CC=CC=C2)=NOS(O)(=O)=O)C(O)C(O)C1O
INCHIKEY: QQGLQYQXUKHWPX-UHFFFAOYNA-N
Ontology: Alkylglucosinolates
COLLISIONENERGY: 10
FORMULA: C14H19NO9S2
RETENTIONTIME: 2.827433
IONMODE: Negative
Comment: registered in RIKEN PlaSMA
Num Peaks: 31
74.98901	84
76.98363	7
76.98812	10
79.95432	11
79.95987	9
85.02762	16
95.95119	250
96.95903	649
97.94746	7
97.95673	9
98.95493	58
101.02191	23
113.02788	5
119.03042	11
128.931	9
138.96985	18
145.05415	12
166.03198	127
167.0312	13
167.03693	8
168.02541	5
195.03032	29
195.04156	8
212.00117	18
240.99867	21
259.01132	98
260.01529	13
274.98859	40
276.99405	6
328.10498	6
408.04147	1000

NAME: Benzyl glucosinolate
PRECURSORMZ: 408.04284704783
PRECURSORTYPE: [M-H]-
INSTRUMENTTYPE: LC-ESI-QTOF
SMILES: OCC1OC(SC(CC2=CC=CC=C2)=NOS(O)(=O)=O)C(O)C(O)C1O
INCHIKEY: QQGLQYQXUKHWPX-UHFFFAOYNA-N
Ontology: Alkylglucosinolates
COLLISIONENERGY: 10
FORMULA: C14H19NO9S2
RETENTIONTIME: 2.827433
IONMODE: Negative
Comment: registered in RIKEN PlaSMA
Num Peaks: 13
74.98828	7
95.95128	25
96.95884	158
166.03224	34
195.03264	19
211.99989	20
214.98482	11
230.01048	7
241.00273	6
259.01331	28
274.98849	16
328.08585	7
408.04187	1000

NAME: Benzyl glucosinolate
PRECURSORMZ: 408.04284704783
PRECURSORTYPE: [M-H]-
INSTRUMENTTYPE: LC-ESI-QTOF
SMILES: OCC1OC(SC(CC2=CC=CC=C2)=NOS(O)(=O)=O)C(O)C(O)C1O
INCHIKEY: QQGLQYQXUKHWPX-UHFFFAOYNA-N
Ontology: Alkylglucosinolates
COLLISIONENERGY: 30
FORMULA: C14H19NO9S2
RETENTIONTIME: 2.827433
IONMODE: Negative
Comment: registered in RIKEN PlaSMA
Num Peaks: 42
59.01033	21
71.01695	8
74.99054	349
75.99348	9
76.98367	10
79.95693	50
80.96536	30
81.03509	7
85.02895	27
87.01104	6
89.02411	29
95.95191	638
96.95917	1000
97.0284	9
97.94714	11
97.95679	17
98.95502	57
98.9626	5
99.71467	5
101.01951	14
101.02528	36
111.92702	21
113.02414	10
128.93138	6
132.04488	36
138.96846	29
149.61852	8
150.06044	7
152.98465	6
153.01736	5
166.03203	145
167.03494	16
168.03235	9
168.04018	6
169.98245	5
198.99895	13
206.96693	6
213.99516	5
214.97923	6
240.9953	31
259.01215	12
274.9877	12

NAME: Benzyl glucosinolate
PRECURSORMZ: 408.04284704783
PRECURSORTYPE: [M-H]-
INSTRUMENTTYPE: LC-ESI-QTOF
SMILES: OCC1OC(SC(CC2=CC=CC=C2)=NOS(O)(=O)=O)C(O)C(O)C1O
INCHIKEY: QQGLQYQXUKHWPX-UHFFFAOYNA-N
Ontology: Alkylglucosinolates
COLLISIONENERGY: 50
FORMULA: C14H19NO9S2
RETENTIONTIME: 2.827433
IONMODE: Negative
Comment: registered in RIKEN PlaSMA
Num Peaks: 23
71.01569	16
73.0286	15
74.99023	310
77.97273	13
79.95409	24
79.95853	33
80.58669	27
80.96603	43
81.95413	14
95.95184	1000
96.95992	900
97.71492	12
97.94438	83
97.95381	15
98.95208	13
98.9577	14
99.95397	16
101.02377	36
128.92694	11
132.04288	21
150.01677	17
162.75558	12
166.03297	20

NAME: [6]-Gingerol
PRECURSORMZ: 293.17583284783
PRECURSORTYPE: [M-H]-
INSTRUMENTTYPE: LC-ESI-QTOF
SMILES: CCCCCC(O)CC(=O)CCC1=CC(OC)=C(O)C=C1
INCHIKEY: NLDDIKRKFXEWBK-UHFFFAOYNA-N
Ontology: Gingerols
COLLISIONENERGY: 10
FORMULA: C17H26O4
RETENTIONTIME: 7.4492
IONMODE: Negative
Comment: registered in RIKEN PlaSMA
Num Peaks: 9
57.03107	68
99.08086	1000
100.0795	80
175.03877	160
177.05534	80
193.08667	72
193.24594	76
194.0952	106
293.1723	532

NAME: [6]-Gingerol
PRECURSORMZ: 293.17583284783
PRECURSORTYPE: [M-H]-
INSTRUMENTTYPE: LC-ESI-QTOF
SMILES: CCCCCC(O)CC(=O)CCC1=CC(OC)=C(O)C=C1
INCHIKEY: NLDDIKRKFXEWBK-UHFFFAOYNA-N
Ontology: Gingerols
COLLISIONENERGY: 10
FORMULA: C17H26O4
RETENTIONTIME: 7.4492
IONMODE: Negative
Comment: registered in RIKEN PlaSMA
Num Peaks: 10
57.03449	35
99.07768	107
99.08195	291
138.0267	43
193.08452	568
194.08575	56
194.09521	58
275.16666	35
292.16309	58
293.17673	1000

NAME: [6]-Gingerol
PRECURSORMZ: 293.17583284783
PRECURSORTYPE: [M-H]-
INSTRUMENTTYPE: LC-ESI-QTOF
SMILES: CCCCCC(O)CC(=O)CCC1=CC(OC)=C(O)C=C1
INCHIKEY: NLDDIKRKFXEWBK-UHFFFAOYNA-N
Ontology: Gingerols
COLLISIONENERGY: 30
FORMULA: C17H26O4
RETENTIONTIME: 7.4492
IONMODE: Negative
Comment: registered in RIKEN PlaSMA
Num Peaks: 1
99.0815	1000

NAME: [6]-Gingerol
PRECURSORMZ: 293.17583284783
PRECURSORTYPE: [M-H]-
INSTRUMENTTYPE: LC-ESI-QTOF
SMILES: CCCCCC(O)CC(=O)CCC1=CC(OC)=C(O)C=C1
INCHIKEY: NLDDIKRKFXEWBK-UHFFFAOYNA-N
Ontology: Gingerols
COLLISIONENERGY: 50
FORMULA: C17H26O4
RETENTIONTIME: 7.4492
IONMODE: Negative
Comment: registered in RIKEN PlaSMA
Num Peaks: 1
57.03187	1000

NAME: [6]-Gingerol
PRECURSORMZ: 293.17583284783
PRECURSORTYPE: [M-H]-
INSTRUMENTTYPE: LC-ESI-QTOF
SMILES: CCCCCC(O)CC(=O)CCC1=CC(OC)=C(O)C=C1
INCHIKEY: NLDDIKRKFXEWBK-UHFFFAOYNA-N
Ontology: Gingerols
COLLISIONENERGY: 10
FORMULA: C17H26O4
RETENTIONTIME: 7.4492
IONMODE: Negative
Comment: registered in RIKEN PlaSMA
Num Peaks: 5
57.02943	324
99.07984	1000
193.07011	88
193.08226	495
293.18088	88

NAME: [6]-Gingerol
PRECURSORMZ: 293.17583284783
PRECURSORTYPE: [M-H]-
INSTRUMENTTYPE: LC-ESI-QTOF
SMILES: CCCCCC(O)CC(=O)CCC1=CC(OC)=C(O)C=C1
INCHIKEY: NLDDIKRKFXEWBK-UHFFFAOYNA-N
Ontology: Gingerols
COLLISIONENERGY: 10
FORMULA: C17H26O4
RETENTIONTIME: 7.4492
IONMODE: Negative
Comment: registered in RIKEN PlaSMA
Num Peaks: 9
99.07577	91
99.08173	325
100.08567	39
123.0433	75
193.08328	375
193.10399	37
194.08588	37
195.10083	41
293.1752	1000

NAME: [6]-Gingerol
PRECURSORMZ: 293.17583284783
PRECURSORTYPE: [M-H]-
INSTRUMENTTYPE: LC-ESI-QTOF
SMILES: CCCCCC(O)CC(=O)CCC1=CC(OC)=C(O)C=C1
INCHIKEY: NLDDIKRKFXEWBK-UHFFFAOYNA-N
Ontology: Gingerols
COLLISIONENERGY: 30
FORMULA: C17H26O4
RETENTIONTIME: 7.4492
IONMODE: Negative
Comment: registered in RIKEN PlaSMA
Num Peaks: 4
57.03144	597
99.0786	1000
148.05692	358
163.04126	313

NAME: [6]-Gingerol
PRECURSORMZ: 293.17583284783
PRECURSORTYPE: [M-H]-
INSTRUMENTTYPE: LC-ESI-QTOF
SMILES: CCCCCC(O)CC(=O)CCC1=CC(OC)=C(O)C=C1
INCHIKEY: NLDDIKRKFXEWBK-UHFFFAOYNA-N
Ontology: Gingerols
COLLISIONENERGY: 10
FORMULA: C17H26O4
RETENTIONTIME: 7.4492
IONMODE: Negative
Comment: registered in RIKEN PlaSMA
Num Peaks: 5
99.08068	1000
124.04835	169
135.04619	169
194.08891	177
293.17151	371

NAME: [6]-Gingerol
PRECURSORMZ: 293.17583284783
PRECURSORTYPE: [M-H]-
INSTRUMENTTYPE: LC-ESI-QTOF
SMILES: CCCCCC(O)CC(=O)CCC1=CC(OC)=C(O)C=C1
INCHIKEY: NLDDIKRKFXEWBK-UHFFFAOYNA-N
Ontology: Gingerols
COLLISIONENERGY: 10
FORMULA: C17H26O4
RETENTIONTIME: 7.4492
IONMODE: Negative
Comment: registered in RIKEN PlaSMA
Num Peaks: 11
57.03057	45
91.00124	41
99.07535	151
99.08091	394
178.05936	80
193.08315	262
193.09863	37
275.15643	41
291.11157	43
292.129	49
293.17514	1000

NAME: [6]-Gingerol
PRECURSORMZ: 293.17583284783
PRECURSORTYPE: [M-H]-
INSTRUMENTTYPE: LC-ESI-QTOF
SMILES: CCCCCC(O)CC(=O)CCC1=CC(OC)=C(O)C=C1
INCHIKEY: NLDDIKRKFXEWBK-UHFFFAOYNA-N
Ontology: Gingerols
COLLISIONENERGY: 30
FORMULA: C17H26O4
RETENTIONTIME: 7.4492
IONMODE: Negative
Comment: registered in RIKEN PlaSMA
Num Peaks: 1
99.08199	1000

NAME: [6]-Gingerol
PRECURSORMZ: 293.17583284783
PRECURSORTYPE: [M-H]-
INSTRUMENTTYPE: LC-ESI-QTOF
SMILES: CCCCCC(O)CC(=O)CCC1=CC(OC)=C(O)C=C1
INCHIKEY: NLDDIKRKFXEWBK-UHFFFAOYNA-N
Ontology: Gingerols
COLLISIONENERGY: 50
FORMULA: C17H26O4
RETENTIONTIME: 7.4492
IONMODE: Negative
Comment: registered in RIKEN PlaSMA
Num Peaks: 1
137.00063	1000

NAME: Atractylenolide III
PRECURSORMZ: 247.13396804783
PRECURSORTYPE: [M-H]-
INSTRUMENTTYPE: LC-ESI-QTOF
SMILES: CC1=C2CC3C(=C)CCCC3(C)CC2(O)OC1=O
INCHIKEY: FBMORZZOJSDNRQ-UHFFFAOYNA-N
Ontology: Eudesmanolides, secoeudesmanolides, and derivatives
COLLISIONENERGY: 10
FORMULA: C15H20O3
RETENTIONTIME: 7.90965
IONMODE: Negative
Comment: registered in RIKEN PlaSMA
Num Peaks: 14
95.0463	16
113.50696	19
172.09074	16
185.10341	18
185.12262	25
187.1124	60
188.10982	21
188.11893	16
201.13559	22
201.58844	25
203.14207	748
204.14601	83
204.15617	24
247.13116	1000

NAME: Atractylenolide III
PRECURSORMZ: 247.13396804783
PRECURSORTYPE: [M-H]-
INSTRUMENTTYPE: LC-ESI-QTOF
SMILES: CC1=C2CC3C(=C)CCCC3(C)CC2(O)OC1=O
INCHIKEY: FBMORZZOJSDNRQ-UHFFFAOYNA-N
Ontology: Eudesmanolides, secoeudesmanolides, and derivatives
COLLISIONENERGY: 10
FORMULA: C15H20O3
RETENTIONTIME: 7.90965
IONMODE: Negative
Comment: registered in RIKEN PlaSMA
Num Peaks: 13
105.18627	7
163.11034	9
175.14413	6
187.11664	7
203.14349	253
203.16151	6
203.18497	6
204.14499	34
205.12248	7
229.12717	7
230.14517	7
242.78835	6
247.13371	1000

NAME: Atractylenolide III
PRECURSORMZ: 247.13396804783
PRECURSORTYPE: [M-H]-
INSTRUMENTTYPE: LC-ESI-QTOF
SMILES: CC1=C2CC3C(=C)CCCC3(C)CC2(O)OC1=O
INCHIKEY: FBMORZZOJSDNRQ-UHFFFAOYNA-N
Ontology: Eudesmanolides, secoeudesmanolides, and derivatives
COLLISIONENERGY: 30
FORMULA: C15H20O3
RETENTIONTIME: 7.90965
IONMODE: Negative
Comment: registered in RIKEN PlaSMA
Num Peaks: 18
83.04668	558
84.04913	130
93.03087	123
123.07873	117
135.07848	130
135.62691	130
150.09224	143
158.07393	117
170.07368	143
185.09779	383
185.13615	117
186.10428	130
187.108	234
187.11592	1000
188.11499	169
201.1348	208
203.13704	260
247.13319	162

NAME: Atractylenolide III
PRECURSORMZ: 247.13396804783
PRECURSORTYPE: [M-H]-
INSTRUMENTTYPE: LC-ESI-QTOF
SMILES: CC1=C2CC3C(=C)CCCC3(C)CC2(O)OC1=O
INCHIKEY: FBMORZZOJSDNRQ-UHFFFAOYNA-N
Ontology: Eudesmanolides, secoeudesmanolides, and derivatives
COLLISIONENERGY: 50
FORMULA: C15H20O3
RETENTIONTIME: 7.90965
IONMODE: Negative
Comment: registered in RIKEN PlaSMA
Num Peaks: 1
133.05972	1000

NAME: Atractylenolide III
PRECURSORMZ: 247.13396804783
PRECURSORTYPE: [M-H]-
INSTRUMENTTYPE: LC-ESI-QTOF
SMILES: CC1=C2CC3C(=C)CCCC3(C)CC2(O)OC1=O
INCHIKEY: FBMORZZOJSDNRQ-UHFFFAOYNA-N
Ontology: Eudesmanolides, secoeudesmanolides, and derivatives
COLLISIONENERGY: 10
FORMULA: C15H20O3
RETENTIONTIME: 7.90965
IONMODE: Negative
Comment: registered in RIKEN PlaSMA
Num Peaks: 14
80.03081	15
95.06264	16
169.06361	15
175.08052	21
185.13081	18
187.10556	22
187.11549	35
187.14386	23
188.11368	17
201.13052	15
203.14253	591
204.14761	72
229.117	16
247.13145	1000

NAME: Atractylenolide III
PRECURSORMZ: 247.13396804783
PRECURSORTYPE: [M-H]-
INSTRUMENTTYPE: LC-ESI-QTOF
SMILES: CC1=C2CC3C(=C)CCCC3(C)CC2(O)OC1=O
INCHIKEY: FBMORZZOJSDNRQ-UHFFFAOYNA-N
Ontology: Eudesmanolides, secoeudesmanolides, and derivatives
COLLISIONENERGY: 10
FORMULA: C15H20O3
RETENTIONTIME: 7.90965
IONMODE: Negative
Comment: registered in RIKEN PlaSMA
Num Peaks: 11
83.04671	5
175.11169	5
187.11757	11
203.14188	269
204.07054	7
204.14587	9
208.81113	6
213.08963	6
229.12651	6
231.12289	7
247.13206	1000

NAME: Atractylenolide III
PRECURSORMZ: 247.13396804783
PRECURSORTYPE: [M-H]-
INSTRUMENTTYPE: LC-ESI-QTOF
SMILES: CC1=C2CC3C(=C)CCCC3(C)CC2(O)OC1=O
INCHIKEY: FBMORZZOJSDNRQ-UHFFFAOYNA-N
Ontology: Eudesmanolides, secoeudesmanolides, and derivatives
COLLISIONENERGY: 30
FORMULA: C15H20O3
RETENTIONTIME: 7.90965
IONMODE: Negative
Comment: registered in RIKEN PlaSMA
Num Peaks: 20
83.04837	250
84.0556	114
95.04506	108
95.05315	119
131.08755	114
132.05779	114
147.07529	119
156.05753	102
159.07953	142
163.1048	142
167.32202	102
169.10201	102
185.09526	125
187.11295	1000
199.11089	114
201.1268	193
202.13435	108
203.13835	239
203.14943	233
204.14032	125

NAME: Atractylenolide III
PRECURSORMZ: 247.13396804783
PRECURSORTYPE: [M-H]-
INSTRUMENTTYPE: LC-ESI-QTOF
SMILES: CC1=C2CC3C(=C)CCCC3(C)CC2(O)OC1=O
INCHIKEY: FBMORZZOJSDNRQ-UHFFFAOYNA-N
Ontology: Eudesmanolides, secoeudesmanolides, and derivatives
COLLISIONENERGY: 50
FORMULA: C15H20O3
RETENTIONTIME: 7.90965
IONMODE: Negative
Comment: registered in RIKEN PlaSMA
Num Peaks: 2
169.06577	848
172.08798	1000

NAME: Atractylenolide III
PRECURSORMZ: 247.13396804783
PRECURSORTYPE: [M-H]-
INSTRUMENTTYPE: LC-ESI-QTOF
SMILES: CC1=C2CC3C(=C)CCCC3(C)CC2(O)OC1=O
INCHIKEY: FBMORZZOJSDNRQ-UHFFFAOYNA-N
Ontology: Eudesmanolides, secoeudesmanolides, and derivatives
COLLISIONENERGY: 10
FORMULA: C15H20O3
RETENTIONTIME: 7.90965
IONMODE: Negative
Comment: registered in RIKEN PlaSMA
Num Peaks: 19
83.05202	75
147.08409	36
148.088	16
149.10141	16
150.00821	16
161.07352	16
161.12802	14
187.10268	14
187.1142	70
201.12656	16
202.12851	16
202.79588	17
203.14294	907
204.15109	130
204.20151	16
205.15247	16
214.10393	17
247.02177	14
247.13327	1000

NAME: Atractylenolide III
PRECURSORMZ: 247.13396804783
PRECURSORTYPE: [M-H]-
INSTRUMENTTYPE: LC-ESI-QTOF
SMILES: CC1=C2CC3C(=C)CCCC3(C)CC2(O)OC1=O
INCHIKEY: FBMORZZOJSDNRQ-UHFFFAOYNA-N
Ontology: Eudesmanolides, secoeudesmanolides, and derivatives
COLLISIONENERGY: 10
FORMULA: C15H20O3
RETENTIONTIME: 7.90965
IONMODE: Negative
Comment: registered in RIKEN PlaSMA
Num Peaks: 7
83.04992	8
106.58623	5
109.0602	5
203.14281	209
204.1445	32
205.15373	6
247.13216	1000

NAME: Atractylenolide III
PRECURSORMZ: 247.13396804783
PRECURSORTYPE: [M-H]-
INSTRUMENTTYPE: LC-ESI-QTOF
SMILES: CC1=C2CC3C(=C)CCCC3(C)CC2(O)OC1=O
INCHIKEY: FBMORZZOJSDNRQ-UHFFFAOYNA-N
Ontology: Eudesmanolides, secoeudesmanolides, and derivatives
COLLISIONENERGY: 30
FORMULA: C15H20O3
RETENTIONTIME: 7.90965
IONMODE: Negative
Comment: registered in RIKEN PlaSMA
Num Peaks: 22
83.04865	179
95.0508	126
106.07053	55
119.04453	55
120.05611	129
121.06875	60
135.07906	52
146.06635	49
147.07921	69
147.89668	55
148.08112	55
163.10272	63
185.09552	181
185.10324	110
187.11378	1000
188.11246	129
188.12207	52
201.13643	63
203.13188	58
203.14337	319
213.09087	55
229.12904	55

NAME: Atractylenolide III
PRECURSORMZ: 247.13396804783
PRECURSORTYPE: [M-H]-
INSTRUMENTTYPE: LC-ESI-QTOF
SMILES: CC1=C2CC3C(=C)CCCC3(C)CC2(O)OC1=O
INCHIKEY: FBMORZZOJSDNRQ-UHFFFAOYNA-N
Ontology: Eudesmanolides, secoeudesmanolides, and derivatives
COLLISIONENERGY: 50
FORMULA: C15H20O3
RETENTIONTIME: 7.90965
IONMODE: Negative
Comment: registered in RIKEN PlaSMA
Num Peaks: 3
135.08313	1000
145.06364	375
159.08398	357

NAME: Arbutin
PRECURSORMZ: 271.08232644783
PRECURSORTYPE: [M-H]-
INSTRUMENTTYPE: LC-ESI-QTOF
SMILES: OCC1OC(OC2=CC=C(O)C=C2)C(O)C(O)C1O
INCHIKEY: BJRNKVDFDLYUGJ-UHFFFAOYNA-N
Ontology: Phenolic glycosides
COLLISIONENERGY: 10
FORMULA: C12H16O7
RETENTIONTIME: 1.877767
IONMODE: Negative
Comment: registered in RIKEN PlaSMA
Num Peaks: 16
71.01529	72
95.0028	33
97.02673	50
101.02045	31
107.50787	31
108.02068	1000
109.02505	188
109.03259	79
113.02501	74
122.02936	41
123.04588	72
136.03966	33
159.01741	34
161.0367	78
161.04515	214
271.07532	47

NAME: Arbutin
PRECURSORMZ: 317.08780575183
PRECURSORTYPE: [M+FA-H]-
INSTRUMENTTYPE: LC-ESI-QTOF
SMILES: OCC1OC(OC2=CC=C(O)C=C2)C(O)C(O)C1O
INCHIKEY: BJRNKVDFDLYUGJ-UHFFFAOYNA-N
Ontology: Phenolic glycosides
COLLISIONENERGY: 10
FORMULA: C12H16O7
RETENTIONTIME: 1.877767
IONMODE: Negative
Comment: registered in RIKEN PlaSMA
Num Peaks: 18
85.02745	92
95.69082	80
97.02998	80
108.0186	193
108.02544	88
109.0215	80
109.03436	80
113.02359	72
143.0327	72
151.03836	72
160.02582	72
161.04567	570
163.04611	100
270.08487	76
271.08133	1000
272.08899	72
317.0705	72
317.08582	153

NAME: Arbutin
PRECURSORMZ: 271.08232644783
PRECURSORTYPE: [M-H]-
INSTRUMENTTYPE: LC-ESI-QTOF
SMILES: OCC1OC(OC2=CC=C(O)C=C2)C(O)C(O)C1O
INCHIKEY: BJRNKVDFDLYUGJ-UHFFFAOYNA-N
Ontology: Phenolic glycosides
COLLISIONENERGY: 10
FORMULA: C12H16O7
RETENTIONTIME: 1.877767
IONMODE: Negative
Comment: registered in RIKEN PlaSMA
Num Peaks: 24
71.01127	29
73.02718	92
89.02277	30
96.02314	30
99.00928	45
101.02036	243
108.01817	177
108.02411	290
109.02694	272
109.03169	77
113.01859	57
113.02716	59
120.24261	41
121.03435	35
125.02293	41
143.03265	36
151.03607	198
151.04402	33
161.04317	1000
162.04973	35
163.03596	66
202.50194	30
271.07404	123
271.08807	35

NAME: Arbutin
PRECURSORMZ: 317.08780575183
PRECURSORTYPE: [M+FA-H]-
INSTRUMENTTYPE: LC-ESI-QTOF
SMILES: OCC1OC(OC2=CC=C(O)C=C2)C(O)C(O)C1O
INCHIKEY: BJRNKVDFDLYUGJ-UHFFFAOYNA-N
Ontology: Phenolic glycosides
COLLISIONENERGY: 10
FORMULA: C12H16O7
RETENTIONTIME: 1.877767
IONMODE: Negative
Comment: registered in RIKEN PlaSMA
Num Peaks: 14
71.01324	26
73.0321	28
101.02218	24
109.03167	22
159.02855	22
161.04218	348
161.04991	115
162.05466	24
194.05379	28
271.08151	1000
271.44559	25
272.08511	145
272.10165	24
317.09	326

NAME: Arbutin
PRECURSORMZ: 271.08232644783
PRECURSORTYPE: [M-H]-
INSTRUMENTTYPE: LC-ESI-QTOF
SMILES: OCC1OC(OC2=CC=C(O)C=C2)C(O)C(O)C1O
INCHIKEY: BJRNKVDFDLYUGJ-UHFFFAOYNA-N
Ontology: Phenolic glycosides
COLLISIONENERGY: 30
FORMULA: C12H16O7
RETENTIONTIME: 1.877767
IONMODE: Negative
Comment: registered in RIKEN PlaSMA
Num Peaks: 8
85.02964	28
108.02081	1000
109.02023	23
109.02917	107
109.03725	25
119.04488	25
123.03625	40
134.03464	22

NAME: Arbutin
PRECURSORMZ: 317.08780575183
PRECURSORTYPE: [M+FA-H]-
INSTRUMENTTYPE: LC-ESI-QTOF
SMILES: OCC1OC(OC2=CC=C(O)C=C2)C(O)C(O)C1O
INCHIKEY: BJRNKVDFDLYUGJ-UHFFFAOYNA-N
Ontology: Phenolic glycosides
COLLISIONENERGY: 30
FORMULA: C12H16O7
RETENTIONTIME: 1.877767
IONMODE: Negative
Comment: registered in RIKEN PlaSMA
Num Peaks: 3
108.01971	1000
109.02456	72
109.03261	72

NAME: Arbutin
PRECURSORMZ: 271.08232644783
PRECURSORTYPE: [M-H]-
INSTRUMENTTYPE: LC-ESI-QTOF
SMILES: OCC1OC(OC2=CC=C(O)C=C2)C(O)C(O)C1O
INCHIKEY: BJRNKVDFDLYUGJ-UHFFFAOYNA-N
Ontology: Phenolic glycosides
COLLISIONENERGY: 50
FORMULA: C12H16O7
RETENTIONTIME: 1.877767
IONMODE: Negative
Comment: registered in RIKEN PlaSMA
Num Peaks: 2
108.02077	1000
109.01894	110

NAME: Arbutin
PRECURSORMZ: 317.08780575183
PRECURSORTYPE: [M+FA-H]-
INSTRUMENTTYPE: LC-ESI-QTOF
SMILES: OCC1OC(OC2=CC=C(O)C=C2)C(O)C(O)C1O
INCHIKEY: BJRNKVDFDLYUGJ-UHFFFAOYNA-N
Ontology: Phenolic glycosides
COLLISIONENERGY: 50
FORMULA: C12H16O7
RETENTIONTIME: 1.877767
IONMODE: Negative
Comment: registered in RIKEN PlaSMA
Num Peaks: 3
71.01201	119
93.007	124
108.0209	1000

NAME: Arbutin
PRECURSORMZ: 271.08232644783
PRECURSORTYPE: [M-H]-
INSTRUMENTTYPE: LC-ESI-QTOF
SMILES: OCC1OC(OC2=CC=C(O)C=C2)C(O)C(O)C1O
INCHIKEY: BJRNKVDFDLYUGJ-UHFFFAOYNA-N
Ontology: Phenolic glycosides
COLLISIONENERGY: 10
FORMULA: C12H16O7
RETENTIONTIME: 1.877767
IONMODE: Negative
Comment: registered in RIKEN PlaSMA
Num Peaks: 18
71.01085	100
85.02501	45
85.03267	64
99.00445	38
101.02541	155
108.02012	1000
109.01778	53
109.02601	187
113.01846	40
113.02639	200
123.05006	45
143.03168	49
151.0352	49
151.04141	83
159.02609	83
161.04727	352
193.05937	40
271.08804	40

NAME: Arbutin
PRECURSORMZ: 317.08780575183
PRECURSORTYPE: [M+FA-H]-
INSTRUMENTTYPE: LC-ESI-QTOF
SMILES: OCC1OC(OC2=CC=C(O)C=C2)C(O)C(O)C1O
INCHIKEY: BJRNKVDFDLYUGJ-UHFFFAOYNA-N
Ontology: Phenolic glycosides
COLLISIONENERGY: 10
FORMULA: C12H16O7
RETENTIONTIME: 1.877767
IONMODE: Negative
Comment: registered in RIKEN PlaSMA
Num Peaks: 14
73.02756	94
108.02327	566
109.0265	86
109.03302	146
113.02272	71
133.02748	67
135.04352	109
151.03497	82
151.04129	116
152.04858	75
161.04399	206
271.07965	1000
272.08755	71
317.09973	75

NAME: Arbutin
PRECURSORMZ: 271.08232644783
PRECURSORTYPE: [M-H]-
INSTRUMENTTYPE: LC-ESI-QTOF
SMILES: OCC1OC(OC2=CC=C(O)C=C2)C(O)C(O)C1O
INCHIKEY: BJRNKVDFDLYUGJ-UHFFFAOYNA-N
Ontology: Phenolic glycosides
COLLISIONENERGY: 10
FORMULA: C12H16O7
RETENTIONTIME: 1.877767
IONMODE: Negative
Comment: registered in RIKEN PlaSMA
Num Peaks: 23
71.01379	39
73.02576	37
85.02961	27
89.02892	39
99.00648	31
101.02455	209
108.01554	132
108.02032	307
109.02747	422
109.03192	160
110.02425	37
113.02354	129
121.02375	30
129.01501	28
143.03503	30
151.03853	210
159.02577	98
159.03369	33
161.04553	1000
162.04295	71
163.04134	83
193.04778	28
271.08334	157

NAME: Arbutin
PRECURSORMZ: 317.08780575183
PRECURSORTYPE: [M+FA-H]-
INSTRUMENTTYPE: LC-ESI-QTOF
SMILES: OCC1OC(OC2=CC=C(O)C=C2)C(O)C(O)C1O
INCHIKEY: BJRNKVDFDLYUGJ-UHFFFAOYNA-N
Ontology: Phenolic glycosides
COLLISIONENERGY: 10
FORMULA: C12H16O7
RETENTIONTIME: 1.877767
IONMODE: Negative
Comment: registered in RIKEN PlaSMA
Num Peaks: 14
101.02127	22
109.02467	26
109.03022	49
113.02229	29
151.04164	20
161.04376	174
161.05176	182
163.05846	20
271.08249	1000
272.07693	30
276.996	28
317.07867	170
317.09375	88
317.10941	30

NAME: Arbutin
PRECURSORMZ: 271.08232644783
PRECURSORTYPE: [M-H]-
INSTRUMENTTYPE: LC-ESI-QTOF
SMILES: OCC1OC(OC2=CC=C(O)C=C2)C(O)C(O)C1O
INCHIKEY: BJRNKVDFDLYUGJ-UHFFFAOYNA-N
Ontology: Phenolic glycosides
COLLISIONENERGY: 30
FORMULA: C12H16O7
RETENTIONTIME: 1.877767
IONMODE: Negative
Comment: registered in RIKEN PlaSMA
Num Peaks: 5
85.02974	31
108.02006	1000
109.02859	123
122.03448	41
145.02283	27

NAME: Arbutin
PRECURSORMZ: 317.08780575183
PRECURSORTYPE: [M+FA-H]-
INSTRUMENTTYPE: LC-ESI-QTOF
SMILES: OCC1OC(OC2=CC=C(O)C=C2)C(O)C(O)C1O
INCHIKEY: BJRNKVDFDLYUGJ-UHFFFAOYNA-N
Ontology: Phenolic glycosides
COLLISIONENERGY: 30
FORMULA: C12H16O7
RETENTIONTIME: 1.877767
IONMODE: Negative
Comment: registered in RIKEN PlaSMA
Num Peaks: 3
108.01945	1000
108.03027	201
109.02252	88

NAME: Arbutin
PRECURSORMZ: 271.08232644783
PRECURSORTYPE: [M-H]-
INSTRUMENTTYPE: LC-ESI-QTOF
SMILES: OCC1OC(OC2=CC=C(O)C=C2)C(O)C(O)C1O
INCHIKEY: BJRNKVDFDLYUGJ-UHFFFAOYNA-N
Ontology: Phenolic glycosides
COLLISIONENERGY: 50
FORMULA: C12H16O7
RETENTIONTIME: 1.877767
IONMODE: Negative
Comment: registered in RIKEN PlaSMA
Num Peaks: 1
108.01688	1000

NAME: Arbutin
PRECURSORMZ: 317.08780575183
PRECURSORTYPE: [M+FA-H]-
INSTRUMENTTYPE: LC-ESI-QTOF
SMILES: OCC1OC(OC2=CC=C(O)C=C2)C(O)C(O)C1O
INCHIKEY: BJRNKVDFDLYUGJ-UHFFFAOYNA-N
Ontology: Phenolic glycosides
COLLISIONENERGY: 50
FORMULA: C12H16O7
RETENTIONTIME: 1.877767
IONMODE: Negative
Comment: registered in RIKEN PlaSMA
Num Peaks: 2
107.67645	191
108.02107	1000

NAME: Arbutin
PRECURSORMZ: 271.08232644783
PRECURSORTYPE: [M-H]-
INSTRUMENTTYPE: LC-ESI-QTOF
SMILES: OCC1OC(OC2=CC=C(O)C=C2)C(O)C(O)C1O
INCHIKEY: BJRNKVDFDLYUGJ-UHFFFAOYNA-N
Ontology: Phenolic glycosides
COLLISIONENERGY: 10
FORMULA: C12H16O7
RETENTIONTIME: 1.877767
IONMODE: Negative
Comment: registered in RIKEN PlaSMA
Num Peaks: 21
71.01408	134
73.0171	38
73.02826	81
85.02811	30
89.02171	48
97.02892	68
102.0257	33
108.0206	1000
109.02912	421
113.02298	163
114.02808	100
115.0238	30
123.04404	70
143.04019	41
151.03757	30
159.02643	30
159.0361	35
160.03539	40
161.04443	365
271.07886	63
271.09509	30

NAME: Arbutin
PRECURSORMZ: 317.08780575183
PRECURSORTYPE: [M+FA-H]-
INSTRUMENTTYPE: LC-ESI-QTOF
SMILES: OCC1OC(OC2=CC=C(O)C=C2)C(O)C(O)C1O
INCHIKEY: BJRNKVDFDLYUGJ-UHFFFAOYNA-N
Ontology: Phenolic glycosides
COLLISIONENERGY: 10
FORMULA: C12H16O7
RETENTIONTIME: 1.877767
IONMODE: Negative
Comment: registered in RIKEN PlaSMA
Num Peaks: 15
71.01374	78
71.01819	134
101.02461	111
108.02239	650
109.02264	97
109.0273	115
151.04077	166
161.04489	876
162.04082	83
193.04938	83
271.07458	567
271.08466	1000
272.0899	92
317.07874	115
317.09064	83

NAME: Arbutin
PRECURSORMZ: 271.08232644783
PRECURSORTYPE: [M-H]-
INSTRUMENTTYPE: LC-ESI-QTOF
SMILES: OCC1OC(OC2=CC=C(O)C=C2)C(O)C(O)C1O
INCHIKEY: BJRNKVDFDLYUGJ-UHFFFAOYNA-N
Ontology: Phenolic glycosides
COLLISIONENERGY: 10
FORMULA: C12H16O7
RETENTIONTIME: 1.877767
IONMODE: Negative
Comment: registered in RIKEN PlaSMA
Num Peaks: 25
71.01107	112
73.02599	54
81.03374	26
85.029	54
89.02319	22
97.0293	61
99.00578	56
100.01098	27
101.02348	158
107.05137	32
108.01959	294
109.02914	249
110.02184	26
113.02389	74
114.03384	25
121.03034	31
125.02573	24
151.02869	40
151.03946	107
159.03052	94
161.04518	1000
162.03922	24
162.04875	100
163.03181	39
271.08731	103

NAME: Arbutin
PRECURSORMZ: 317.08780575183
PRECURSORTYPE: [M+FA-H]-
INSTRUMENTTYPE: LC-ESI-QTOF
SMILES: OCC1OC(OC2=CC=C(O)C=C2)C(O)C(O)C1O
INCHIKEY: BJRNKVDFDLYUGJ-UHFFFAOYNA-N
Ontology: Phenolic glycosides
COLLISIONENERGY: 10
FORMULA: C12H16O7
RETENTIONTIME: 1.877767
IONMODE: Negative
Comment: registered in RIKEN PlaSMA
Num Peaks: 12
97.03289	33
101.02375	21
109.0274	19
161.04314	370
162.04887	20
270.62784	17
271.08203	1000
272.08521	166
273.08304	38
316.86908	20
317.08395	122
317.11426	34

NAME: Arbutin
PRECURSORMZ: 271.08232644783
PRECURSORTYPE: [M-H]-
INSTRUMENTTYPE: LC-ESI-QTOF
SMILES: OCC1OC(OC2=CC=C(O)C=C2)C(O)C(O)C1O
INCHIKEY: BJRNKVDFDLYUGJ-UHFFFAOYNA-N
Ontology: Phenolic glycosides
COLLISIONENERGY: 30
FORMULA: C12H16O7
RETENTIONTIME: 1.877767
IONMODE: Negative
Comment: registered in RIKEN PlaSMA
Num Peaks: 10
108.02	1000
109.01641	17
109.02396	143
109.48315	17
110.02339	16
110.03249	18
122.03182	27
133.03383	19
134.03799	22
146.03041	18

NAME: Arbutin
PRECURSORMZ: 317.08780575183
PRECURSORTYPE: [M+FA-H]-
INSTRUMENTTYPE: LC-ESI-QTOF
SMILES: OCC1OC(OC2=CC=C(O)C=C2)C(O)C(O)C1O
INCHIKEY: BJRNKVDFDLYUGJ-UHFFFAOYNA-N
Ontology: Phenolic glycosides
COLLISIONENERGY: 30
FORMULA: C12H16O7
RETENTIONTIME: 1.877767
IONMODE: Negative
Comment: registered in RIKEN PlaSMA
Num Peaks: 8
71.01144	73
108.01842	1000
109.01857	66
109.03187	148
123.0437	57
134.03912	63
153.0137	57
163.04385	60

NAME: Arbutin
PRECURSORMZ: 271.08232644783
PRECURSORTYPE: [M-H]-
INSTRUMENTTYPE: LC-ESI-QTOF
SMILES: OCC1OC(OC2=CC=C(O)C=C2)C(O)C(O)C1O
INCHIKEY: BJRNKVDFDLYUGJ-UHFFFAOYNA-N
Ontology: Phenolic glycosides
COLLISIONENERGY: 50
FORMULA: C12H16O7
RETENTIONTIME: 1.877767
IONMODE: Negative
Comment: registered in RIKEN PlaSMA
Num Peaks: 1
108.02161	1000

NAME: Arbutin
PRECURSORMZ: 317.08780575183
PRECURSORTYPE: [M+FA-H]-
INSTRUMENTTYPE: LC-ESI-QTOF
SMILES: OCC1OC(OC2=CC=C(O)C=C2)C(O)C(O)C1O
INCHIKEY: BJRNKVDFDLYUGJ-UHFFFAOYNA-N
Ontology: Phenolic glycosides
COLLISIONENERGY: 50
FORMULA: C12H16O7
RETENTIONTIME: 1.877767
IONMODE: Negative
Comment: registered in RIKEN PlaSMA
Num Peaks: 1
108.02248	1000

NAME: Geniposide
PRECURSORMZ: 387.12967054783
PRECURSORTYPE: [M-H]-
INSTRUMENTTYPE: LC-ESI-QTOF
SMILES: COC(=O)C1=COC(OC2OC(CO)C(O)C(O)C2O)C2C1CC=C2CO
INCHIKEY: IBFYXTRXDNAPMM-UHFFFAOYNA-N
Ontology: Iridoid O-glycosides
COLLISIONENERGY: 10
FORMULA: C17H24O10
RETENTIONTIME: 3.41625
IONMODE: Negative
Comment: registered in RIKEN PlaSMA
Num Peaks: 8
71.01537	93
101.02341	202
123.04398	321
147.04178	61
148.0435	96
156.47786	67
207.07484	58
225.07303	1000

NAME: Geniposide
PRECURSORMZ: 433.13514985183
PRECURSORTYPE: [M+FA-H]-
INSTRUMENTTYPE: LC-ESI-QTOF
SMILES: COC(=O)C1=COC(OC2OC(CO)C(O)C(O)C2O)C2C1CC=C2CO
INCHIKEY: IBFYXTRXDNAPMM-UHFFFAOYNA-N
Ontology: Iridoid O-glycosides
COLLISIONENERGY: 10
FORMULA: C17H24O10
RETENTIONTIME: 3.41625
IONMODE: Negative
Comment: registered in RIKEN PlaSMA
Num Peaks: 18
101.02484	122
123.04576	221
141.75471	8
143.02881	10
143.06964	8
147.04102	7
207.06732	66
208.05588	12
208.06734	8
225.07611	1000
225.97479	7
226.07721	103
240.5228	13
244.38074	7
387.11661	36
387.13361	55
388.12622	22
433.13364	289

NAME: Geniposide
PRECURSORMZ: 387.12967054783
PRECURSORTYPE: [M-H]-
INSTRUMENTTYPE: LC-ESI-QTOF
SMILES: COC(=O)C1=COC(OC2OC(CO)C(O)C(O)C2O)C2C1CC=C2CO
INCHIKEY: IBFYXTRXDNAPMM-UHFFFAOYNA-N
Ontology: Iridoid O-glycosides
COLLISIONENERGY: 10
FORMULA: C17H24O10
RETENTIONTIME: 3.41625
IONMODE: Negative
Comment: registered in RIKEN PlaSMA
Num Peaks: 11
101.02249	53
123.03912	46
123.04576	143
124.03835	12
208.06866	25
225.07562	1000
226.07741	56
227.06432	12
227.07553	13
355.11417	14
387.1225	39

NAME: Geniposide
PRECURSORMZ: 433.13514985183
PRECURSORTYPE: [M+FA-H]-
INSTRUMENTTYPE: LC-ESI-QTOF
SMILES: COC(=O)C1=COC(OC2OC(CO)C(O)C(O)C2O)C2C1CC=C2CO
INCHIKEY: IBFYXTRXDNAPMM-UHFFFAOYNA-N
Ontology: Iridoid O-glycosides
COLLISIONENERGY: 10
FORMULA: C17H24O10
RETENTIONTIME: 3.41625
IONMODE: Negative
Comment: registered in RIKEN PlaSMA
Num Peaks: 10
123.04294	20
225.05531	9
225.07539	944
226.0779	94
227.08658	8
387.12903	207
388.11307	7
388.13425	46
389.12985	8
433.13354	1000

NAME: Geniposide
PRECURSORMZ: 387.12967054783
PRECURSORTYPE: [M-H]-
INSTRUMENTTYPE: LC-ESI-QTOF
SMILES: COC(=O)C1=COC(OC2OC(CO)C(O)C(O)C2O)C2C1CC=C2CO
INCHIKEY: IBFYXTRXDNAPMM-UHFFFAOYNA-N
Ontology: Iridoid O-glycosides
COLLISIONENERGY: 30
FORMULA: C17H24O10
RETENTIONTIME: 3.41625
IONMODE: Negative
Comment: registered in RIKEN PlaSMA
Num Peaks: 18
68.99503	53
77.99904	61
99.04464	53
101.02252	1000
103.03055	48
111.00459	45
119.05447	51
123.03664	56
123.04628	184
123.0514	56
131.04286	45
133.02608	83
136.05135	45
147.03999	273
148.04509	56
175.04247	51
207.0518	45
207.06657	93

NAME: Geniposide
PRECURSORMZ: 433.13514985183
PRECURSORTYPE: [M+FA-H]-
INSTRUMENTTYPE: LC-ESI-QTOF
SMILES: COC(=O)C1=COC(OC2OC(CO)C(O)C(O)C2O)C2C1CC=C2CO
INCHIKEY: IBFYXTRXDNAPMM-UHFFFAOYNA-N
Ontology: Iridoid O-glycosides
COLLISIONENERGY: 30
FORMULA: C17H24O10
RETENTIONTIME: 3.41625
IONMODE: Negative
Comment: registered in RIKEN PlaSMA
Num Peaks: 16
68.99422	15
101.02271	1000
105.03628	17
123.04394	610
124.04736	48
125.0405	35
131.04939	38
133.03072	20
147.0439	60
193.04245	19
207.06355	155
207.08647	16
208.0601	16
209.07172	16
225.07481	85
226.08534	17

NAME: Geniposide
PRECURSORMZ: 387.12967054783
PRECURSORTYPE: [M-H]-
INSTRUMENTTYPE: LC-ESI-QTOF
SMILES: COC(=O)C1=COC(OC2OC(CO)C(O)C(O)C2O)C2C1CC=C2CO
INCHIKEY: IBFYXTRXDNAPMM-UHFFFAOYNA-N
Ontology: Iridoid O-glycosides
COLLISIONENERGY: 50
FORMULA: C17H24O10
RETENTIONTIME: 3.41625
IONMODE: Negative
Comment: registered in RIKEN PlaSMA
Num Peaks: 6
68.99635	240
101.01984	1000
102.02202	253
103.05917	267
105.03776	267
133.02989	333

NAME: Geniposide
PRECURSORMZ: 433.13514985183
PRECURSORTYPE: [M+FA-H]-
INSTRUMENTTYPE: LC-ESI-QTOF
SMILES: COC(=O)C1=COC(OC2OC(CO)C(O)C(O)C2O)C2C1CC=C2CO
INCHIKEY: IBFYXTRXDNAPMM-UHFFFAOYNA-N
Ontology: Iridoid O-glycosides
COLLISIONENERGY: 50
FORMULA: C17H24O10
RETENTIONTIME: 3.41625
IONMODE: Negative
Comment: registered in RIKEN PlaSMA
Num Peaks: 15
68.99508	165
70.00099	92
101.02221	298
101.02791	211
102.03007	87
103.05275	87
105.03927	83
111.00018	156
123.03964	243
131.05145	83
147.04465	1000
148.0526	197
175.04556	87
225.08118	92
433.12949	174

NAME: Geniposide
PRECURSORMZ: 387.12967054783
PRECURSORTYPE: [M-H]-
INSTRUMENTTYPE: LC-ESI-QTOF
SMILES: COC(=O)C1=COC(OC2OC(CO)C(O)C(O)C2O)C2C1CC=C2CO
INCHIKEY: IBFYXTRXDNAPMM-UHFFFAOYNA-N
Ontology: Iridoid O-glycosides
COLLISIONENERGY: 10
FORMULA: C17H24O10
RETENTIONTIME: 3.41625
IONMODE: Negative
Comment: registered in RIKEN PlaSMA
Num Peaks: 8
101.02121	389
123.04558	639
133.86859	56
207.06473	136
225.07378	1000
225.09024	48
226.07855	119
387.12347	45

NAME: Geniposide
PRECURSORMZ: 433.13514985183
PRECURSORTYPE: [M+FA-H]-
INSTRUMENTTYPE: LC-ESI-QTOF
SMILES: COC(=O)C1=COC(OC2OC(CO)C(O)C(O)C2O)C2C1CC=C2CO
INCHIKEY: IBFYXTRXDNAPMM-UHFFFAOYNA-N
Ontology: Iridoid O-glycosides
COLLISIONENERGY: 10
FORMULA: C17H24O10
RETENTIONTIME: 3.41625
IONMODE: Negative
Comment: registered in RIKEN PlaSMA
Num Peaks: 23
101.01234	6
101.02312	178
101.03056	22
119.04512	7
123.04173	180
123.05451	7
124.04939	7
143.03084	7
146.71088	10
147.03772	7
150.03201	7
207.06621	34
208.06987	9
224.62914	8
225.07492	1000
226.07884	96
227.08031	29
228.61345	7
355.1076	7
387.1257	90
388.13412	25
433.10965	13
433.13416	346

NAME: Geniposide
PRECURSORMZ: 387.12967054783
PRECURSORTYPE: [M-H]-
INSTRUMENTTYPE: LC-ESI-QTOF
SMILES: COC(=O)C1=COC(OC2OC(CO)C(O)C(O)C2O)C2C1CC=C2CO
INCHIKEY: IBFYXTRXDNAPMM-UHFFFAOYNA-N
Ontology: Iridoid O-glycosides
COLLISIONENERGY: 10
FORMULA: C17H24O10
RETENTIONTIME: 3.41625
IONMODE: Negative
Comment: registered in RIKEN PlaSMA
Num Peaks: 9
101.02084	49
103.02691	15
123.04452	172
182.66095	13
225.07497	1000
226.07916	144
227.07632	13
263.07123	15
387.14133	57

NAME: Geniposide
PRECURSORMZ: 433.13514985183
PRECURSORTYPE: [M+FA-H]-
INSTRUMENTTYPE: LC-ESI-QTOF
SMILES: COC(=O)C1=COC(OC2OC(CO)C(O)C(O)C2O)C2C1CC=C2CO
INCHIKEY: IBFYXTRXDNAPMM-UHFFFAOYNA-N
Ontology: Iridoid O-glycosides
COLLISIONENERGY: 10
FORMULA: C17H24O10
RETENTIONTIME: 3.41625
IONMODE: Negative
Comment: registered in RIKEN PlaSMA
Num Peaks: 9
123.04568	13
225.07507	1000
226.07709	96
227.08308	32
233.01549	5
387.12894	301
388.13968	24
389.1312	8
433.13364	982

NAME: Geniposide
PRECURSORMZ: 387.12967054783
PRECURSORTYPE: [M-H]-
INSTRUMENTTYPE: LC-ESI-QTOF
SMILES: COC(=O)C1=COC(OC2OC(CO)C(O)C(O)C2O)C2C1CC=C2CO
INCHIKEY: IBFYXTRXDNAPMM-UHFFFAOYNA-N
Ontology: Iridoid O-glycosides
COLLISIONENERGY: 30
FORMULA: C17H24O10
RETENTIONTIME: 3.41625
IONMODE: Negative
Comment: registered in RIKEN PlaSMA
Num Peaks: 14
68.99396	55
68.99917	47
101.02415	1000
102.02642	47
105.03713	47
106.03754	55
123.03796	109
123.04715	55
141.0473	47
147.03996	190
147.0462	83
148.04726	47
175.03719	83
207.06508	62

NAME: Geniposide
PRECURSORMZ: 387.12967054783
PRECURSORTYPE: [M-H]-
INSTRUMENTTYPE: LC-ESI-QTOF
SMILES: COC(=O)C1=COC(OC2OC(CO)C(O)C(O)C2O)C2C1CC=C2CO
INCHIKEY: IBFYXTRXDNAPMM-UHFFFAOYNA-N
Ontology: Iridoid O-glycosides
COLLISIONENERGY: 50
FORMULA: C17H24O10
RETENTIONTIME: 3.41625
IONMODE: Negative
Comment: registered in RIKEN PlaSMA
Num Peaks: 8
65.03677	162
95.01337	162
101.02222	162
105.03196	1000
119.05302	162
135.04768	189
146.03294	180
147.04556	162

NAME: Geniposide
PRECURSORMZ: 433.13514985183
PRECURSORTYPE: [M+FA-H]-
INSTRUMENTTYPE: LC-ESI-QTOF
SMILES: COC(=O)C1=COC(OC2OC(CO)C(O)C(O)C2O)C2C1CC=C2CO
INCHIKEY: IBFYXTRXDNAPMM-UHFFFAOYNA-N
Ontology: Iridoid O-glycosides
COLLISIONENERGY: 50
FORMULA: C17H24O10
RETENTIONTIME: 3.41625
IONMODE: Negative
Comment: registered in RIKEN PlaSMA
Num Peaks: 14
68.99691	428
69.99821	119
85.03032	139
101.02255	1000
105.03049	124
109.03153	90
119.04344	104
119.05187	90
123.04133	119
123.0465	90
141.0518	129
147.04222	701
151.04428	124
180.84105	109

NAME: Geniposide
PRECURSORMZ: 387.12967054783
PRECURSORTYPE: [M-H]-
INSTRUMENTTYPE: LC-ESI-QTOF
SMILES: COC(=O)C1=COC(OC2OC(CO)C(O)C(O)C2O)C2C1CC=C2CO
INCHIKEY: IBFYXTRXDNAPMM-UHFFFAOYNA-N
Ontology: Iridoid O-glycosides
COLLISIONENERGY: 10
FORMULA: C17H24O10
RETENTIONTIME: 3.41625
IONMODE: Negative
Comment: registered in RIKEN PlaSMA
Num Peaks: 20
85.03191	35
101.01983	119
101.02618	119
102.02863	39
103.06067	41
105.04185	45
123.04311	375
123.05322	31
124.03992	35
124.0497	41
127.03848	35
143.03487	39
147.04736	37
193.04741	49
207.05315	39
207.06258	74
208.06815	43
225.07539	1000
226.06818	35
226.07526	39

NAME: Geniposide
PRECURSORMZ: 433.13514985183
PRECURSORTYPE: [M+FA-H]-
INSTRUMENTTYPE: LC-ESI-QTOF
SMILES: COC(=O)C1=COC(OC2OC(CO)C(O)C(O)C2O)C2C1CC=C2CO
INCHIKEY: IBFYXTRXDNAPMM-UHFFFAOYNA-N
Ontology: Iridoid O-glycosides
COLLISIONENERGY: 10
FORMULA: C17H24O10
RETENTIONTIME: 3.41625
IONMODE: Negative
Comment: registered in RIKEN PlaSMA
Num Peaks: 25
58.25299	8
68.99551	12
101.02426	83
102.02372	8
111.00822	10
113.02312	10
119.24282	11
123.04363	203
123.05403	11
124.04723	22
127.03571	10
147.04662	7
183.34981	7
207.06168	30
225.0757	1000
225.20413	10
226.08012	87
227.07431	8
228.08543	8
387.10986	23
387.1293	101
388.12628	8
388.13699	19
389.1467	9
433.13519	359

NAME: Geniposide
PRECURSORMZ: 387.12967054783
PRECURSORTYPE: [M-H]-
INSTRUMENTTYPE: LC-ESI-QTOF
SMILES: COC(=O)C1=COC(OC2OC(CO)C(O)C(O)C2O)C2C1CC=C2CO
INCHIKEY: IBFYXTRXDNAPMM-UHFFFAOYNA-N
Ontology: Iridoid O-glycosides
COLLISIONENERGY: 10
FORMULA: C17H24O10
RETENTIONTIME: 3.41625
IONMODE: Negative
Comment: registered in RIKEN PlaSMA
Num Peaks: 10
101.0181	13
101.02309	29
123.04433	73
124.04256	13
225.07509	1000
226.07832	98
251.80241	24
355.09116	12
387.11606	13
387.13876	12

NAME: Geniposide
PRECURSORMZ: 433.13514985183
PRECURSORTYPE: [M+FA-H]-
INSTRUMENTTYPE: LC-ESI-QTOF
SMILES: COC(=O)C1=COC(OC2OC(CO)C(O)C(O)C2O)C2C1CC=C2CO
INCHIKEY: IBFYXTRXDNAPMM-UHFFFAOYNA-N
Ontology: Iridoid O-glycosides
COLLISIONENERGY: 10
FORMULA: C17H24O10
RETENTIONTIME: 3.41625
IONMODE: Negative
Comment: registered in RIKEN PlaSMA
Num Peaks: 10
123.04693	27
207.06505	7
225.07552	1000
226.07979	86
227.0797	18
228.09201	7
387.12735	270
388.13257	29
389.13565	12
433.13388	880

NAME: Geniposide
PRECURSORMZ: 387.12967054783
PRECURSORTYPE: [M-H]-
INSTRUMENTTYPE: LC-ESI-QTOF
SMILES: COC(=O)C1=COC(OC2OC(CO)C(O)C(O)C2O)C2C1CC=C2CO
INCHIKEY: IBFYXTRXDNAPMM-UHFFFAOYNA-N
Ontology: Iridoid O-glycosides
COLLISIONENERGY: 30
FORMULA: C17H24O10
RETENTIONTIME: 3.41625
IONMODE: Negative
Comment: registered in RIKEN PlaSMA
Num Peaks: 16
68.99445	89
93.03208	34
101.02345	1000
102.02566	70
105.0332	62
105.17578	32
122.03076	34
123.04491	445
137.02425	30
147.04105	243
175.03633	35
176.04387	44
189.06044	35
207.07112	30
208.06485	42
310.42059	37

NAME: Geniposide
PRECURSORMZ: 387.12967054783
PRECURSORTYPE: [M-H]-
INSTRUMENTTYPE: LC-ESI-QTOF
SMILES: COC(=O)C1=COC(OC2OC(CO)C(O)C(O)C2O)C2C1CC=C2CO
INCHIKEY: IBFYXTRXDNAPMM-UHFFFAOYNA-N
Ontology: Iridoid O-glycosides
COLLISIONENERGY: 50
FORMULA: C17H24O10
RETENTIONTIME: 3.41625
IONMODE: Negative
Comment: registered in RIKEN PlaSMA
Num Peaks: 12
68.99648	523
91.05164	189
101.02289	144
103.05482	182
105.03563	144
119.04749	136
123.05071	152
135.04007	144
146.03323	159
147.03516	159
147.04527	1000
148.04781	205

NAME: Geniposide
PRECURSORMZ: 433.13514985183
PRECURSORTYPE: [M+FA-H]-
INSTRUMENTTYPE: LC-ESI-QTOF
SMILES: COC(=O)C1=COC(OC2OC(CO)C(O)C(O)C2O)C2C1CC=C2CO
INCHIKEY: IBFYXTRXDNAPMM-UHFFFAOYNA-N
Ontology: Iridoid O-glycosides
COLLISIONENERGY: 50
FORMULA: C17H24O10
RETENTIONTIME: 3.41625
IONMODE: Negative
Comment: registered in RIKEN PlaSMA
Num Peaks: 19
59.01325	85
68.99597	332
69.00026	77
70.00201	92
101.02275	1000
103.05431	66
103.05963	66
105.03123	74
105.07252	92
111.04775	85
119.04819	81
123.04636	384
133.02611	85
147.0442	675
148.04033	89
148.0475	92
174.02933	89
207.07317	96
433.138	70

NAME: Gentiopicroside
PRECURSORMZ: 355.10345574783
PRECURSORTYPE: [M-H]-
INSTRUMENTTYPE: LC-ESI-QTOF
SMILES: OCC1OC(OC2OC=C3C(=O)OCC=C3C2C=C)C(O)C(O)C1O
INCHIKEY: DUAGQYUORDTXOR-UHFFFAOYNA-N
Ontology: O-glycosyl compounds
COLLISIONENERGY: 10
FORMULA: C16H20O9
RETENTIONTIME: 3.444217
IONMODE: Negative
Comment: registered in RIKEN PlaSMA
Num Peaks: 3
101.02213	466
149.05983	1000
355.10956	562

NAME: Gentiopicroside
PRECURSORMZ: 401.10893505183
PRECURSORTYPE: [M+FA-H]-
INSTRUMENTTYPE: LC-ESI-QTOF
SMILES: OCC1OC(OC2OC=C3C(=O)OCC=C3C2C=C)C(O)C(O)C1O
INCHIKEY: DUAGQYUORDTXOR-UHFFFAOYNA-N
Ontology: O-glycosyl compounds
COLLISIONENERGY: 10
FORMULA: C16H20O9
RETENTIONTIME: 3.444217
IONMODE: Negative
Comment: registered in RIKEN PlaSMA
Num Peaks: 39
59.01304	18
71.01305	15
71.01765	18
85.03162	41
89.02292	241
90.02808	23
101.02209	68
101.02851	27
107.03028	17
108.03928	20
113.02408	109
114.02628	15
119.03303	46
120.03894	25
121.05348	17
125.01588	25
131.03543	29
143.03127	52
149.04588	44
149.05861	100
150.06033	20
161.04141	44
161.96315	15
173.05913	20
179.05431	684
180.05704	44
181.05798	60
191.07692	20
193.04587	20
193.05257	35
203.32498	17
225.06287	69
226.07019	18
256.25357	15
355.09915	45
356.09656	14
356.11121	31
401.07938	14
401.10776	1000

NAME: Gentiopicroside
PRECURSORMZ: 355.10345574783
PRECURSORTYPE: [M-H]-
INSTRUMENTTYPE: LC-ESI-QTOF
SMILES: OCC1OC(OC2OC=C3C(=O)OCC=C3C2C=C)C(O)C(O)C1O
INCHIKEY: DUAGQYUORDTXOR-UHFFFAOYNA-N
Ontology: O-glycosyl compounds
COLLISIONENERGY: 10
FORMULA: C16H20O9
RETENTIONTIME: 3.444217
IONMODE: Negative
Comment: registered in RIKEN PlaSMA
Num Peaks: 11
89.02021	190
119.03198	118
131.03256	100
145.0616	85
149.05745	1000
150.05409	95
150.06599	85
161.04652	190
191.07162	104
247.06241	95
355.11551	218

NAME: Gentiopicroside
PRECURSORMZ: 401.10893505183
PRECURSORTYPE: [M+FA-H]-
INSTRUMENTTYPE: LC-ESI-QTOF
SMILES: OCC1OC(OC2OC=C3C(=O)OCC=C3C2C=C)C(O)C(O)C1O
INCHIKEY: DUAGQYUORDTXOR-UHFFFAOYNA-N
Ontology: O-glycosyl compounds
COLLISIONENERGY: 10
FORMULA: C16H20O9
RETENTIONTIME: 3.444217
IONMODE: Negative
Comment: registered in RIKEN PlaSMA
Num Peaks: 16
89.02549	26
101.02382	5
113.02202	6
119.0336	47
131.03001	6
143.03307	10
149.05295	8
149.05858	25
161.04578	33
179.05508	396
180.0601	29
181.06451	7
225.06247	65
355.10464	100
356.10367	17
401.10867	1000

NAME: Gentiopicroside
PRECURSORMZ: 355.10345574783
PRECURSORTYPE: [M-H]-
INSTRUMENTTYPE: LC-ESI-QTOF
SMILES: OCC1OC(OC2OC=C3C(=O)OCC=C3C2C=C)C(O)C(O)C1O
INCHIKEY: DUAGQYUORDTXOR-UHFFFAOYNA-N
Ontology: O-glycosyl compounds
COLLISIONENERGY: 30
FORMULA: C16H20O9
RETENTIONTIME: 3.444217
IONMODE: Negative
Comment: registered in RIKEN PlaSMA
Num Peaks: 4
67.01541	238
93.03565	512
94.0315	238
149.05717	1000

NAME: Gentiopicroside
PRECURSORMZ: 355.10345574783
PRECURSORTYPE: [M-H]-
INSTRUMENTTYPE: LC-ESI-QTOF
SMILES: OCC1OC(OC2OC=C3C(=O)OCC=C3C2C=C)C(O)C(O)C1O
INCHIKEY: DUAGQYUORDTXOR-UHFFFAOYNA-N
Ontology: O-glycosyl compounds
COLLISIONENERGY: 50
FORMULA: C16H20O9
RETENTIONTIME: 3.444217
IONMODE: Negative
Comment: registered in RIKEN PlaSMA
Num Peaks: 2
93.02922	1000
143.04877	538

NAME: Gentiopicroside
PRECURSORMZ: 401.10893505183
PRECURSORTYPE: [M+FA-H]-
INSTRUMENTTYPE: LC-ESI-QTOF
SMILES: OCC1OC(OC2OC=C3C(=O)OCC=C3C2C=C)C(O)C(O)C1O
INCHIKEY: DUAGQYUORDTXOR-UHFFFAOYNA-N
Ontology: O-glycosyl compounds
COLLISIONENERGY: 50
FORMULA: C16H20O9
RETENTIONTIME: 3.444217
IONMODE: Negative
Comment: registered in RIKEN PlaSMA
Num Peaks: 5
59.0112	1000
71.01115	553
85.02746	383
106.04051	383
108.02658	532

NAME: Gentiopicroside
PRECURSORMZ: 355.10345574783
PRECURSORTYPE: [M-H]-
INSTRUMENTTYPE: LC-ESI-QTOF
SMILES: OCC1OC(OC2OC=C3C(=O)OCC=C3C2C=C)C(O)C(O)C1O
INCHIKEY: DUAGQYUORDTXOR-UHFFFAOYNA-N
Ontology: O-glycosyl compounds
COLLISIONENERGY: 10
FORMULA: C16H20O9
RETENTIONTIME: 3.444217
IONMODE: Negative
Comment: registered in RIKEN PlaSMA
Num Peaks: 9
87.00395	155
89.02267	181
93.03113	276
101.02064	172
147.04507	328
149.06151	1000
163.07245	181
204.08028	155
212.1888	233

NAME: Gentiopicroside
PRECURSORMZ: 401.10893505183
PRECURSORTYPE: [M+FA-H]-
INSTRUMENTTYPE: LC-ESI-QTOF
SMILES: OCC1OC(OC2OC=C3C(=O)OCC=C3C2C=C)C(O)C(O)C1O
INCHIKEY: DUAGQYUORDTXOR-UHFFFAOYNA-N
Ontology: O-glycosyl compounds
COLLISIONENERGY: 10
FORMULA: C16H20O9
RETENTIONTIME: 3.444217
IONMODE: Negative
Comment: registered in RIKEN PlaSMA
Num Peaks: 39
59.01236	14
71.01553	37
89.02254	204
93.03732	23
101.01945	25
101.02461	55
103.04752	12
105.06779	13
107.02462	12
113.02285	108
114.02213	13
119.03331	86
125.02451	28
131.02977	31
131.03535	14
135.04822	16
143.03326	47
143.0388	16
144.04474	15
148.08313	12
149.04185	12
149.06041	86
150.0531	20
150.06387	26
161.04222	73
162.04666	24
173.05681	12
179.0544	731
180.05933	62
193.04845	59
193.06178	13
225.06311	74
265.06403	13
305.94867	12
355.09555	34
355.10873	12
356.1102	39
371.02951	12
401.10425	1000

NAME: Gentiopicroside
PRECURSORMZ: 355.10345574783
PRECURSORTYPE: [M-H]-
INSTRUMENTTYPE: LC-ESI-QTOF
SMILES: OCC1OC(OC2OC=C3C(=O)OCC=C3C2C=C)C(O)C(O)C1O
INCHIKEY: DUAGQYUORDTXOR-UHFFFAOYNA-N
Ontology: O-glycosyl compounds
COLLISIONENERGY: 10
FORMULA: C16H20O9
RETENTIONTIME: 3.444217
IONMODE: Negative
Comment: registered in RIKEN PlaSMA
Num Peaks: 10
113.01972	103
119.03331	97
149.05928	1000
151.04532	157
179.04773	200
190.04802	108
207.06181	124
235.05528	114
355.08893	265
355.10211	432

NAME: Gentiopicroside
PRECURSORMZ: 401.10893505183
PRECURSORTYPE: [M+FA-H]-
INSTRUMENTTYPE: LC-ESI-QTOF
SMILES: OCC1OC(OC2OC=C3C(=O)OCC=C3C2C=C)C(O)C(O)C1O
INCHIKEY: DUAGQYUORDTXOR-UHFFFAOYNA-N
Ontology: O-glycosyl compounds
COLLISIONENERGY: 10
FORMULA: C16H20O9
RETENTIONTIME: 3.444217
IONMODE: Negative
Comment: registered in RIKEN PlaSMA
Num Peaks: 15
89.02186	34
101.02071	9
113.02248	5
119.03559	18
143.03407	19
149.05965	19
161.04514	33
179.05475	342
180.05849	24
185.87093	6
193.05078	6
225.06058	45
355.10257	88
356.11398	14
401.10791	1000

NAME: Gentiopicroside
PRECURSORMZ: 355.10345574783
PRECURSORTYPE: [M-H]-
INSTRUMENTTYPE: LC-ESI-QTOF
SMILES: OCC1OC(OC2OC=C3C(=O)OCC=C3C2C=C)C(O)C(O)C1O
INCHIKEY: DUAGQYUORDTXOR-UHFFFAOYNA-N
Ontology: O-glycosyl compounds
COLLISIONENERGY: 30
FORMULA: C16H20O9
RETENTIONTIME: 3.444217
IONMODE: Negative
Comment: registered in RIKEN PlaSMA
Num Peaks: 6
85.02474	338
93.03439	662
133.06471	277
135.03726	323
149.06155	1000
187.04028	323

NAME: Gentiopicroside
PRECURSORMZ: 401.10893505183
PRECURSORTYPE: [M+FA-H]-
INSTRUMENTTYPE: LC-ESI-QTOF
SMILES: OCC1OC(OC2OC=C3C(=O)OCC=C3C2C=C)C(O)C(O)C1O
INCHIKEY: DUAGQYUORDTXOR-UHFFFAOYNA-N
Ontology: O-glycosyl compounds
COLLISIONENERGY: 30
FORMULA: C16H20O9
RETENTIONTIME: 3.444217
IONMODE: Negative
Comment: registered in RIKEN PlaSMA
Num Peaks: 22
59.01239	1000
71.0114	600
73.03145	146
81.03298	190
83.01527	88
85.02849	93
89.01707	146
89.02362	585
101.01961	298
101.02547	493
102.02573	185
103.02726	117
105.07263	122
113.01797	93
113.02238	98
119.02768	93
119.03609	498
119.05288	146
149.06052	473
150.06284	107
193.0439	98
237.61763	112

NAME: Gentiopicroside
PRECURSORMZ: 355.10345574783
PRECURSORTYPE: [M-H]-
INSTRUMENTTYPE: LC-ESI-QTOF
SMILES: OCC1OC(OC2OC=C3C(=O)OCC=C3C2C=C)C(O)C(O)C1O
INCHIKEY: DUAGQYUORDTXOR-UHFFFAOYNA-N
Ontology: O-glycosyl compounds
COLLISIONENERGY: 50
FORMULA: C16H20O9
RETENTIONTIME: 3.444217
IONMODE: Negative
Comment: registered in RIKEN PlaSMA
Num Peaks: 1
187.04521	1000

NAME: Gentiopicroside
PRECURSORMZ: 401.10893505183
PRECURSORTYPE: [M+FA-H]-
INSTRUMENTTYPE: LC-ESI-QTOF
SMILES: OCC1OC(OC2OC=C3C(=O)OCC=C3C2C=C)C(O)C(O)C1O
INCHIKEY: DUAGQYUORDTXOR-UHFFFAOYNA-N
Ontology: O-glycosyl compounds
COLLISIONENERGY: 50
FORMULA: C16H20O9
RETENTIONTIME: 3.444217
IONMODE: Negative
Comment: registered in RIKEN PlaSMA
Num Peaks: 4
59.0122	1000
65.03546	171
71.01328	257
101.02023	257

NAME: Gentiopicroside
PRECURSORMZ: 355.10345574783
PRECURSORTYPE: [M-H]-
INSTRUMENTTYPE: LC-ESI-QTOF
SMILES: OCC1OC(OC2OC=C3C(=O)OCC=C3C2C=C)C(O)C(O)C1O
INCHIKEY: DUAGQYUORDTXOR-UHFFFAOYNA-N
Ontology: O-glycosyl compounds
COLLISIONENERGY: 10
FORMULA: C16H20O9
RETENTIONTIME: 3.444217
IONMODE: Negative
Comment: registered in RIKEN PlaSMA
Num Peaks: 3
75.00675	184
93.03377	214
149.06232	1000

NAME: Gentiopicroside
PRECURSORMZ: 401.10893505183
PRECURSORTYPE: [M+FA-H]-
INSTRUMENTTYPE: LC-ESI-QTOF
SMILES: OCC1OC(OC2OC=C3C(=O)OCC=C3C2C=C)C(O)C(O)C1O
INCHIKEY: DUAGQYUORDTXOR-UHFFFAOYNA-N
Ontology: O-glycosyl compounds
COLLISIONENERGY: 10
FORMULA: C16H20O9
RETENTIONTIME: 3.444217
IONMODE: Negative
Comment: registered in RIKEN PlaSMA
Num Peaks: 31
59.01249	17
71.01096	122
71.01683	26
72.0131	22
87.00671	19
89.02424	141
101.02155	97
103.02637	22
113.01944	63
119.02827	43
119.03448	198
131.03575	15
132.82605	27
143.03362	18
149.06024	188
150.06294	14
161.04602	116
163.04875	15
177.05351	21
179.0545	777
180.04895	34
180.05852	31
181.05888	23
213.43405	14
225.05606	88
225.07053	17
235.06915	25
247.07216	15
258.20126	19
355.10516	98
401.10828	1000

NAME: Gentiopicroside
PRECURSORMZ: 355.10345574783
PRECURSORTYPE: [M-H]-
INSTRUMENTTYPE: LC-ESI-QTOF
SMILES: OCC1OC(OC2OC=C3C(=O)OCC=C3C2C=C)C(O)C(O)C1O
INCHIKEY: DUAGQYUORDTXOR-UHFFFAOYNA-N
Ontology: O-glycosyl compounds
COLLISIONENERGY: 10
FORMULA: C16H20O9
RETENTIONTIME: 3.444217
IONMODE: Negative
Comment: registered in RIKEN PlaSMA
Num Peaks: 9
119.03261	262
124.15285	195
149.05704	1000
167.06729	148
191.07126	128
192.07625	134
193.05826	141
293.09616	161
355.09955	450

NAME: Gentiopicroside
PRECURSORMZ: 401.10893505183
PRECURSORTYPE: [M+FA-H]-
INSTRUMENTTYPE: LC-ESI-QTOF
SMILES: OCC1OC(OC2OC=C3C(=O)OCC=C3C2C=C)C(O)C(O)C1O
INCHIKEY: DUAGQYUORDTXOR-UHFFFAOYNA-N
Ontology: O-glycosyl compounds
COLLISIONENERGY: 10
FORMULA: C16H20O9
RETENTIONTIME: 3.444217
IONMODE: Negative
Comment: registered in RIKEN PlaSMA
Num Peaks: 20
59.01169	5
89.02404	31
101.02154	18
113.01945	9
119.03082	27
119.0388	8
131.03584	5
143.02812	5
143.0372	16
149.05582	8
161.04578	33
179.05495	394
180.05896	30
193.04919	13
225.04749	9
225.06017	54
355.10178	100
356.10696	5
357.11194	6
401.10657	1000

NAME: Gentiopicroside
PRECURSORMZ: 355.10345574783
PRECURSORTYPE: [M-H]-
INSTRUMENTTYPE: LC-ESI-QTOF
SMILES: OCC1OC(OC2OC=C3C(=O)OCC=C3C2C=C)C(O)C(O)C1O
INCHIKEY: DUAGQYUORDTXOR-UHFFFAOYNA-N
Ontology: O-glycosyl compounds
COLLISIONENERGY: 30
FORMULA: C16H20O9
RETENTIONTIME: 3.444217
IONMODE: Negative
Comment: registered in RIKEN PlaSMA
Num Peaks: 7
93.03165	1000
121.06508	173
132.05453	165
134.03667	188
135.04663	165
147.04761	180
149.06404	414

NAME: Gentiopicroside
PRECURSORMZ: 401.10893505183
PRECURSORTYPE: [M+FA-H]-
INSTRUMENTTYPE: LC-ESI-QTOF
SMILES: OCC1OC(OC2OC=C3C(=O)OCC=C3C2C=C)C(O)C(O)C1O
INCHIKEY: DUAGQYUORDTXOR-UHFFFAOYNA-N
Ontology: O-glycosyl compounds
COLLISIONENERGY: 30
FORMULA: C16H20O9
RETENTIONTIME: 3.444217
IONMODE: Negative
Comment: registered in RIKEN PlaSMA
Num Peaks: 18
59.01324	369
71.00755	148
71.01347	352
85.02641	85
89.02225	1000
90.02653	195
91.02694	76
93.03623	76
95.01109	85
97.03136	76
101.02305	636
107.05391	76
113.01923	165
119.03305	267
149.05852	144
149.06575	81
150.05765	119
164.07515	76

NAME: Gentiopicroside
PRECURSORMZ: 355.10345574783
PRECURSORTYPE: [M-H]-
INSTRUMENTTYPE: LC-ESI-QTOF
SMILES: OCC1OC(OC2OC=C3C(=O)OCC=C3C2C=C)C(O)C(O)C1O
INCHIKEY: DUAGQYUORDTXOR-UHFFFAOYNA-N
Ontology: O-glycosyl compounds
COLLISIONENERGY: 50
FORMULA: C16H20O9
RETENTIONTIME: 3.444217
IONMODE: Negative
Comment: registered in RIKEN PlaSMA
Num Peaks: 2
93.02842	1000
93.03372	688

NAME: Gentiopicroside
PRECURSORMZ: 401.10893505183
PRECURSORTYPE: [M+FA-H]-
INSTRUMENTTYPE: LC-ESI-QTOF
SMILES: OCC1OC(OC2OC=C3C(=O)OCC=C3C2C=C)C(O)C(O)C1O
INCHIKEY: DUAGQYUORDTXOR-UHFFFAOYNA-N
Ontology: O-glycosyl compounds
COLLISIONENERGY: 50
FORMULA: C16H20O9
RETENTIONTIME: 3.444217
IONMODE: Negative
Comment: registered in RIKEN PlaSMA
Num Peaks: 5
59.0084	519
59.01356	346
71.01149	1000
89.02137	712
113.02528	500

NAME: Paeoniflorin
PRECURSORMZ: 479.15588524783
PRECURSORTYPE: [M-H]-
INSTRUMENTTYPE: LC-ESI-QTOF
SMILES: CC12CC3(O)OC(O1)C1(COC(=O)C4=CC=CC=C4)C3CC21OC1OC(CO)C(O)C(O)C1O
INCHIKEY: YKRGDOXKVOZESV-UHFFFAOYNA-N
Ontology: Terpene glycosides
COLLISIONENERGY: 10
FORMULA: C23H28O11
RETENTIONTIME: 3.779183
IONMODE: Negative
Comment: registered in RIKEN PlaSMA
Num Peaks: 20
77.03958	43
95.04845	40
113.02211	40
113.02824	93
121.02737	1000
122.03096	85
149.05568	36
163.03325	36
165.05437	154
195.05995	36
196.07408	36
249.07074	40
327.10397	302
357.10663	49
449.13629	208
449.14914	393
450.14978	36
451.14847	43
452.14865	36
479.14468	45

NAME: Paeoniflorin
PRECURSORMZ: 525.16136455183
PRECURSORTYPE: [M+FA-H]-
INSTRUMENTTYPE: LC-ESI-QTOF
SMILES: CC12CC3(O)OC(O1)C1(COC(=O)C4=CC=CC=C4)C3CC21OC1OC(CO)C(O)C(O)C1O
INCHIKEY: YKRGDOXKVOZESV-UHFFFAOYNA-N
Ontology: Terpene glycosides
COLLISIONENERGY: 10
FORMULA: C23H28O11
RETENTIONTIME: 3.779183
IONMODE: Negative
Comment: registered in RIKEN PlaSMA
Num Peaks: 39
87.00334	5
113.02541	23
114.02467	9
121.02826	672
122.03162	66
123.04884	9
141.05704	6
161.04562	25
163.03406	13
163.04051	15
165.05412	128
167.0607	10
177.05319	23
177.06389	9
183.05992	8
195.06854	10
211.05753	10
221.08514	7
251.41837	5
279.07687	9
283.07828	10
309.0853	9
327.10706	179
328.10315	13
328.11279	38
357.12357	5
362.96997	6
431.13257	6
431.14566	11
432.1395	5
449.14389	1000
450.14621	217
451.14124	17
451.16788	8
471.20074	7
479.15854	165
480.1543	16
480.1748	14
525.16077	231

NAME: Paeoniflorin
PRECURSORMZ: 479.15588524783
PRECURSORTYPE: [M-H]-
INSTRUMENTTYPE: LC-ESI-QTOF
SMILES: CC12CC3(O)OC(O1)C1(COC(=O)C4=CC=CC=C4)C3CC21OC1OC(CO)C(O)C(O)C1O
INCHIKEY: YKRGDOXKVOZESV-UHFFFAOYNA-N
Ontology: Terpene glycosides
COLLISIONENERGY: 10
FORMULA: C23H28O11
RETENTIONTIME: 3.779183
IONMODE: Negative
Comment: registered in RIKEN PlaSMA
Num Peaks: 22
89.07304	11
121.02598	88
122.03512	22
165.05498	23
177.05934	12
186.55547	13
187.2283	14
211.05229	14
223.05562	11
297.53174	13
327.10617	258
328.11765	23
330.1123	11
357.12012	16
358.12601	11
431.13254	23
431.14557	23
449.14572	1000
450.14835	212
451.1424	48
462.18265	11
479.15887	94

NAME: Paeoniflorin
PRECURSORMZ: 525.16136455183
PRECURSORTYPE: [M+FA-H]-
INSTRUMENTTYPE: LC-ESI-QTOF
SMILES: CC12CC3(O)OC(O1)C1(COC(=O)C4=CC=CC=C4)C3CC21OC1OC(CO)C(O)C(O)C1O
INCHIKEY: YKRGDOXKVOZESV-UHFFFAOYNA-N
Ontology: Terpene glycosides
COLLISIONENERGY: 10
FORMULA: C23H28O11
RETENTIONTIME: 3.779183
IONMODE: Negative
Comment: registered in RIKEN PlaSMA
Num Peaks: 10
121.02911	9
327.10056	15
327.11331	12
431.13309	5
449.14441	1000
450.1481	155
451.15091	41
479.15582	278
480.15652	65
525.1615	623

NAME: Paeoniflorin
PRECURSORMZ: 479.15588524783
PRECURSORTYPE: [M-H]-
INSTRUMENTTYPE: LC-ESI-QTOF
SMILES: CC12CC3(O)OC(O1)C1(COC(=O)C4=CC=CC=C4)C3CC21OC1OC(CO)C(O)C(O)C1O
INCHIKEY: YKRGDOXKVOZESV-UHFFFAOYNA-N
Ontology: Terpene glycosides
COLLISIONENERGY: 30
FORMULA: C23H28O11
RETENTIONTIME: 3.779183
IONMODE: Negative
Comment: registered in RIKEN PlaSMA
Num Peaks: 18
71.01276	18
101.01987	19
113.01897	41
113.02579	41
121.02856	1000
121.12967	19
122.03134	40
122.03828	27
123.03928	18
137.05891	23
148.51543	18
150.02933	21
154.05411	23
163.0407	18
165.05331	199
193.04254	16
195.0612	20
225.09033	16

NAME: Paeoniflorin
PRECURSORMZ: 525.16136455183
PRECURSORTYPE: [M+FA-H]-
INSTRUMENTTYPE: LC-ESI-QTOF
SMILES: CC12CC3(O)OC(O1)C1(COC(=O)C4=CC=CC=C4)C3CC21OC1OC(CO)C(O)C(O)C1O
INCHIKEY: YKRGDOXKVOZESV-UHFFFAOYNA-N
Ontology: Terpene glycosides
COLLISIONENERGY: 30
FORMULA: C23H28O11
RETENTIONTIME: 3.779183
IONMODE: Negative
Comment: registered in RIKEN PlaSMA
Num Peaks: 18
77.03654	10
77.04073	7
101.02605	6
113.02219	25
121.02805	1000
122.03031	47
123.03985	9
123.04568	18
147.02844	7
147.04176	10
151.03729	6
151.04372	6
161.04602	9
163.03697	16
165.05287	161
166.06149	9
177.05322	15
327.1055	48

NAME: Paeoniflorin
PRECURSORMZ: 479.15588524783
PRECURSORTYPE: [M-H]-
INSTRUMENTTYPE: LC-ESI-QTOF
SMILES: CC12CC3(O)OC(O1)C1(COC(=O)C4=CC=CC=C4)C3CC21OC1OC(CO)C(O)C(O)C1O
INCHIKEY: YKRGDOXKVOZESV-UHFFFAOYNA-N
Ontology: Terpene glycosides
COLLISIONENERGY: 50
FORMULA: C23H28O11
RETENTIONTIME: 3.779183
IONMODE: Negative
Comment: registered in RIKEN PlaSMA
Num Peaks: 4
77.03707	500
107.05494	63
121.02732	1000
122.02863	57

NAME: Paeoniflorin
PRECURSORMZ: 525.16136455183
PRECURSORTYPE: [M+FA-H]-
INSTRUMENTTYPE: LC-ESI-QTOF
SMILES: CC12CC3(O)OC(O1)C1(COC(=O)C4=CC=CC=C4)C3CC21OC1OC(CO)C(O)C(O)C1O
INCHIKEY: YKRGDOXKVOZESV-UHFFFAOYNA-N
Ontology: Terpene glycosides
COLLISIONENERGY: 50
FORMULA: C23H28O11
RETENTIONTIME: 3.779183
IONMODE: Negative
Comment: registered in RIKEN PlaSMA
Num Peaks: 36
59.00945	8
77.03784	135
81.03307	8
85.0265	26
89.02538	8
95.01167	7
97.0303	7
105.0324	12
113.02269	19
120.83296	7
121.01464	8
121.02792	1000
121.44038	7
122.03471	88
123.03304	11
123.04695	49
124.04983	26
133.03264	7
135.04616	17
136.04999	7
137.01634	7
137.05489	8
145.02994	10
148.04895	8
149.05757	24
151.03896	30
151.08229	14
152.04317	7
159.04106	7
160.85956	11
162.03751	10
165.05515	33
167.03912	9
175.04297	8
191.06877	9
207.07727	7

NAME: Paeoniflorin
PRECURSORMZ: 479.15588524783
PRECURSORTYPE: [M-H]-
INSTRUMENTTYPE: LC-ESI-QTOF
SMILES: CC12CC3(O)OC(O1)C1(COC(=O)C4=CC=CC=C4)C3CC21OC1OC(CO)C(O)C(O)C1O
INCHIKEY: YKRGDOXKVOZESV-UHFFFAOYNA-N
Ontology: Terpene glycosides
COLLISIONENERGY: 10
FORMULA: C23H28O11
RETENTIONTIME: 3.779183
IONMODE: Negative
Comment: registered in RIKEN PlaSMA
Num Peaks: 24
77.0362	36
87.00849	36
89.02261	38
113.0155	55
117.02086	38
121.02889	1000
121.26154	40
122.03204	34
122.03778	34
147.03065	45
163.03703	38
165.0466	74
252.18645	38
294.32083	62
327.10596	279
328.1059	132
329.12427	45
449.14105	319
449.16693	34
450.14795	104
451.14804	34
452.14624	34
479.14844	64
479.16284	32

NAME: Paeoniflorin
PRECURSORMZ: 525.16136455183
PRECURSORTYPE: [M+FA-H]-
INSTRUMENTTYPE: LC-ESI-QTOF
SMILES: CC12CC3(O)OC(O1)C1(COC(=O)C4=CC=CC=C4)C3CC21OC1OC(CO)C(O)C(O)C1O
INCHIKEY: YKRGDOXKVOZESV-UHFFFAOYNA-N
Ontology: Terpene glycosides
COLLISIONENERGY: 10
FORMULA: C23H28O11
RETENTIONTIME: 3.779183
IONMODE: Negative
Comment: registered in RIKEN PlaSMA
Num Peaks: 35
77.0381	5
113.02232	12
121.02838	709
122.03023	39
122.03714	10
143.03482	8
147.02789	5
161.04472	15
163.03676	13
165.05321	193
167.07065	9
177.05408	26
187.04143	6
189.04927	8
193.0546	7
207.06406	8
223.05988	9
246.7316	7
309.09598	9
309.10754	8
327.10809	239
328.11826	20
329.10965	20
357.13028	7
431.12283	11
431.14008	20
433.15149	10
449.14426	1000
450.14786	253
451.15186	31
479.15417	181
480.14508	10
480.16357	12
481.16968	8
525.1582	309

NAME: Paeoniflorin
PRECURSORMZ: 479.15588524783
PRECURSORTYPE: [M-H]-
INSTRUMENTTYPE: LC-ESI-QTOF
SMILES: CC12CC3(O)OC(O1)C1(COC(=O)C4=CC=CC=C4)C3CC21OC1OC(CO)C(O)C(O)C1O
INCHIKEY: YKRGDOXKVOZESV-UHFFFAOYNA-N
Ontology: Terpene glycosides
COLLISIONENERGY: 10
FORMULA: C23H28O11
RETENTIONTIME: 3.779183
IONMODE: Negative
Comment: registered in RIKEN PlaSMA
Num Peaks: 23
119.02827	14
121.02765	143
122.02926	13
161.04712	22
165.05002	12
166.06168	13
283.08627	27
284.07993	15
309.09576	14
327.09787	98
327.11069	88
328.10065	41
328.11298	18
329.11005	41
359.1283	12
431.13852	28
449.1449	1000
450.14639	207
450.16678	28
451.14923	28
451.16736	12
452.17184	18
479.15128	153

NAME: Paeoniflorin
PRECURSORMZ: 525.16136455183
PRECURSORTYPE: [M+FA-H]-
INSTRUMENTTYPE: LC-ESI-QTOF
SMILES: CC12CC3(O)OC(O1)C1(COC(=O)C4=CC=CC=C4)C3CC21OC1OC(CO)C(O)C(O)C1O
INCHIKEY: YKRGDOXKVOZESV-UHFFFAOYNA-N
Ontology: Terpene glycosides
COLLISIONENERGY: 10
FORMULA: C23H28O11
RETENTIONTIME: 3.779183
IONMODE: Negative
Comment: registered in RIKEN PlaSMA
Num Peaks: 15
121.02695	16
165.06076	7
327.1041	25
327.1199	7
328.12024	7
431.13843	9
432.12888	5
449.14447	1000
450.14767	214
451.15112	43
452.15472	7
479.1543	306
480.15695	65
481.15704	7
525.16156	722

NAME: Paeoniflorin
PRECURSORMZ: 479.15588524783
PRECURSORTYPE: [M-H]-
INSTRUMENTTYPE: LC-ESI-QTOF
SMILES: CC12CC3(O)OC(O1)C1(COC(=O)C4=CC=CC=C4)C3CC21OC1OC(CO)C(O)C(O)C1O
INCHIKEY: YKRGDOXKVOZESV-UHFFFAOYNA-N
Ontology: Terpene glycosides
COLLISIONENERGY: 30
FORMULA: C23H28O11
RETENTIONTIME: 3.779183
IONMODE: Negative
Comment: registered in RIKEN PlaSMA
Num Peaks: 24
71.01006	20
77.03731	17
84.0115	19
85.02816	18
85.23248	19
89.02176	19
97.02514	19
99.00222	19
113.02266	55
115.03313	19
119.03606	22
121.02867	1000
122.03088	126
134.03833	17
135.04211	17
147.04259	24
163.03751	40
165.0498	109
165.06215	19
177.05843	18
187.06833	18
191.06219	19
200.04425	20
233.09592	19

NAME: Paeoniflorin
PRECURSORMZ: 525.16136455183
PRECURSORTYPE: [M+FA-H]-
INSTRUMENTTYPE: LC-ESI-QTOF
SMILES: CC12CC3(O)OC(O1)C1(COC(=O)C4=CC=CC=C4)C3CC21OC1OC(CO)C(O)C(O)C1O
INCHIKEY: YKRGDOXKVOZESV-UHFFFAOYNA-N
Ontology: Terpene glycosides
COLLISIONENERGY: 30
FORMULA: C23H28O11
RETENTIONTIME: 3.779183
IONMODE: Negative
Comment: registered in RIKEN PlaSMA
Num Peaks: 25
77.03885	18
85.0247	8
101.02315	13
113.02093	46
121.02837	1000
122.03033	46
122.04006	5
123.03642	9
123.04343	7
135.04506	9
137.0574	10
143.03404	7
151.04153	16
161.04567	11
163.03476	10
165.05475	111
166.05692	19
177.05667	39
193.05081	16
195.06096	20
205.0818	6
309.09955	10
313.09079	5
327.10031	23
327.11731	8

NAME: Paeoniflorin
PRECURSORMZ: 479.15588524783
PRECURSORTYPE: [M-H]-
INSTRUMENTTYPE: LC-ESI-QTOF
SMILES: CC12CC3(O)OC(O1)C1(COC(=O)C4=CC=CC=C4)C3CC21OC1OC(CO)C(O)C(O)C1O
INCHIKEY: YKRGDOXKVOZESV-UHFFFAOYNA-N
Ontology: Terpene glycosides
COLLISIONENERGY: 50
FORMULA: C23H28O11
RETENTIONTIME: 3.779183
IONMODE: Negative
Comment: registered in RIKEN PlaSMA
Num Peaks: 16
77.03764	415
77.50623	36
78.04408	38
81.03248	46
85.0293	40
89.02569	42
90.10158	42
95.01214	40
105.03407	36
121.02687	1000
122.0302	107
122.04038	62
136.05699	95
150.02422	54
177.05565	42
193.04701	60

NAME: Paeoniflorin
PRECURSORMZ: 525.16136455183
PRECURSORTYPE: [M+FA-H]-
INSTRUMENTTYPE: LC-ESI-QTOF
SMILES: CC12CC3(O)OC(O1)C1(COC(=O)C4=CC=CC=C4)C3CC21OC1OC(CO)C(O)C(O)C1O
INCHIKEY: YKRGDOXKVOZESV-UHFFFAOYNA-N
Ontology: Terpene glycosides
COLLISIONENERGY: 50
FORMULA: C23H28O11
RETENTIONTIME: 3.779183
IONMODE: Negative
Comment: registered in RIKEN PlaSMA
Num Peaks: 33
71.01099	17
72.01869	18
77.03879	188
78.03619	7
78.04218	16
86.9415	7
93.03477	12
95.01639	7
101.01911	17
101.03081	7
107.04881	10
113.01949	8
113.0272	28
121.02771	1000
122.03204	82
123.03347	12
123.04289	31
124.0464	10
134.03601	8
135.04466	49
135.08298	19
137.01772	10
148.02315	11
149.0585	25
149.07169	7
151.03932	10
151.04747	9
162.0361	8
163.03816	14
164.42914	8
165.05331	34
165.0647	8
166.03517	8

NAME: Paeoniflorin
PRECURSORMZ: 479.15588524783
PRECURSORTYPE: [M-H]-
INSTRUMENTTYPE: LC-ESI-QTOF
SMILES: CC12CC3(O)OC(O1)C1(COC(=O)C4=CC=CC=C4)C3CC21OC1OC(CO)C(O)C(O)C1O
INCHIKEY: YKRGDOXKVOZESV-UHFFFAOYNA-N
Ontology: Terpene glycosides
COLLISIONENERGY: 10
FORMULA: C23H28O11
RETENTIONTIME: 3.779183
IONMODE: Negative
Comment: registered in RIKEN PlaSMA
Num Peaks: 20
121.02674	1000
131.03102	26
151.03845	25
151.07452	23
161.04247	85
166.06122	26
177.05148	27
309.08484	30
309.10202	28
310.10385	25
327.10489	108
327.12698	23
328.116	26
371.86002	26
431.13254	28
449.14023	227
450.14517	97
450.16196	85
451.14087	23
479.1492	112

NAME: Paeoniflorin
PRECURSORMZ: 525.16136455183
PRECURSORTYPE: [M+FA-H]-
INSTRUMENTTYPE: LC-ESI-QTOF
SMILES: CC12CC3(O)OC(O1)C1(COC(=O)C4=CC=CC=C4)C3CC21OC1OC(CO)C(O)C(O)C1O
INCHIKEY: YKRGDOXKVOZESV-UHFFFAOYNA-N
Ontology: Terpene glycosides
COLLISIONENERGY: 10
FORMULA: C23H28O11
RETENTIONTIME: 3.779183
IONMODE: Negative
Comment: registered in RIKEN PlaSMA
Num Peaks: 39
77.03843	10
79.95744	6
85.02682	8
113.0248	13
121.0281	716
122.03224	60
123.03754	7
123.0432	6
130.0222	6
135.04276	9
139.03456	6
152.03383	5
161.04106	19
165.05455	143
166.05836	21
177.05292	14
177.05965	8
179.06313	5
203.07814	5
224.06453	8
283.08307	9
309.08551	8
309.09906	17
310.10248	12
327.10645	227
328.10669	25
328.11996	10
329.11472	5
348.31378	6
431.12799	15
449.14423	1000
449.19406	7
450.13593	49
450.14963	175
451.15363	49
479.15329	157
480.15881	36
481.16296	22
525.15985	255

NAME: Paeoniflorin
PRECURSORMZ: 479.15588524783
PRECURSORTYPE: [M-H]-
INSTRUMENTTYPE: LC-ESI-QTOF
SMILES: CC12CC3(O)OC(O1)C1(COC(=O)C4=CC=CC=C4)C3CC21OC1OC(CO)C(O)C(O)C1O
INCHIKEY: YKRGDOXKVOZESV-UHFFFAOYNA-N
Ontology: Terpene glycosides
COLLISIONENERGY: 10
FORMULA: C23H28O11
RETENTIONTIME: 3.779183
IONMODE: Negative
Comment: registered in RIKEN PlaSMA
Num Peaks: 18
121.02716	66
165.05061	10
165.05649	22
283.07977	18
309.09747	16
310.10556	8
327.10611	119
327.12857	8
357.1153	11
357.12778	7
358.1243	9
431.14325	21
431.15329	9
449.14194	1000
450.14563	104
451.14221	8
479.14676	55
479.16153	46

NAME: Paeoniflorin
PRECURSORMZ: 479.15588524783
PRECURSORTYPE: [M-H]-
INSTRUMENTTYPE: LC-ESI-QTOF
SMILES: CC12CC3(O)OC(O1)C1(COC(=O)C4=CC=CC=C4)C3CC21OC1OC(CO)C(O)C(O)C1O
INCHIKEY: YKRGDOXKVOZESV-UHFFFAOYNA-N
Ontology: Terpene glycosides
COLLISIONENERGY: 30
FORMULA: C23H28O11
RETENTIONTIME: 3.779183
IONMODE: Negative
Comment: registered in RIKEN PlaSMA
Num Peaks: 19
77.03725	87
81.03403	27
102.02734	23
113.02056	39
121.02759	1000
122.03199	42
122.04022	20
122.045	21
123.04716	83
135.04849	20
149.02441	18
151.03709	20
163.02733	19
163.03867	18
163.05643	20
165.05234	167
166.05586	42
177.05354	24
327.10773	18

NAME: Paeoniflorin
PRECURSORMZ: 525.16136455183
PRECURSORTYPE: [M+FA-H]-
INSTRUMENTTYPE: LC-ESI-QTOF
SMILES: CC12CC3(O)OC(O1)C1(COC(=O)C4=CC=CC=C4)C3CC21OC1OC(CO)C(O)C(O)C1O
INCHIKEY: YKRGDOXKVOZESV-UHFFFAOYNA-N
Ontology: Terpene glycosides
COLLISIONENERGY: 30
FORMULA: C23H28O11
RETENTIONTIME: 3.779183
IONMODE: Negative
Comment: registered in RIKEN PlaSMA
Num Peaks: 23
71.01431	8
77.03827	6
78.04302	5
101.02441	27
113.02179	24
113.02876	11
117.01607	6
121.02785	1000
122.03128	74
147.02541	6
147.04152	6
151.03946	6
163.03589	20
165.05434	144
166.05879	13
177.04677	9
177.05554	25
193.04572	6
195.06624	7
221.08417	6
327.09686	19
327.11136	39
328.12616	6

NAME: Paeoniflorin
PRECURSORMZ: 479.15588524783
PRECURSORTYPE: [M-H]-
INSTRUMENTTYPE: LC-ESI-QTOF
SMILES: CC12CC3(O)OC(O1)C1(COC(=O)C4=CC=CC=C4)C3CC21OC1OC(CO)C(O)C(O)C1O
INCHIKEY: YKRGDOXKVOZESV-UHFFFAOYNA-N
Ontology: Terpene glycosides
COLLISIONENERGY: 50
FORMULA: C23H28O11
RETENTIONTIME: 3.779183
IONMODE: Negative
Comment: registered in RIKEN PlaSMA
Num Peaks: 16
77.0387	316
85.02987	43
85.0342	46
91.05247	43
95.04855	43
101.02259	43
116.04018	46
121.02762	1000
122.02912	51
122.03706	138
123.04519	106
124.01864	51
135.03433	48
135.05264	43
163.03972	118
215.06735	43

NAME: Paeoniflorin
PRECURSORMZ: 525.16136455183
PRECURSORTYPE: [M+FA-H]-
INSTRUMENTTYPE: LC-ESI-QTOF
SMILES: CC12CC3(O)OC(O1)C1(COC(=O)C4=CC=CC=C4)C3CC21OC1OC(CO)C(O)C(O)C1O
INCHIKEY: YKRGDOXKVOZESV-UHFFFAOYNA-N
Ontology: Terpene glycosides
COLLISIONENERGY: 50
FORMULA: C23H28O11
RETENTIONTIME: 3.779183
IONMODE: Negative
Comment: registered in RIKEN PlaSMA
Num Peaks: 35
59.01396	5
71.00988	9
77.03746	160
78.04079	13
85.02911	14
87.00799	9
95.05206	9
97.0296	9
99.0084	7
101.02406	6
107.05109	5
109.02905	9
113.01927	14
113.02521	19
119.03497	5
121.02795	1000
121.06583	13
122.02855	27
122.03434	31
123.04349	27
134.03323	6
135.0433	9
137.06023	8
141.05731	5
147.04581	5
149.06268	13
150.02747	12
151.037	10
159.04219	11
163.04163	9
165.04912	8
165.05893	21
166.11725	7
177.05759	18
259.14847	5

NAME: Bergenin
PRECURSORMZ: 327.07215564783
PRECURSORTYPE: [M-H]-
INSTRUMENTTYPE: LC-ESI-QTOF
SMILES: COC1=C(O)C=C2C(=O)OC3C(O)C(O)C(CO)OC3C2=C1O
INCHIKEY: YWJXCIXBAKGUKZ-UHFFFAOYNA-N
Ontology: Gallic acid and derivatives
COLLISIONENERGY: 10
FORMULA: C14H16O9
RETENTIONTIME: 2.851733
IONMODE: Negative
Comment: registered in RIKEN PlaSMA
Num Peaks: 76
97.28213	9
106.0389	7
108.02244	7
121.0331	8
125.02652	9
135.03333	8
138.03227	31
149.01688	8
149.02324	30
149.03696	9
152.03877	10
160.0201	8
161.02193	55
161.02875	36
162.02849	26
162.04022	16
163.03995	10
164.00999	68
165.01999	24
166.02846	54
166.04602	7
167.02814	9
173.0183	13
175.99983	7
177.02434	13
178.0191	34
178.034	7
179.02831	7
179.03949	7
181.03732	10
181.07964	7
183.02539	7
189.01974	7
190.02444	62
190.74722	7
191.03598	8
192.00636	502
193.01186	247
193.05048	7
194.01591	152
194.02408	176
195.02016	7
196.02515	17
196.04692	9
204.98743	8
205.01045	61
206.02455	46
207.02866	708
208.02835	31
208.03818	28
208.05835	7
209.03607	9
209.04735	20
211.03384	7
221.01105	9
222.01262	59
222.02925	8
223.01862	8
223.02885	16
223.06871	8
233.01028	7
234.01816	263
235.00697	8
235.01837	22
237.03522	62
238.04666	15
249.03922	222
250.03946	36
251.05164	15
294.02869	8
294.03983	25
295.04947	8
312.02957	20
312.04871	217
313.06006	17
327.07129	1000

NAME: Bergenin
PRECURSORMZ: 327.07215564783
PRECURSORTYPE: [M-H]-
INSTRUMENTTYPE: LC-ESI-QTOF
SMILES: COC1=C(O)C=C2C(=O)OC3C(O)C(O)C(CO)OC3C2=C1O
INCHIKEY: YWJXCIXBAKGUKZ-UHFFFAOYNA-N
Ontology: Gallic acid and derivatives
COLLISIONENERGY: 10
FORMULA: C14H16O9
RETENTIONTIME: 2.851733
IONMODE: Negative
Comment: registered in RIKEN PlaSMA
Num Peaks: 12
192.00922	8
194.02182	15
207.02846	243
208.02663	9
208.0369	9
209.04733	5
234.01562	6
237.0385	29
249.03908	71
250.04062	5
312.04733	74
327.07114	1000

NAME: Bergenin
PRECURSORMZ: 327.07215564783
PRECURSORTYPE: [M-H]-
INSTRUMENTTYPE: LC-ESI-QTOF
SMILES: COC1=C(O)C=C2C(=O)OC3C(O)C(O)C(CO)OC3C2=C1O
INCHIKEY: YWJXCIXBAKGUKZ-UHFFFAOYNA-N
Ontology: Gallic acid and derivatives
COLLISIONENERGY: 30
FORMULA: C14H16O9
RETENTIONTIME: 2.851733
IONMODE: Negative
Comment: registered in RIKEN PlaSMA
Num Peaks: 103
101.02533	9
101.04063	8
105.67287	6
106.04578	10
107.04811	6
108.01598	10
122.03508	7
124.01237	6
124.01827	7
125.02242	35
126.01807	7
126.02716	6
126.03853	6
130.79855	6
133.02473	6
133.02908	15
134.03131	7
134.03888	25
136.01065	12
136.0564	6
137.02191	13
138.0332	54
139.03102	11
140.03645	6
144.01659	6
145.02563	21
147.01326	7
148.01384	14
149.0197	12
150.03258	20
152.00914	18
161.02214	44
162.02409	30
162.03392	80
163.02902	6
163.04225	6
163.39301	8
164.01018	238
164.0416	6
165.00995	19
166.02585	133
167.02376	12
167.03281	6
168.00301	7
169.00801	9
173.01144	7
173.02484	7
174.02863	6
174.9926	6
176.01218	7
176.0448	9
177.01381	6
177.02727	13
178.02371	25
179.02104	9
179.0316	9
179.03691	6
180.00891	19
181.0452	6
189.01622	35
190.02626	242
190.04578	6
190.9984	12
191.03819	6
192.00517	1000
192.08546	6
193.01279	462
193.67793	8
194.01755	297
194.02838	58
194.42764	7
194.99864	6
195.0201	30
195.03468	7
196.02246	23
197.00882	7
201.01186	6
203.03224	11
205.01387	118
206.02196	151
207.02409	12
207.0374	8
208.03067	8
209.00919	6
209.03705	10
210.01721	7
220.01138	9
220.02156	7
221.0148	12
221.04855	16
222.01967	30
222.03175	6
234.01347	211
235.01979	39
235.03481	6
236.02411	19
237.00542	6
238.01236	6
246.00545	8
250.04701	6
276.02243	6
312.03226	6
312.05301	18

NAME: Bergenin
PRECURSORMZ: 327.07215564783
PRECURSORTYPE: [M-H]-
INSTRUMENTTYPE: LC-ESI-QTOF
SMILES: COC1=C(O)C=C2C(=O)OC3C(O)C(O)C(CO)OC3C2=C1O
INCHIKEY: YWJXCIXBAKGUKZ-UHFFFAOYNA-N
Ontology: Gallic acid and derivatives
COLLISIONENERGY: 50
FORMULA: C14H16O9
RETENTIONTIME: 2.851733
IONMODE: Negative
Comment: registered in RIKEN PlaSMA
Num Peaks: 63
77.03777	39
77.04137	34
78.04341	36
89.03185	36
90.01144	36
91.02023	41
92.02584	32
93.03249	102
94.00058	39
97.02963	45
105.03316	279
107.01743	39
108.02128	79
109.02701	193
111.03672	38
117.03178	77
119.01174	45
119.01732	43
121.02668	175
123.00439	34
124.01053	39
131.01088	68
133.02345	38
133.03041	220
135.00343	32
135.03909	36
136.01294	377
136.02164	34
137.01724	88
137.02368	314
138.02132	34
138.0325	75
145.01944	36
145.0327	93
147.00739	82
147.01674	46
149.02016	245
150.02916	32
150.03539	32
151.04176	64
152.00726	77
160.01221	46
161.02539	280
162.02512	95
163.00052	88
164.009	582
165.01564	177
176.0016	38
176.01492	118
177.01756	529
178.02504	39
186.03204	38
189.01512	143
190.99734	32
191.99939	66
192.00652	102
193.01303	1000
194.00363	36
195.02055	66
204.00604	41
205.00839	200
205.01759	120
206.00984	39

NAME: Bergenin
PRECURSORMZ: 327.07215564783
PRECURSORTYPE: [M-H]-
INSTRUMENTTYPE: LC-ESI-QTOF
SMILES: COC1=C(O)C=C2C(=O)OC3C(O)C(O)C(CO)OC3C2=C1O
INCHIKEY: YWJXCIXBAKGUKZ-UHFFFAOYNA-N
Ontology: Gallic acid and derivatives
COLLISIONENERGY: 10
FORMULA: C14H16O9
RETENTIONTIME: 2.851733
IONMODE: Negative
Comment: registered in RIKEN PlaSMA
Num Peaks: 82
77.03431	9
93.03745	11
93.14697	9
105.03397	8
106.00074	9
121.02087	9
125.02074	22
131.01692	9
134.03606	8
135.00688	12
136.01494	8
137.01538	8
138.03203	9
138.03647	24
139.03505	10
145.02534	13
149.02486	27
150.03145	10
160.02422	8
161.02484	37
162.02893	25
162.04341	9
162.74414	9
163.03816	14
164.01108	95
165.0134	27
166.02493	80
173.02083	9
174.03737	8
176.00938	9
177.01959	41
178.02425	55
180.00078	13
183.02281	11
183.03178	13
189.01364	17
189.94557	11
190.01802	30
190.02725	91
190.03476	20
191.00148	9
191.02582	22
192.00552	624
193.00955	165
193.01729	115
194.01974	246
194.0676	10
195.01611	10
195.03104	9
195.83936	8
205.00107	13
205.01671	33
205.04565	9
206.02426	78
207.02821	518
208.03099	29
209.01039	8
209.04228	53
210.01097	8
210.05345	9
211.79973	9
221.0096	16
222.01138	37
222.02107	53
222.0472	9
223.01886	30
234.01576	235
235.01631	23
235.02673	9
237.00618	12
237.03687	9
237.04453	34
238.03398	17
249.03932	196
250.02898	11
251.06006	9
279.05823	9
312.04666	276
312.06992	9
313.04758	17
313.06219	23
327.07132	1000

NAME: Bergenin
PRECURSORMZ: 327.07215564783
PRECURSORTYPE: [M-H]-
INSTRUMENTTYPE: LC-ESI-QTOF
SMILES: COC1=C(O)C=C2C(=O)OC3C(O)C(O)C(CO)OC3C2=C1O
INCHIKEY: YWJXCIXBAKGUKZ-UHFFFAOYNA-N
Ontology: Gallic acid and derivatives
COLLISIONENERGY: 10
FORMULA: C14H16O9
RETENTIONTIME: 2.851733
IONMODE: Negative
Comment: registered in RIKEN PlaSMA
Num Peaks: 12
192.00571	8
193.00244	5
193.01326	6
194.01892	17
207.02951	186
208.0321	22
209.0322	5
237.04153	17
249.03857	70
250.04707	5
312.04892	59
327.07004	1000

NAME: Bergenin
PRECURSORMZ: 327.07215564783
PRECURSORTYPE: [M-H]-
INSTRUMENTTYPE: LC-ESI-QTOF
SMILES: COC1=C(O)C=C2C(=O)OC3C(O)C(O)C(CO)OC3C2=C1O
INCHIKEY: YWJXCIXBAKGUKZ-UHFFFAOYNA-N
Ontology: Gallic acid and derivatives
COLLISIONENERGY: 30
FORMULA: C14H16O9
RETENTIONTIME: 2.851733
IONMODE: Negative
Comment: registered in RIKEN PlaSMA
Num Peaks: 92
73.02687	6
91.56661	6
94.00424	6
106.03724	6
108.01585	5
118.03509	5
121.02751	6
123.00536	6
123.04156	6
124.00916	6
124.01578	22
125.01899	38
126.02341	6
133.02936	6
134.03914	11
134.1326	6
135.03818	6
136.01292	6
137.02292	6
138.03036	34
138.03914	12
146.03818	6
147.03278	6
148.01295	7
149.02408	22
150.02095	6
152.00197	9
152.01285	19
161.02142	84
162.02965	79
163.00455	5
163.03651	6
164.00917	80
164.02914	7
165.01886	31
166.02498	51
167.02321	6
167.02991	20
168.00758	7
168.77763	6
169.01161	6
173.0269	7
174.02768	7
176.00635	12
176.03882	6
177.01944	33
178.0248	24
178.99739	6
179.03149	7
180.00827	8
180.03604	9
181.00342	6
189.01239	7
189.02129	6
190.02382	216
190.99893	7
191.03275	35
192.00566	1000
192.03525	9
192.04953	6
193.01282	419
193.04642	5
194.00229	11
194.02007	349
195.0211	26
195.02849	18
196.03215	7
202.0318	6
205.01187	149
206.01167	42
206.02322	118
207.01633	11
207.02647	46
208.00113	11
210.03658	5
217.0164	5
221.00735	50
222.01472	40
223.0191	7
232.99567	6
233.01064	6
233.05103	7
234.01567	222
234.99016	5
235.02242	42
236.99734	11
247.02882	12
279.55283	7
294.03568	7
312.04596	5
312.06412	6
313.04962	6

NAME: Bergenin
PRECURSORMZ: 327.07215564783
PRECURSORTYPE: [M-H]-
INSTRUMENTTYPE: LC-ESI-QTOF
SMILES: COC1=C(O)C=C2C(=O)OC3C(O)C(O)C(CO)OC3C2=C1O
INCHIKEY: YWJXCIXBAKGUKZ-UHFFFAOYNA-N
Ontology: Gallic acid and derivatives
COLLISIONENERGY: 50
FORMULA: C14H16O9
RETENTIONTIME: 2.851733
IONMODE: Negative
Comment: registered in RIKEN PlaSMA
Num Peaks: 59
77.03722	238
78.04787	42
80.02083	44
92.62705	40
93.02611	44
93.03563	51
94.03992	64
105.03391	172
106.04089	42
107.05575	60
108.02011	238
109.0295	236
117.03133	86
117.03899	44
118.00554	46
119.04649	57
121.02939	302
122.02499	86
123.00452	46
124.01685	82
125.01902	51
125.02562	44
129.03305	53
131.00967	40
132.01471	106
133.02769	139
133.03778	46
134.03279	40
136.01501	232
137.01646	104
137.02417	272
138.02028	53
138.02626	49
145.02422	106
148.01025	40
149.02394	172
150.02243	42
151.00476	44
151.03914	55
160.01584	57
161.02414	488
162.99709	212
163.00941	68
163.03575	44
163.04538	40
164.00922	543
164.02235	97
165.022	113
166.02478	188
169.03746	66
177.01924	393
178.02344	102
187.00461	40
189.02533	97
192.00706	349
193.01225	1000
194.01996	119
205.01248	267
209.00961	40

NAME: Bergenin
PRECURSORMZ: 327.07215564783
PRECURSORTYPE: [M-H]-
INSTRUMENTTYPE: LC-ESI-QTOF
SMILES: COC1=C(O)C=C2C(=O)OC3C(O)C(O)C(CO)OC3C2=C1O
INCHIKEY: YWJXCIXBAKGUKZ-UHFFFAOYNA-N
Ontology: Gallic acid and derivatives
COLLISIONENERGY: 10
FORMULA: C14H16O9
RETENTIONTIME: 2.851733
IONMODE: Negative
Comment: registered in RIKEN PlaSMA
Num Peaks: 82
94.00162	10
101.76527	9
105.0318	18
109.22231	8
117.02995	9
123.03761	8
124.01319	8
125.02555	10
126.02408	9
133.03807	12
134.03619	17
136.02388	7
138.0293	8
145.02939	9
150.02957	16
152.01395	7
161.01758	45
161.0266	18
161.03569	7
161.06302	7
161.47089	10
162.01518	9
162.0302	24
162.03888	12
163.004	8
164.00876	91
164.01669	25
165.01094	7
165.01891	16
165.03207	9
166.01849	8
166.02975	53
167.99823	8
173.03268	13
175.03798	7
177.01883	42
178.02296	23
178.03107	16
179.99886	9
180.00688	9
181.04289	12
189.02557	10
190.02264	8
190.03288	18
192.00479	599
192.02502	10
193.01381	215
194.01793	330
195.02632	23
205.0099	69
206.01346	21
206.0215	45
207.02898	468
207.99632	7
208.02682	81
208.03635	25
209.03261	10
209.04489	36
220.03101	7
220.05458	9
221.00677	9
221.01826	18
222.01636	36
223.01541	9
223.02702	20
224.02866	14
225.03671	8
225.04675	7
233.00145	8
234.01494	267
235.01247	25
235.02464	23
236.01917	15
237.03778	128
249.03835	196
250.03966	15
288.42511	9
291.04266	8
294.03357	7
312.04883	206
327.0697	1000
327.09579	8

NAME: Bergenin
PRECURSORMZ: 327.07215564783
PRECURSORTYPE: [M-H]-
INSTRUMENTTYPE: LC-ESI-QTOF
SMILES: COC1=C(O)C=C2C(=O)OC3C(O)C(O)C(CO)OC3C2=C1O
INCHIKEY: YWJXCIXBAKGUKZ-UHFFFAOYNA-N
Ontology: Gallic acid and derivatives
COLLISIONENERGY: 10
FORMULA: C14H16O9
RETENTIONTIME: 2.851733
IONMODE: Negative
Comment: registered in RIKEN PlaSMA
Num Peaks: 13
192.00401	34
194.02225	17
207.02902	225
208.0316	16
209.04103	7
234.01546	7
237.02933	5
237.04037	22
237.04832	9
249.03922	74
312.0484	57
313.04648	15
327.07175	1000

NAME: Bergenin
PRECURSORMZ: 327.07215564783
PRECURSORTYPE: [M-H]-
INSTRUMENTTYPE: LC-ESI-QTOF
SMILES: COC1=C(O)C=C2C(=O)OC3C(O)C(O)C(CO)OC3C2=C1O
INCHIKEY: YWJXCIXBAKGUKZ-UHFFFAOYNA-N
Ontology: Gallic acid and derivatives
COLLISIONENERGY: 30
FORMULA: C14H16O9
RETENTIONTIME: 2.851733
IONMODE: Negative
Comment: registered in RIKEN PlaSMA
Num Peaks: 82
71.89161	6
88.42996	6
93.03481	6
105.03062	6
106.04262	15
124.00943	6
124.01939	8
125.02406	40
133.01985	6
133.02805	8
134.0369	14
136.0164	30
137.01857	6
137.0274	15
138.01889	9
138.03328	62
140.31863	7
148.01643	6
149.02069	13
151.04095	15
152.00996	34
154.79504	6
161.02174	100
161.04689	7
162.02847	61
162.03693	18
162.99582	6
163.03229	18
164.00902	70
164.02184	7
164.04282	8
165.0201	35
166.02386	113
166.13089	9
167.02684	6
168.00142	6
173.03131	9
174.03008	13
177.0191	53
178.01982	16
178.02838	21
179.02505	12
181.04103	6
189.01591	22
190.0249	186
190.04846	6
191.03401	35
192.00525	1000
193.01225	484
193.0526	6
194.01994	343
195.0215	21
195.02904	20
196.00705	6
196.03493	8
202.02797	6
203.03645	6
205.01361	116
205.02556	15
205.04654	6
206.01653	47
206.02782	28
207.02585	36
207.03731	7
209.01057	6
210.01331	6
214.02353	6
216.01402	6
220.02765	6
220.04257	6
221.00829	14
222.01605	52
223.01154	14
233.0007	15
234.0143	186
234.0388	6
235.01669	12
235.03262	21
236.01994	7
239.01454	15
249.03636	7
312.035	6

NAME: Bergenin
PRECURSORMZ: 327.07215564783
PRECURSORTYPE: [M-H]-
INSTRUMENTTYPE: LC-ESI-QTOF
SMILES: COC1=C(O)C=C2C(=O)OC3C(O)C(O)C(CO)OC3C2=C1O
INCHIKEY: YWJXCIXBAKGUKZ-UHFFFAOYNA-N
Ontology: Gallic acid and derivatives
COLLISIONENERGY: 50
FORMULA: C14H16O9
RETENTIONTIME: 2.851733
IONMODE: Negative
Comment: registered in RIKEN PlaSMA
Num Peaks: 67
65.00367	53
69.03106	40
75.02331	46
80.02838	70
89.03722	73
90.03969	42
91.02141	40
92.02493	40
105.0327	202
105.04001	44
107.05175	44
108.01971	92
109.00163	44
109.02563	178
117.03468	53
121.02017	64
121.03073	174
122.02567	40
123.00924	44
123.03637	42
123.04819	48
124.01077	48
124.02147	62
125.02327	51
132.01678	97
132.02765	44
133.02715	275
134.04178	55
135.00653	51
136.01054	116
136.01677	178
137.0209	187
137.02956	88
138.02158	42
147.00836	44
147.04488	64
148.01221	42
149.01826	44
149.02733	88
150.02736	57
151.00755	42
160.01016	46
161.02199	125
161.03117	121
162.02782	42
163.00424	136
164.01212	1000
165.00919	46
165.01924	132
166.0143	40
166.03099	42
173.02411	53
175.0083	123
176.00856	44
176.01477	116
177.02235	154
188.01231	44
189.02385	92
190.02428	42
192.00198	264
192.0233	73
193.01407	684
194.0164	81
203.04712	86
205.0135	248
206.00827	44
206.01875	42

NAME: Magnolol
PRECURSORMZ: 265.1234034
PRECURSORTYPE: [M-H]-
INSTRUMENTTYPE: LC-ESI-QTOF
SMILES: OC1=C(C=C(CC=C)C=C1)C1=C(O)C=CC(CC=C)=C1
INCHIKEY: VVOAZFWZEDHOOU-UHFFFAOYSA-N
Ontology: Biphenyls and derivatives
COLLISIONENERGY: 10
FORMULA: C18H18O2
RETENTIONTIME: 9.205833
IONMODE: Negative
Comment: registered in RIKEN PlaSMA
Num Peaks: 7
245.088	10
245.09709	38
247.11191	86
248.1073	6
248.11418	12
265.12234	1000
265.16846	8

NAME: Magnolol
PRECURSORMZ: 265.1234034
PRECURSORTYPE: [M-H]-
INSTRUMENTTYPE: LC-ESI-QTOF
SMILES: OC1=C(C=C(CC=C)C=C1)C1=C(O)C=CC(CC=C)=C1
INCHIKEY: VVOAZFWZEDHOOU-UHFFFAOYSA-N
Ontology: Biphenyls and derivatives
COLLISIONENERGY: 10
FORMULA: C18H18O2
RETENTIONTIME: 9.205833
IONMODE: Negative
Comment: registered in RIKEN PlaSMA
Num Peaks: 2
265.1218	1000
265.16751	16

NAME: Magnolol
PRECURSORMZ: 265.1234034
PRECURSORTYPE: [M-H]-
INSTRUMENTTYPE: LC-ESI-QTOF
SMILES: OC1=C(C=C(CC=C)C=C1)C1=C(O)C=CC(CC=C)=C1
INCHIKEY: VVOAZFWZEDHOOU-UHFFFAOYSA-N
Ontology: Biphenyls and derivatives
COLLISIONENERGY: 30
FORMULA: C18H18O2
RETENTIONTIME: 9.205833
IONMODE: Negative
Comment: registered in RIKEN PlaSMA
Num Peaks: 58
91.04934	9
91.05429	9
117.03493	15
119.04552	28
119.05522	14
133.05711	16
133.06685	11
141.07402	11
158.06882	11
165.06628	9
171.04747	12
171.07494	10
172.04477	10
173.06662	9
177.12184	10
193.06088	21
194.06313	12
196.08711	20
198.0638	14
198.07242	11
204.05032	25
204.05902	52
205.05827	23
205.06764	46
206.0602	11
206.07375	96
207.07297	11
207.07993	30
216.08958	26
217.08951	10
219.07915	31
220.07716	18
220.08482	47
221.08795	31
221.09583	17
222.05739	12
222.10233	10
223.07651	178
224.08063	23
238.10574	19
242.07698	10
243.68358	14
244.09047	10
245.09601	908
246.09656	124
246.1115	21
246.13741	14
246.30296	9
247.11249	1000
247.13387	10
247.57281	12
248.11407	143
249.11316	10
249.1259	21
250.11971	11
263.09497	9
264.11942	9
265.11816	112

NAME: Magnolol
PRECURSORMZ: 265.1234034
PRECURSORTYPE: [M-H]-
INSTRUMENTTYPE: LC-ESI-QTOF
SMILES: OC1=C(C=C(CC=C)C=C1)C1=C(O)C=CC(CC=C)=C1
INCHIKEY: VVOAZFWZEDHOOU-UHFFFAOYSA-N
Ontology: Biphenyls and derivatives
COLLISIONENERGY: 50
FORMULA: C18H18O2
RETENTIONTIME: 9.205833
IONMODE: Negative
Comment: registered in RIKEN PlaSMA
Num Peaks: 16
89.03928	277
130.04173	431
169.06418	292
180.05916	431
182.03192	585
184.05365	369
193.06918	615
195.08455	277
204.05547	662
209.09946	323
215.05519	369
242.07652	308
243.07756	1000
244.09447	415
245.09393	415
265.12543	323

NAME: Magnolol
PRECURSORMZ: 265.1234034
PRECURSORTYPE: [M-H]-
INSTRUMENTTYPE: LC-ESI-QTOF
SMILES: OC1=C(C=C(CC=C)C=C1)C1=C(O)C=CC(CC=C)=C1
INCHIKEY: VVOAZFWZEDHOOU-UHFFFAOYSA-N
Ontology: Biphenyls and derivatives
COLLISIONENERGY: 10
FORMULA: C18H18O2
RETENTIONTIME: 9.205833
IONMODE: Negative
Comment: registered in RIKEN PlaSMA
Num Peaks: 5
245.09773	28
247.11198	90
248.11658	15
265.12177	1000
265.1691	8

NAME: Magnolol
PRECURSORMZ: 265.1234034
PRECURSORTYPE: [M-H]-
INSTRUMENTTYPE: LC-ESI-QTOF
SMILES: OC1=C(C=C(CC=C)C=C1)C1=C(O)C=CC(CC=C)=C1
INCHIKEY: VVOAZFWZEDHOOU-UHFFFAOYSA-N
Ontology: Biphenyls and derivatives
COLLISIONENERGY: 10
FORMULA: C18H18O2
RETENTIONTIME: 9.205833
IONMODE: Negative
Comment: registered in RIKEN PlaSMA
Num Peaks: 2
265.12244	1000
265.16809	11

NAME: Magnolol
PRECURSORMZ: 265.1234034
PRECURSORTYPE: [M-H]-
INSTRUMENTTYPE: LC-ESI-QTOF
SMILES: OC1=C(C=C(CC=C)C=C1)C1=C(O)C=CC(CC=C)=C1
INCHIKEY: VVOAZFWZEDHOOU-UHFFFAOYSA-N
Ontology: Biphenyls and derivatives
COLLISIONENERGY: 30
FORMULA: C18H18O2
RETENTIONTIME: 9.205833
IONMODE: Negative
Comment: registered in RIKEN PlaSMA
Num Peaks: 54
106.04195	10
119.04929	16
131.04793	10
133.06688	12
141.06366	11
157.06221	14
166.70259	16
173.0583	11
179.08885	11
181.0603	12
189.0728	10
196.08153	14
196.09091	17
198.06743	32
202.92686	15
205.06355	14
206.04884	12
206.07228	46
207.06744	12
207.07896	11
216.10034	11
218.07602	34
220.08578	25
220.09752	25
221.09843	10
223.05843	14
223.07378	51
223.08234	25
224.07713	11
224.09116	33
235.11319	15
237.08804	15
238.09465	12
239.09659	12
239.10797	11
242.07611	10
243.07703	26
243.0865	40
244.08806	10
244.1015	11
245.09697	809
245.12129	10
245.15166	10
245.83173	14
246.09985	156
247.11211	1000
247.87021	11
248.11893	134
249.10583	10
249.11665	18
249.1259	11
263.10751	33
265.1192	76
265.12811	138

NAME: Magnolol
PRECURSORMZ: 265.1234034
PRECURSORTYPE: [M-H]-
INSTRUMENTTYPE: LC-ESI-QTOF
SMILES: OC1=C(C=C(CC=C)C=C1)C1=C(O)C=CC(CC=C)=C1
INCHIKEY: VVOAZFWZEDHOOU-UHFFFAOYSA-N
Ontology: Biphenyls and derivatives
COLLISIONENERGY: 50
FORMULA: C18H18O2
RETENTIONTIME: 9.205833
IONMODE: Negative
Comment: registered in RIKEN PlaSMA
Num Peaks: 19
130.0403	377
141.07037	426
154.05133	361
178.63536	311
193.06874	295
204.05672	311
205.06253	295
217.05975	344
218.07439	311
218.08205	393
219.06723	344
219.07951	361
222.05939	361
243.07248	393
243.07985	1000
243.09196	295
244.08846	344
247.11267	328
247.87854	295

NAME: Magnolol
PRECURSORMZ: 265.1234034
PRECURSORTYPE: [M-H]-
INSTRUMENTTYPE: LC-ESI-QTOF
SMILES: OC1=C(C=C(CC=C)C=C1)C1=C(O)C=CC(CC=C)=C1
INCHIKEY: VVOAZFWZEDHOOU-UHFFFAOYSA-N
Ontology: Biphenyls and derivatives
COLLISIONENERGY: 10
FORMULA: C18H18O2
RETENTIONTIME: 9.205833
IONMODE: Negative
Comment: registered in RIKEN PlaSMA
Num Peaks: 7
245.09511	36
246.09637	6
247.1114	97
248.11034	9
248.11845	9
265.1217	1000
265.16711	11

NAME: Magnolol
PRECURSORMZ: 265.1234034
PRECURSORTYPE: [M-H]-
INSTRUMENTTYPE: LC-ESI-QTOF
SMILES: OC1=C(C=C(CC=C)C=C1)C1=C(O)C=CC(CC=C)=C1
INCHIKEY: VVOAZFWZEDHOOU-UHFFFAOYSA-N
Ontology: Biphenyls and derivatives
COLLISIONENERGY: 10
FORMULA: C18H18O2
RETENTIONTIME: 9.205833
IONMODE: Negative
Comment: registered in RIKEN PlaSMA
Num Peaks: 2
265.12216	1000
265.16776	22

NAME: Magnolol
PRECURSORMZ: 265.1234034
PRECURSORTYPE: [M-H]-
INSTRUMENTTYPE: LC-ESI-QTOF
SMILES: OC1=C(C=C(CC=C)C=C1)C1=C(O)C=CC(CC=C)=C1
INCHIKEY: VVOAZFWZEDHOOU-UHFFFAOYSA-N
Ontology: Biphenyls and derivatives
COLLISIONENERGY: 50
FORMULA: C18H18O2
RETENTIONTIME: 9.205833
IONMODE: Negative
Comment: registered in RIKEN PlaSMA
Num Peaks: 21
77.03915	185
119.04701	454
133.07077	138
141.06339	154
151.05496	138
157.06461	200
164.05766	185
168.04582	154
182.03772	377
205.06049	585
206.06523	208
206.07487	185
217.06854	308
222.06375	315
223.07495	154
242.07564	138
243.07977	154
243.09125	185
245.09241	192
245.10158	138
265.12515	1000

NAME: Magnolol
PRECURSORMZ: 311.128882704
PRECURSORTYPE: [M+FA-H]-
INSTRUMENTTYPE: LC-ESI-QTOF
SMILES: OC1=C(C=C(CC=C)C=C1)C1=C(O)C=CC(CC=C)=C1
INCHIKEY: VVOAZFWZEDHOOU-UHFFFAOYSA-N
Ontology: Biphenyls and derivatives
COLLISIONENERGY: 50
FORMULA: C18H18O2
RETENTIONTIME: 9.205833
IONMODE: Negative
Comment: registered in RIKEN PlaSMA
Num Peaks: 1
182.07492	1000

NAME: Loganin
PRECURSORMZ: 435.150799904
PRECURSORTYPE: [M+FA-H]-
INSTRUMENTTYPE: LC-ESI-QTOF
SMILES: COC(=O)C1=COC(OC2OC(CO)C(O)C(O)C2O)C2C(C)C(O)CC12
INCHIKEY: AMBQHHVBBHTQBF-UHFFFAOYNA-N
Ontology: Iridoid O-glycosides
COLLISIONENERGY: 10
FORMULA: C17H26O10
RETENTIONTIME: 3.364367
IONMODE: Negative
Comment: registered in RIKEN PlaSMA
Num Peaks: 15
101.02396	66
127.03812	60
128.03459	8
209.08478	16
221.41432	7
227.08939	333
227.10835	9
228.08833	19
228.09578	22
229.09831	15
359.11166	9
389.13647	37
389.16302	10
390.15408	8
435.14886	1000

NAME: Loganin
PRECURSORMZ: 435.150799904
PRECURSORTYPE: [M+FA-H]-
INSTRUMENTTYPE: LC-ESI-QTOF
SMILES: COC(=O)C1=COC(OC2OC(CO)C(O)C(O)C2O)C2C(C)C(O)CC12
INCHIKEY: AMBQHHVBBHTQBF-UHFFFAOYNA-N
Ontology: Iridoid O-glycosides
COLLISIONENERGY: 10
FORMULA: C17H26O10
RETENTIONTIME: 3.364367
IONMODE: Negative
Comment: registered in RIKEN PlaSMA
Num Peaks: 4
227.09106	132
228.0894	11
389.14346	34
435.14999	1000

NAME: Loganin
PRECURSORMZ: 435.150799904
PRECURSORTYPE: [M+FA-H]-
INSTRUMENTTYPE: LC-ESI-QTOF
SMILES: COC(=O)C1=COC(OC2OC(CO)C(O)C(O)C2O)C2C(C)C(O)CC12
INCHIKEY: AMBQHHVBBHTQBF-UHFFFAOYNA-N
Ontology: Iridoid O-glycosides
COLLISIONENERGY: 30
FORMULA: C17H26O10
RETENTIONTIME: 3.364367
IONMODE: Negative
Comment: registered in RIKEN PlaSMA
Num Peaks: 6
101.02413	1000
127.03803	975
151.07613	61
227.07965	117
227.09431	201
228.09024	53

NAME: Loganin
PRECURSORMZ: 389.1453206
PRECURSORTYPE: [M-H]-
INSTRUMENTTYPE: LC-ESI-QTOF
SMILES: COC(=O)C1=COC(OC2OC(CO)C(O)C(O)C2O)C2C(C)C(O)CC12
INCHIKEY: AMBQHHVBBHTQBF-UHFFFAOYNA-N
Ontology: Iridoid O-glycosides
COLLISIONENERGY: 50
FORMULA: C17H26O10
RETENTIONTIME: 3.364367
IONMODE: Negative
Comment: registered in RIKEN PlaSMA
Num Peaks: 1
68.99674	1000

NAME: Loganin
PRECURSORMZ: 435.150799904
PRECURSORTYPE: [M+FA-H]-
INSTRUMENTTYPE: LC-ESI-QTOF
SMILES: COC(=O)C1=COC(OC2OC(CO)C(O)C(O)C2O)C2C(C)C(O)CC12
INCHIKEY: AMBQHHVBBHTQBF-UHFFFAOYNA-N
Ontology: Iridoid O-glycosides
COLLISIONENERGY: 50
FORMULA: C17H26O10
RETENTIONTIME: 3.364367
IONMODE: Negative
Comment: registered in RIKEN PlaSMA
Num Peaks: 6
67.01511	131
101.02392	136
112.01276	102
127.03951	1000
128.04187	108
166.06567	114

NAME: Loganin
PRECURSORMZ: 435.150799904
PRECURSORTYPE: [M+FA-H]-
INSTRUMENTTYPE: LC-ESI-QTOF
SMILES: COC(=O)C1=COC(OC2OC(CO)C(O)C(O)C2O)C2C(C)C(O)CC12
INCHIKEY: AMBQHHVBBHTQBF-UHFFFAOYNA-N
Ontology: Iridoid O-glycosides
COLLISIONENERGY: 10
FORMULA: C17H26O10
RETENTIONTIME: 3.364367
IONMODE: Negative
Comment: registered in RIKEN PlaSMA
Num Peaks: 19
59.00926	11
101.02457	60
102.0266	8
103.0245	7
114.01962	10
127.03661	48
127.04943	10
128.04601	15
174.60196	9
179.0502	9
209.09088	10
227.08972	347
227.09805	101
228.09131	39
229.08641	9
365.87024	7
389.13782	21
390.15472	7
435.14902	1000

NAME: Loganin
PRECURSORMZ: 435.150799904
PRECURSORTYPE: [M+FA-H]-
INSTRUMENTTYPE: LC-ESI-QTOF
SMILES: COC(=O)C1=COC(OC2OC(CO)C(O)C(O)C2O)C2C(C)C(O)CC12
INCHIKEY: AMBQHHVBBHTQBF-UHFFFAOYNA-N
Ontology: Iridoid O-glycosides
COLLISIONENERGY: 10
FORMULA: C17H26O10
RETENTIONTIME: 3.364367
IONMODE: Negative
Comment: registered in RIKEN PlaSMA
Num Peaks: 5
227.09167	117
228.08568	6
389.13068	7
389.14389	16
435.14981	1000

NAME: Loganin
PRECURSORMZ: 389.1453206
PRECURSORTYPE: [M-H]-
INSTRUMENTTYPE: LC-ESI-QTOF
SMILES: COC(=O)C1=COC(OC2OC(CO)C(O)C(O)C2O)C2C(C)C(O)CC12
INCHIKEY: AMBQHHVBBHTQBF-UHFFFAOYNA-N
Ontology: Iridoid O-glycosides
COLLISIONENERGY: 50
FORMULA: C17H26O10
RETENTIONTIME: 3.364367
IONMODE: Negative
Comment: registered in RIKEN PlaSMA
Num Peaks: 2
68.99812	1000
127.03619	783

NAME: Loganin
PRECURSORMZ: 435.150799904
PRECURSORTYPE: [M+FA-H]-
INSTRUMENTTYPE: LC-ESI-QTOF
SMILES: COC(=O)C1=COC(OC2OC(CO)C(O)C(O)C2O)C2C(C)C(O)CC12
INCHIKEY: AMBQHHVBBHTQBF-UHFFFAOYNA-N
Ontology: Iridoid O-glycosides
COLLISIONENERGY: 50
FORMULA: C17H26O10
RETENTIONTIME: 3.364367
IONMODE: Negative
Comment: registered in RIKEN PlaSMA
Num Peaks: 7
67.01745	141
68.99317	227
85.71038	188
101.01847	156
101.02966	195
101.8542	148
127.03853	1000

NAME: Loganin
PRECURSORMZ: 435.150799904
PRECURSORTYPE: [M+FA-H]-
INSTRUMENTTYPE: LC-ESI-QTOF
SMILES: COC(=O)C1=COC(OC2OC(CO)C(O)C(O)C2O)C2C(C)C(O)CC12
INCHIKEY: AMBQHHVBBHTQBF-UHFFFAOYNA-N
Ontology: Iridoid O-glycosides
COLLISIONENERGY: 10
FORMULA: C17H26O10
RETENTIONTIME: 3.364367
IONMODE: Negative
Comment: registered in RIKEN PlaSMA
Num Peaks: 15
101.0247	17
102.03143	10
127.03482	30
127.04315	18
227.06493	8
227.09102	386
228.0882	31
229.092	8
278.67151	9
389.14255	36
389.15979	9
389.78888	9
390.14084	10
418.53043	9
435.15115	1000

NAME: Loganin
PRECURSORMZ: 435.150799904
PRECURSORTYPE: [M+FA-H]-
INSTRUMENTTYPE: LC-ESI-QTOF
SMILES: COC(=O)C1=COC(OC2OC(CO)C(O)C(O)C2O)C2C(C)C(O)CC12
INCHIKEY: AMBQHHVBBHTQBF-UHFFFAOYNA-N
Ontology: Iridoid O-glycosides
COLLISIONENERGY: 10
FORMULA: C17H26O10
RETENTIONTIME: 3.364367
IONMODE: Negative
Comment: registered in RIKEN PlaSMA
Num Peaks: 4
227.09091	104
228.092	25
389.14398	17
435.14984	1000

NAME: Loganin
PRECURSORMZ: 389.1453206
PRECURSORTYPE: [M-H]-
INSTRUMENTTYPE: LC-ESI-QTOF
SMILES: COC(=O)C1=COC(OC2OC(CO)C(O)C(O)C2O)C2C(C)C(O)CC12
INCHIKEY: AMBQHHVBBHTQBF-UHFFFAOYNA-N
Ontology: Iridoid O-glycosides
COLLISIONENERGY: 50
FORMULA: C17H26O10
RETENTIONTIME: 3.364367
IONMODE: Negative
Comment: registered in RIKEN PlaSMA
Num Peaks: 2
101.02062	889
127.03953	1000

NAME: Loganin
PRECURSORMZ: 435.150799904
PRECURSORTYPE: [M+FA-H]-
INSTRUMENTTYPE: LC-ESI-QTOF
SMILES: COC(=O)C1=COC(OC2OC(CO)C(O)C(O)C2O)C2C(C)C(O)CC12
INCHIKEY: AMBQHHVBBHTQBF-UHFFFAOYNA-N
Ontology: Iridoid O-glycosides
COLLISIONENERGY: 50
FORMULA: C17H26O10
RETENTIONTIME: 3.364367
IONMODE: Negative
Comment: registered in RIKEN PlaSMA
Num Peaks: 6
67.01511	146
101.02066	472
101.02616	298
106.04478	101
127.03919	1000
128.04796	101

NAME: Isofraxidin
PRECURSORMZ: 221.04554694783
PRECURSORTYPE: [M-H]-
INSTRUMENTTYPE: LC-ESI-QTOF
SMILES: COC1=C(O)C(OC)=C2OC(=O)C=CC2=C1
INCHIKEY: HOEVRHHMDJKUMZ-UHFFFAOYSA-N
Ontology: 7-hydroxycoumarins
COLLISIONENERGY: 10
FORMULA: C11H10O5
RETENTIONTIME: 4.277633
IONMODE: Negative
Comment: registered in RIKEN PlaSMA
Num Peaks: 24
51.01942	8
65.03594	7
79.02076	36
86.34081	6
107.01355	40
107.02122	5
119.01339	34
135.00789	107
147.01164	17
150.03197	13
162.02777	13
162.03825	6
163.00316	227
164.00574	20
165.98975	5
178.02875	12
190.99776	732
191.99902	19
192.99939	8
206.02147	1000
207.00922	6
207.02423	65
208.03195	13
221.04491	393

NAME: Isofraxidin
PRECURSORMZ: 221.04554694783
PRECURSORTYPE: [M-H]-
INSTRUMENTTYPE: LC-ESI-QTOF
SMILES: COC1=C(O)C(OC)=C2OC(=O)C=CC2=C1
INCHIKEY: HOEVRHHMDJKUMZ-UHFFFAOYSA-N
Ontology: 7-hydroxycoumarins
COLLISIONENERGY: 10
FORMULA: C11H10O5
RETENTIONTIME: 4.277633
IONMODE: Negative
Comment: registered in RIKEN PlaSMA
Num Peaks: 6
190.99937	38
191.99614	8
192.00999	6
206.02092	924
207.02359	114
221.04509	1000

NAME: Isofraxidin
PRECURSORMZ: 221.04554694783
PRECURSORTYPE: [M-H]-
INSTRUMENTTYPE: LC-ESI-QTOF
SMILES: COC1=C(O)C(OC)=C2OC(=O)C=CC2=C1
INCHIKEY: HOEVRHHMDJKUMZ-UHFFFAOYSA-N
Ontology: 7-hydroxycoumarins
COLLISIONENERGY: 30
FORMULA: C11H10O5
RETENTIONTIME: 4.277633
IONMODE: Negative
Comment: registered in RIKEN PlaSMA
Num Peaks: 33
64.99966	19
67.01618	18
72.79115	8
79.01565	145
80.01911	8
81.03205	20
84.96339	8
91.01863	53
95.01282	8
103.01325	8
107.01263	493
108.01582	25
119.01302	125
120.01357	12
134.03329	8
135.00638	737
136.01317	55
137.01413	9
147.00551	32
149.01926	36
163.00243	1000
164.00087	45
164.00745	25
165.0047	20
165.25626	8
166.01022	11
178.01436	8
190.99629	507
192.00012	50
202.99693	8
205.0061	10
206.02579	8
207.01958	17

NAME: Isofraxidin
PRECURSORMZ: 221.04554694783
PRECURSORTYPE: [M-H]-
INSTRUMENTTYPE: LC-ESI-QTOF
SMILES: COC1=C(O)C(OC)=C2OC(=O)C=CC2=C1
INCHIKEY: HOEVRHHMDJKUMZ-UHFFFAOYSA-N
Ontology: 7-hydroxycoumarins
COLLISIONENERGY: 50
FORMULA: C11H10O5
RETENTIONTIME: 4.277633
IONMODE: Negative
Comment: registered in RIKEN PlaSMA
Num Peaks: 5
51.02163	116
79.0163	1000
91.02023	285
107.01204	250
119.01514	145

NAME: Isofraxidin
PRECURSORMZ: 221.04554694783
PRECURSORTYPE: [M-H]-
INSTRUMENTTYPE: LC-ESI-QTOF
SMILES: COC1=C(O)C(OC)=C2OC(=O)C=CC2=C1
INCHIKEY: HOEVRHHMDJKUMZ-UHFFFAOYSA-N
Ontology: 7-hydroxycoumarins
COLLISIONENERGY: 10
FORMULA: C11H10O5
RETENTIONTIME: 4.277633
IONMODE: Negative
Comment: registered in RIKEN PlaSMA
Num Peaks: 22
78.03571	8
79.01282	5
79.0181	16
90.66225	7
106.7902	5
107.01134	67
119.01102	15
135.00771	51
135.01529	30
135.28745	6
136.0126	5
149.01988	6
163.00285	224
164.00813	6
175.00937	7
190.99757	653
191.02084	5
191.99982	55
206.02054	1000
207.02449	105
208.02753	8
221.04486	488

NAME: Isofraxidin
PRECURSORMZ: 221.04554694783
PRECURSORTYPE: [M-H]-
INSTRUMENTTYPE: LC-ESI-QTOF
SMILES: COC1=C(O)C(OC)=C2OC(=O)C=CC2=C1
INCHIKEY: HOEVRHHMDJKUMZ-UHFFFAOYSA-N
Ontology: 7-hydroxycoumarins
COLLISIONENERGY: 10
FORMULA: C11H10O5
RETENTIONTIME: 4.277633
IONMODE: Negative
Comment: registered in RIKEN PlaSMA
Num Peaks: 6
162.03673	7
162.34381	5
190.99796	66
206.02084	1000
207.02345	87
221.04492	986

NAME: Isofraxidin
PRECURSORMZ: 221.04554694783
PRECURSORTYPE: [M-H]-
INSTRUMENTTYPE: LC-ESI-QTOF
SMILES: COC1=C(O)C(OC)=C2OC(=O)C=CC2=C1
INCHIKEY: HOEVRHHMDJKUMZ-UHFFFAOYSA-N
Ontology: 7-hydroxycoumarins
COLLISIONENERGY: 30
FORMULA: C11H10O5
RETENTIONTIME: 4.277633
IONMODE: Negative
Comment: registered in RIKEN PlaSMA
Num Peaks: 28
79.01831	132
80.01923	11
91.02051	61
92.02142	12
93.4733	17
107.01212	532
108.01279	30
108.02033	32
117.31698	13
119.0124	181
120.01511	12
120.11151	22
132.98723	11
135.00702	1000
136.0069	10
136.01312	26
137.01685	10
147.00635	25
148.01085	11
163.00136	793
164.00438	116
164.01321	27
177.01546	24
190.99629	541
191.99965	91
192.01035	13
205.01045	12
206.01714	24

NAME: Isofraxidin
PRECURSORMZ: 221.04554694783
PRECURSORTYPE: [M-H]-
INSTRUMENTTYPE: LC-ESI-QTOF
SMILES: COC1=C(O)C(OC)=C2OC(=O)C=CC2=C1
INCHIKEY: HOEVRHHMDJKUMZ-UHFFFAOYSA-N
Ontology: 7-hydroxycoumarins
COLLISIONENERGY: 50
FORMULA: C11H10O5
RETENTIONTIME: 4.277633
IONMODE: Negative
Comment: registered in RIKEN PlaSMA
Num Peaks: 3
63.02371	382
107.0145	1000
119.01014	316

NAME: Isofraxidin
PRECURSORMZ: 221.04554694783
PRECURSORTYPE: [M-H]-
INSTRUMENTTYPE: LC-ESI-QTOF
SMILES: COC1=C(O)C(OC)=C2OC(=O)C=CC2=C1
INCHIKEY: HOEVRHHMDJKUMZ-UHFFFAOYSA-N
Ontology: 7-hydroxycoumarins
COLLISIONENERGY: 10
FORMULA: C11H10O5
RETENTIONTIME: 4.277633
IONMODE: Negative
Comment: registered in RIKEN PlaSMA
Num Peaks: 20
51.0202	6
79.01448	5
79.01923	13
107.01399	68
119.01005	10
135.00862	116
136.0098	17
136.01717	5
163.0031	209
164.00421	16
177.01324	6
190.99724	615
192.00381	34
192.99754	11
193.0083	8
206.02106	1000
207.02452	98
208.01855	7
208.0273	13
221.04427	459

NAME: Isofraxidin
PRECURSORMZ: 221.04554694783
PRECURSORTYPE: [M-H]-
INSTRUMENTTYPE: LC-ESI-QTOF
SMILES: COC1=C(O)C(OC)=C2OC(=O)C=CC2=C1
INCHIKEY: HOEVRHHMDJKUMZ-UHFFFAOYSA-N
Ontology: 7-hydroxycoumarins
COLLISIONENERGY: 10
FORMULA: C11H10O5
RETENTIONTIME: 4.277633
IONMODE: Negative
Comment: registered in RIKEN PlaSMA
Num Peaks: 5
190.99625	53
206.02129	944
207.0238	92
208.02382	14
221.04413	1000

NAME: Isofraxidin
PRECURSORMZ: 221.04554694783
PRECURSORTYPE: [M-H]-
INSTRUMENTTYPE: LC-ESI-QTOF
SMILES: COC1=C(O)C(OC)=C2OC(=O)C=CC2=C1
INCHIKEY: HOEVRHHMDJKUMZ-UHFFFAOYSA-N
Ontology: 7-hydroxycoumarins
COLLISIONENERGY: 30
FORMULA: C11H10O5
RETENTIONTIME: 4.277633
IONMODE: Negative
Comment: registered in RIKEN PlaSMA
Num Peaks: 53
51.02107	11
63.02133	11
64.99713	17
67.01656	5
68.99146	5
69.03701	5
77.04261	7
78.97747	6
79.01711	241
80.01528	8
80.0259	6
81.03357	6
91.01778	40
95.02042	6
107.01228	662
108.01125	5
108.01772	14
109.01586	12
112.01211	6
119.01254	118
120.0155	6
120.97327	6
120.9913	6
121.95226	5
133.01863	5
133.02687	8
135.00728	734
136.01173	61
136.05557	6
137.0148	11
140.8622	5
147.01102	70
148.98578	7
149.01263	5
149.02583	5
150.03534	6
159.00462	6
163.00145	1000
164.00383	51
164.01715	7
165.00877	7
175.0025	5
177.01805	6
178.02719	5
184.18472	6
184.44705	6
189.01659	6
190.99689	658
191.99586	39
192.00615	29
193.00591	12
206.02187	23
206.03659	6

NAME: Isofraxidin
PRECURSORMZ: 221.04554694783
PRECURSORTYPE: [M-H]-
INSTRUMENTTYPE: LC-ESI-QTOF
SMILES: COC1=C(O)C(OC)=C2OC(=O)C=CC2=C1
INCHIKEY: HOEVRHHMDJKUMZ-UHFFFAOYSA-N
Ontology: 7-hydroxycoumarins
COLLISIONENERGY: 50
FORMULA: C11H10O5
RETENTIONTIME: 4.277633
IONMODE: Negative
Comment: registered in RIKEN PlaSMA
Num Peaks: 8
68.99492	74
79.01823	1000
80.01572	74
107.00957	70
107.01636	133
135.01109	81
136.01025	111
191.00317	70

NAME: Wogonin
PRECURSORMZ: 283.06119704783
PRECURSORTYPE: [M-H]-
INSTRUMENTTYPE: LC-ESI-QTOF
SMILES: COC1=C(O)C=C(O)C2=C1OC(=CC2=O)C1=CC=CC=C1
INCHIKEY: XLTFNNCXVBYBSX-UHFFFAOYSA-N
Ontology: 8-O-methylated flavonoids
COLLISIONENERGY: 10
FORMULA: C16H12O5
RETENTIONTIME: 7.2774
IONMODE: Negative
Comment: registered in RIKEN PlaSMA
Num Peaks: 28
94.00053	7
95.01728	7
110.00005	44
120.01627	6
120.99456	7
135.00632	8
137.99875	7
139.05528	9
163.00261	121
164.00716	18
165.98863	44
167.04889	12
171.04604	6
172.05133	7
184.05061	38
196.05028	15
198.03246	38
211.03929	13
212.04337	8
223.04163	6
224.04225	7
224.05504	5
239.03558	35
267.02719	14
268.03613	1000
269.04099	151
270.04666	10
283.06061	573

NAME: Wogonin
PRECURSORMZ: 283.06119704783
PRECURSORTYPE: [M-H]-
INSTRUMENTTYPE: LC-ESI-QTOF
SMILES: COC1=C(O)C=C(O)C2=C1OC(=CC2=O)C1=CC=CC=C1
INCHIKEY: XLTFNNCXVBYBSX-UHFFFAOYSA-N
Ontology: 8-O-methylated flavonoids
COLLISIONENERGY: 10
FORMULA: C16H12O5
RETENTIONTIME: 7.2774
IONMODE: Negative
Comment: registered in RIKEN PlaSMA
Num Peaks: 3
268.03656	390
269.04083	39
283.05957	1000

NAME: Wogonin
PRECURSORMZ: 283.06119704783
PRECURSORTYPE: [M-H]-
INSTRUMENTTYPE: LC-ESI-QTOF
SMILES: COC1=C(O)C=C(O)C2=C1OC(=CC2=O)C1=CC=CC=C1
INCHIKEY: XLTFNNCXVBYBSX-UHFFFAOYSA-N
Ontology: 8-O-methylated flavonoids
COLLISIONENERGY: 30
FORMULA: C16H12O5
RETENTIONTIME: 7.2774
IONMODE: Negative
Comment: registered in RIKEN PlaSMA
Num Peaks: 92
51.02183	5
66.01285	10
81.03279	5
82.00624	27
93.00462	7
94.00723	12
95.01001	46
109.036	5
109.99886	534
111.00184	17
111.00768	6
115.05152	25
116.06071	6
119.01321	86
120.99174	11
121.99799	19
130.0403	6
135.00806	89
136.98579	14
137.99176	83
137.99916	33
138.03296	8
139.03958	6
139.04906	51
139.05518	92
140.05684	39
140.0699	6
140.49632	6
148.98547	13
149.98842	11
156.05463	12
157.06029	12
163.00189	1000
164.00371	55
164.85059	7
165.00887	10
165.989	283
166.99066	16
166.99786	12
167.04884	45
167.05908	7
168.00027	5
168.05707	17
169.0219	10
170.02975	6
171.03905	38
172.03647	6
172.05356	45
173.27126	5
176.9861	7
178.03886	15
180.05014	7
180.06409	5
182.03075	24
183.03807	7
184.05064	150
184.05803	55
185.05653	45
191.00049	24
192.00034	6
195.0425	81
196.04498	34
196.0531	50
196.06017	20
197.04691	19
197.0596	8
198.03035	82
198.04756	5
200.05289	6
202.84401	5
210.03191	5
211.03148	41
211.04128	133
212.04427	102
213.03929	6
213.05122	5
223.03116	17
223.04213	29
224.04207	22
224.05472	23
225.04874	12
230.32513	7
239.03242	141
239.09605	5
240.03091	16
240.04433	27
250.0264	12
266.00708	7
267.02606	93
268.03638	490
269.03717	78
269.05286	14

NAME: Wogonin
PRECURSORMZ: 283.06119704783
PRECURSORTYPE: [M-H]-
INSTRUMENTTYPE: LC-ESI-QTOF
SMILES: COC1=C(O)C=C(O)C2=C1OC(=CC2=O)C1=CC=CC=C1
INCHIKEY: XLTFNNCXVBYBSX-UHFFFAOYSA-N
Ontology: 8-O-methylated flavonoids
COLLISIONENERGY: 50
FORMULA: C16H12O5
RETENTIONTIME: 7.2774
IONMODE: Negative
Comment: registered in RIKEN PlaSMA
Num Peaks: 44
51.02462	51
51.27671	45
63.01905	60
65.00015	136
65.00414	116
66.01102	156
68.99308	47
68.99765	151
69.99889	40
77.00298	45
79.02094	45
82.00414	332
83.00677	42
91.01451	62
91.02147	40
92.99289	56
95.00857	51
95.01315	89
96.98705	51
101.04714	45
107.00954	45
110.00014	1000
111.0077	149
115.05442	47
120.01577	40
135.00684	227
136.9792	45
137.99576	62
139.04637	62
139.0545	388
140.05745	127
141.03004	65
141.06084	53
142.03561	87
145.0274	49
154.03639	40
162.99933	47
163.00969	376
165.99156	45
167.04736	85
169.0363	45
171.0502	45
183.04622	53
239.0209	40

NAME: Wogonin
PRECURSORMZ: 283.06119704783
PRECURSORTYPE: [M-H]-
INSTRUMENTTYPE: LC-ESI-QTOF
SMILES: COC1=C(O)C=C(O)C2=C1OC(=CC2=O)C1=CC=CC=C1
INCHIKEY: XLTFNNCXVBYBSX-UHFFFAOYSA-N
Ontology: 8-O-methylated flavonoids
COLLISIONENERGY: 10
FORMULA: C16H12O5
RETENTIONTIME: 7.2774
IONMODE: Negative
Comment: registered in RIKEN PlaSMA
Num Peaks: 28
82.00269	6
110.00151	37
119.01439	6
135.00722	30
137.02286	11
137.99213	8
140.06075	6
163.00281	118
163.00832	40
164.00441	16
165.98254	12
165.99022	15
171.04478	13
172.05	8
178.04532	6
182.03865	8
184.05183	20
198.03452	7
211.03575	7
212.04613	16
239.03702	17
240.04329	7
267.02661	18
268.03604	1000
269.0397	170
270.0434	20
270.05319	5
283.05899	519

NAME: Wogonin
PRECURSORMZ: 283.06119704783
PRECURSORTYPE: [M-H]-
INSTRUMENTTYPE: LC-ESI-QTOF
SMILES: COC1=C(O)C=C(O)C2=C1OC(=CC2=O)C1=CC=CC=C1
INCHIKEY: XLTFNNCXVBYBSX-UHFFFAOYSA-N
Ontology: 8-O-methylated flavonoids
COLLISIONENERGY: 10
FORMULA: C16H12O5
RETENTIONTIME: 7.2774
IONMODE: Negative
Comment: registered in RIKEN PlaSMA
Num Peaks: 3
268.03638	366
269.03928	39
283.05933	1000

NAME: Wogonin
PRECURSORMZ: 283.06119704783
PRECURSORTYPE: [M-H]-
INSTRUMENTTYPE: LC-ESI-QTOF
SMILES: COC1=C(O)C=C(O)C2=C1OC(=CC2=O)C1=CC=CC=C1
INCHIKEY: XLTFNNCXVBYBSX-UHFFFAOYSA-N
Ontology: 8-O-methylated flavonoids
COLLISIONENERGY: 30
FORMULA: C16H12O5
RETENTIONTIME: 7.2774
IONMODE: Negative
Comment: registered in RIKEN PlaSMA
Num Peaks: 82
63.0207	5
67.02012	6
78.08801	9
82.00199	10
82.00972	12
91.01669	6
91.9865	7
95.00949	27
95.01657	9
109.99866	337
111.00336	36
112.00547	9
115.05588	25
119.00304	5
119.01264	84
120.99037	13
121.99938	22
134.00101	12
134.18654	7
135.00867	108
136.00768	6
137.026	5
137.99493	138
138.99083	6
139.05421	87
139.06505	13
140.06044	24
140.06934	5
142.04327	11
145.02454	5
148.97993	5
149.99297	12
152.06161	5
153.03079	5
155.04671	5
155.05557	5
156.04817	6
156.05835	5
163.00327	1000
163.01997	14
164.00682	46
165.98958	360
166.98761	5
166.99715	18
167.05087	19
168.06032	21
171.03995	26
171.04744	40
172.05231	7
173.05586	11
180.06271	5
181.02225	6
182.02684	6
183.04024	11
184.04272	48
184.05087	162
185.05203	29
190.27037	5
193.01491	6
195.04309	53
196.05034	75
196.08081	6
197.02522	8
197.05812	16
198.03001	52
211.03844	50
212.04166	33
212.0573	7
223.03952	29
223.04926	17
224.03966	28
224.04848	30
238.10651	5
239.03346	124
240.04227	56
240.39944	8
266.01901	11
267.02811	101
268.0351	409
269.02362	6
269.0401	65
270.04089	6

NAME: Wogonin
PRECURSORMZ: 283.06119704783
PRECURSORTYPE: [M-H]-
INSTRUMENTTYPE: LC-ESI-QTOF
SMILES: COC1=C(O)C=C(O)C2=C1OC(=CC2=O)C1=CC=CC=C1
INCHIKEY: XLTFNNCXVBYBSX-UHFFFAOYSA-N
Ontology: 8-O-methylated flavonoids
COLLISIONENERGY: 50
FORMULA: C16H12O5
RETENTIONTIME: 7.2774
IONMODE: Negative
Comment: registered in RIKEN PlaSMA
Num Peaks: 38
51.02177	47
52.02755	45
65.00033	108
68.99178	120
77.00581	52
82.00034	54
82.00433	175
91.01457	45
95.00698	47
95.01379	175
101.04283	50
107.01178	57
109.99821	1000
111.00949	59
113.03677	57
115.05016	47
116.05439	45
117.03236	42
119.01221	104
119.04734	42
125.0293	47
135.00571	165
135.01134	92
135.0208	54
136.97977	45
137.98854	47
138.04779	50
139.05531	252
140.05768	54
141.02992	68
141.0611	59
145.0249	45
153.02937	47
163.00471	200
164.00687	132
183.04791	47
183.98668	42
211.04935	57

NAME: Wogonin
PRECURSORMZ: 283.06119704783
PRECURSORTYPE: [M-H]-
INSTRUMENTTYPE: LC-ESI-QTOF
SMILES: COC1=C(O)C=C(O)C2=C1OC(=CC2=O)C1=CC=CC=C1
INCHIKEY: XLTFNNCXVBYBSX-UHFFFAOYSA-N
Ontology: 8-O-methylated flavonoids
COLLISIONENERGY: 10
FORMULA: C16H12O5
RETENTIONTIME: 7.2774
IONMODE: Negative
Comment: registered in RIKEN PlaSMA
Num Peaks: 23
94.00598	7
109.99952	52
111.00117	7
135.00621	32
137.99162	15
139.05107	15
163.002	136
165.98976	26
167.05051	9
171.05014	6
183.04497	7
184.04907	19
191.00557	7
196.05136	9
198.03079	21
211.03854	26
224.04332	11
239.03758	23
267.02719	14
268.03677	1000
269.03998	142
270.04739	10
283.06088	591

NAME: Wogonin
PRECURSORMZ: 283.06119704783
PRECURSORTYPE: [M-H]-
INSTRUMENTTYPE: LC-ESI-QTOF
SMILES: COC1=C(O)C=C(O)C2=C1OC(=CC2=O)C1=CC=CC=C1
INCHIKEY: XLTFNNCXVBYBSX-UHFFFAOYSA-N
Ontology: 8-O-methylated flavonoids
COLLISIONENERGY: 10
FORMULA: C16H12O5
RETENTIONTIME: 7.2774
IONMODE: Negative
Comment: registered in RIKEN PlaSMA
Num Peaks: 3
268.03595	355
269.03909	59
283.05948	1000

NAME: Wogonin
PRECURSORMZ: 283.06119704783
PRECURSORTYPE: [M-H]-
INSTRUMENTTYPE: LC-ESI-QTOF
SMILES: COC1=C(O)C=C(O)C2=C1OC(=CC2=O)C1=CC=CC=C1
INCHIKEY: XLTFNNCXVBYBSX-UHFFFAOYSA-N
Ontology: 8-O-methylated flavonoids
COLLISIONENERGY: 30
FORMULA: C16H12O5
RETENTIONTIME: 7.2774
IONMODE: Negative
Comment: registered in RIKEN PlaSMA
Num Peaks: 67
65.00201	8
82.00361	41
94.00457	23
95.01056	34
106.00426	8
107.00881	6
109.99942	456
111.00857	11
115.05131	14
115.05894	15
119.01192	95
120.01715	16
120.99066	12
122.00049	37
135.00729	106
136.01096	6
137.99467	118
139.05406	108
140.0575	7
141.03194	6
141.04083	7
141.06253	6
143.04883	6
148.98782	9
153.03377	9
155.04855	9
156.06042	7
163.00291	1000
164.00412	74
164.01695	8
165.99014	385
166.9912	23
167.04855	22
167.05573	10
168.05336	10
169.02246	6
170.03172	7
171.04471	80
172.04845	25
178.03719	7
182.03964	11
183.03918	19
183.04547	9
184.04129	23
184.05128	110
184.05794	42
185.05911	20
190.99574	17
195.04546	57
196.05186	77
197.05322	15
198.03244	74
199.03732	6
211.04044	96
212.04449	62
223.02676	7
223.03995	38
224.04681	49
239.0338	162
240.04094	48
240.05075	11
241.03658	12
267.03162	95
268.0365	454
269.02539	8
269.04352	46
270.03436	9

NAME: Wogonin
PRECURSORMZ: 283.06119704783
PRECURSORTYPE: [M-H]-
INSTRUMENTTYPE: LC-ESI-QTOF
SMILES: COC1=C(O)C=C(O)C2=C1OC(=CC2=O)C1=CC=CC=C1
INCHIKEY: XLTFNNCXVBYBSX-UHFFFAOYSA-N
Ontology: 8-O-methylated flavonoids
COLLISIONENERGY: 50
FORMULA: C16H12O5
RETENTIONTIME: 7.2774
IONMODE: Negative
Comment: registered in RIKEN PlaSMA
Num Peaks: 2
83.01102	704
142.04364	1000

NAME: Cinobufagin
PRECURSORMZ: 487.233741604
PRECURSORTYPE: [M+FA-H]-
INSTRUMENTTYPE: LC-ESI-QTOF
SMILES: CC(=O)OC1C2OC22C3CCC4CC(O)CCC4(C)C3CCC2(C)C1C1=COC(=O)C=C1
INCHIKEY: SCULJPGYOQQXTK-UHFFFAOYNA-N
Ontology: Bufanolides and derivatives
COLLISIONENERGY: 10
FORMULA: C26H34O6
RETENTIONTIME: 7.508033
IONMODE: Negative
Comment: registered in RIKEN PlaSMA
Num Peaks: 2
345.19864	153
487.23325	1000

NAME: Cinobufagin
PRECURSORMZ: 487.233741604
PRECURSORTYPE: [M+FA-H]-
INSTRUMENTTYPE: LC-ESI-QTOF
SMILES: CC(=O)OC1C2OC22C3CCC4CC(O)CCC4(C)C3CCC2(C)C1C1=COC(=O)C=C1
INCHIKEY: SCULJPGYOQQXTK-UHFFFAOYNA-N
Ontology: Bufanolides and derivatives
COLLISIONENERGY: 10
FORMULA: C26H34O6
RETENTIONTIME: 7.508033
IONMODE: Negative
Comment: registered in RIKEN PlaSMA
Num Peaks: 3
260.78967	50
485.28729	60
487.23694	1000

NAME: Cinobufagin
PRECURSORMZ: 487.233741604
PRECURSORTYPE: [M+FA-H]-
INSTRUMENTTYPE: LC-ESI-QTOF
SMILES: CC(=O)OC1C2OC22C3CCC4CC(O)CCC4(C)C3CCC2(C)C1C1=COC(=O)C=C1
INCHIKEY: SCULJPGYOQQXTK-UHFFFAOYNA-N
Ontology: Bufanolides and derivatives
COLLISIONENERGY: 10
FORMULA: C26H34O6
RETENTIONTIME: 7.508033
IONMODE: Negative
Comment: registered in RIKEN PlaSMA
Num Peaks: 4
124.77477	233
486.30316	222
487.23264	1000
487.2507	189

NAME: Cinobufagin
PRECURSORMZ: 487.233741604
PRECURSORTYPE: [M+FA-H]-
INSTRUMENTTYPE: LC-ESI-QTOF
SMILES: CC(=O)OC1C2OC22C3CCC4CC(O)CCC4(C)C3CCC2(C)C1C1=COC(=O)C=C1
INCHIKEY: SCULJPGYOQQXTK-UHFFFAOYNA-N
Ontology: Bufanolides and derivatives
COLLISIONENERGY: 10
FORMULA: C26H34O6
RETENTIONTIME: 7.508033
IONMODE: Negative
Comment: registered in RIKEN PlaSMA
Num Peaks: 2
485.28778	48
487.23669	1000

NAME: Cinobufagin
PRECURSORMZ: 487.233741604
PRECURSORTYPE: [M+FA-H]-
INSTRUMENTTYPE: LC-ESI-QTOF
SMILES: CC(=O)OC1C2OC22C3CCC4CC(O)CCC4(C)C3CCC2(C)C1C1=COC(=O)C=C1
INCHIKEY: SCULJPGYOQQXTK-UHFFFAOYNA-N
Ontology: Bufanolides and derivatives
COLLISIONENERGY: 10
FORMULA: C26H34O6
RETENTIONTIME: 7.508033
IONMODE: Negative
Comment: registered in RIKEN PlaSMA
Num Peaks: 3
335.79968	61
402.01443	80
487.23663	1000

NAME: Cinobufagin
PRECURSORMZ: 487.233741604
PRECURSORTYPE: [M+FA-H]-
INSTRUMENTTYPE: LC-ESI-QTOF
SMILES: CC(=O)OC1C2OC22C3CCC4CC(O)CCC4(C)C3CCC2(C)C1C1=COC(=O)C=C1
INCHIKEY: SCULJPGYOQQXTK-UHFFFAOYNA-N
Ontology: Bufanolides and derivatives
COLLISIONENERGY: 50
FORMULA: C26H34O6
RETENTIONTIME: 7.508033
IONMODE: Negative
Comment: registered in RIKEN PlaSMA
Num Peaks: 2
487.22351	420
487.2348	1000

NAME: Baicalein
PRECURSORMZ: 269.04554694783
PRECURSORTYPE: [M-H]-
INSTRUMENTTYPE: LC-ESI-QTOF
SMILES: OC1=CC2=C(C(O)=C1O)C(=O)C=C(O2)C1=CC=CC=C1
INCHIKEY: FXNFHKRTJBSTCS-UHFFFAOYSA-N
Ontology: Flavones
COLLISIONENERGY: 10
FORMULA: C15H10O5
RETENTIONTIME: 6.373367
IONMODE: Negative
Comment: registered in RIKEN PlaSMA
Num Peaks: 28
111.00453	6
117.02995	5
136.98099	10
136.98895	39
139.00113	8
141.07082	12
157.06189	6
166.99841	10
167.05074	11
169.06352	17
171.03812	5
171.04488	10
179.04967	16
195.04646	25
196.05156	11
197.0587	21
207.03877	7
213.05109	7
223.039	18
240.04857	6
241.0451	9
241.0536	18
251.02301	7
251.03151	13
267.02997	10
267.04044	9
268.02832	17
269.04434	1000

NAME: Baicalein
PRECURSORMZ: 269.04554694783
PRECURSORTYPE: [M-H]-
INSTRUMENTTYPE: LC-ESI-QTOF
SMILES: OC1=CC2=C(C(O)=C1O)C(=O)C=C(O2)C1=CC=CC=C1
INCHIKEY: FXNFHKRTJBSTCS-UHFFFAOYSA-N
Ontology: Flavones
COLLISIONENERGY: 10
FORMULA: C15H10O5
RETENTIONTIME: 6.373367
IONMODE: Negative
Comment: registered in RIKEN PlaSMA
Num Peaks: 3
267.02914	21
268.0325	33
269.04453	1000

NAME: Baicalein
PRECURSORMZ: 269.04554694783
PRECURSORTYPE: [M-H]-
INSTRUMENTTYPE: LC-ESI-QTOF
SMILES: OC1=CC2=C(C(O)=C1O)C(=O)C=C(O2)C1=CC=CC=C1
INCHIKEY: FXNFHKRTJBSTCS-UHFFFAOYSA-N
Ontology: Flavones
COLLISIONENERGY: 30
FORMULA: C15H10O5
RETENTIONTIME: 6.373367
IONMODE: Negative
Comment: registered in RIKEN PlaSMA
Num Peaks: 126
64.40696	26
65.00357	192
67.00492	22
68.99652	79
77.00276	23
78.50171	17
79.01403	19
79.02036	19
80.99626	26
81.0011	17
94.00208	21
94.00705	25
95.01241	121
96.01703	27
96.99155	38
99.00556	20
101.03887	85
108.02401	41
108.98932	75
110.9826	19
111.00829	206
115.05895	19
120.99474	19
121.02802	17
121.99759	44
123.00887	156
124.01114	18
124.98702	42
125.03721	25
127.04948	18
127.0611	24
129.03915	50
129.06924	44
131.05188	18
136.98752	1000
137.99467	19
139.00208	568
139.01004	95
139.05147	48
140.0088	40
140.04378	23
141.06728	253
142.07182	36
142.31424	18
143.05043	162
143.07764	19
144.05035	47
144.05496	30
145.02661	88
146.02876	17
148.01512	26
148.07492	22
149.99471	23
151.05417	108
153.06831	37
155.04866	49
156.05591	19
157.0592	41
157.06592	18
158.0629	17
164.97539	52
164.98587	20
165.98868	32
165.99597	27
166.99489	23
167.00871	17
167.04973	470
167.06198	19
168.0016	17
168.05127	35
169.06285	158
169.07652	19
170.07236	55
170.99773	17
171.04387	343
172.03699	21
173.06703	18
179.04518	143
179.06248	18
179.07074	25
180.04906	24
181.07121	27
182.07231	19
183.02997	19
183.04201	46
184.05112	19
185.05585	59
185.06238	64
192.00406	50
194.03709	19
195.04263	477
195.06619	36
196.04083	21
196.0522	72
197.05602	19
198.04512	18
199.03523	82
199.04471	21
199.06671	19
200.03688	20
200.05362	19
207.03952	85
208.05429	44
213.04991	79
213.06317	17
214.05852	17
215.06009	19
222.03323	29
223.03906	476
224.04062	36
225.0515	65
226.02287	17
239.02689	20
239.0443	23
240.02188	19
240.03766	91
241.04633	130
241.0627	19
242.03876	19
251.04195	59
251.05006	19
253.02625	17
268.02707	24
268.04153	17
269.03506	71
269.04822	224

NAME: Baicalein
PRECURSORMZ: 269.04554694783
PRECURSORTYPE: [M-H]-
INSTRUMENTTYPE: LC-ESI-QTOF
SMILES: OC1=CC2=C(C(O)=C1O)C(=O)C=C(O2)C1=CC=CC=C1
INCHIKEY: FXNFHKRTJBSTCS-UHFFFAOYSA-N
Ontology: Flavones
COLLISIONENERGY: 50
FORMULA: C15H10O5
RETENTIONTIME: 6.373367
IONMODE: Negative
Comment: registered in RIKEN PlaSMA
Num Peaks: 20
65.00266	1000
67.00466	118
80.99648	108
82.00756	103
95.01256	365
101.03938	345
108.01583	89
111.00851	232
115.04716	99
115.05433	89
122.00417	99
124.98435	89
129.03381	128
136.98521	414
139.0556	236
143.04935	89
168.05505	89
171.03941	108
190.99799	99
211.05969	94

NAME: Baicalein
PRECURSORMZ: 269.04554694783
PRECURSORTYPE: [M-H]-
INSTRUMENTTYPE: LC-ESI-QTOF
SMILES: OC1=CC2=C(C(O)=C1O)C(=O)C=C(O2)C1=CC=CC=C1
INCHIKEY: FXNFHKRTJBSTCS-UHFFFAOYSA-N
Ontology: Flavones
COLLISIONENERGY: 10
FORMULA: C15H10O5
RETENTIONTIME: 6.373367
IONMODE: Negative
Comment: registered in RIKEN PlaSMA
Num Peaks: 27
65.00291	8
95.01287	7
108.99526	6
136.98833	25
139.00491	21
141.06654	8
143.04829	10
151.05208	6
153.06567	8
157.06187	5
167.04875	19
169.065	32
171.04347	11
179.04729	10
192.00606	6
195.04492	19
197.05673	20
199.03708	6
223.03819	40
224.03297	5
239.03566	13
241.03958	10
241.05074	17
242.04575	11
251.03709	21
268.03311	15
269.04358	1000

NAME: Baicalein
PRECURSORMZ: 269.04554694783
PRECURSORTYPE: [M-H]-
INSTRUMENTTYPE: LC-ESI-QTOF
SMILES: OC1=CC2=C(C(O)=C1O)C(=O)C=C(O2)C1=CC=CC=C1
INCHIKEY: FXNFHKRTJBSTCS-UHFFFAOYSA-N
Ontology: Flavones
COLLISIONENERGY: 10
FORMULA: C15H10O5
RETENTIONTIME: 6.373367
IONMODE: Negative
Comment: registered in RIKEN PlaSMA
Num Peaks: 3
267.0274	19
268.03687	13
269.04474	1000

NAME: Baicalein
PRECURSORMZ: 269.04554694783
PRECURSORTYPE: [M-H]-
INSTRUMENTTYPE: LC-ESI-QTOF
SMILES: OC1=CC2=C(C(O)=C1O)C(=O)C=C(O2)C1=CC=CC=C1
INCHIKEY: FXNFHKRTJBSTCS-UHFFFAOYSA-N
Ontology: Flavones
COLLISIONENERGY: 30
FORMULA: C15H10O5
RETENTIONTIME: 6.373367
IONMODE: Negative
Comment: registered in RIKEN PlaSMA
Num Peaks: 136
65.0017	451
66.00169	17
66.96584	22
67.01671	100
68.99491	24
69.00089	22
77.0021	35
77.00736	23
78.00968	21
79.01704	17
80.99619	21
83.01387	17
91.02213	19
92.99476	20
93.99903	25
95.01169	258
96.01651	42
96.99448	41
101.03617	90
102.04189	17
103.05251	17
108.99007	62
108.99992	41
110.00085	35
111.00813	172
112.01234	41
115.05457	18
117.03455	91
120.9892	23
121.99596	63
123.00547	212
124.98903	18
125.99408	18
127.04957	52
127.05557	18
129.06781	42
131.04485	41
136.95746	21
136.98584	1000
137.12233	24
137.99132	83
139.00151	747
139.04955	88
139.05736	43
140.00679	21
140.05502	36
141.06995	218
142.07487	34
143.04247	97
143.04912	374
144.04979	76
145.02484	54
149.99033	19
151.00035	28
151.04066	17
151.05225	151
152.06184	18
153.06715	91
154.03491	69
155.05115	77
157.05544	22
157.0658	44
164.97733	36
164.98506	18
164.99365	22
165.59335	18
165.98438	19
165.99167	25
166.8909	19
166.99557	126
167.00391	34
167.04953	575
168.04857	18
168.0575	75
169.00075	18
169.0244	22
169.05951	100
169.06714	332
170.06384	35
170.07275	18
171.0415	679
172.04164	19
172.04938	36
172.05804	21
172.96902	26
178.92412	18
179.0464	133
179.05954	22
180.0602	18
183.04788	41
184.05313	17
185.05406	18
185.06329	34
186.05591	30
186.06363	15
189.12138	17
193.00952	25
195.03436	171
195.04558	517
196.03575	16
196.05077	159
196.1965	17
197.05794	126
197.0732	22
198.06441	75
199.03381	83
199.04141	40
202.0574	18
207.03535	30
207.04839	17
208.05254	18
211.03763	19
211.04991	36
212.05275	39
213.05006	123
213.06377	23
214.05673	25
223.04149	525
224.0435	163
224.05305	43
225.04601	21
226.02267	17
226.05896	19
239.03612	17
240.03937	101
241.04796	118
241.05724	79
242.0607	44
251.03282	65
252.03819	40
267.01529	22
267.03439	20
268.0188	24
268.03564	36
269.04132	118
269.05194	109

NAME: Baicalein
PRECURSORMZ: 269.04554694783
PRECURSORTYPE: [M-H]-
INSTRUMENTTYPE: LC-ESI-QTOF
SMILES: OC1=CC2=C(C(O)=C1O)C(=O)C=C(O2)C1=CC=CC=C1
INCHIKEY: FXNFHKRTJBSTCS-UHFFFAOYSA-N
Ontology: Flavones
COLLISIONENERGY: 50
FORMULA: C15H10O5
RETENTIONTIME: 6.373367
IONMODE: Negative
Comment: registered in RIKEN PlaSMA
Num Peaks: 5
65.00291	1000
139.05086	667
145.02513	412
163.00641	392
181.61021	471

NAME: Baicalein
PRECURSORMZ: 269.04554694783
PRECURSORTYPE: [M-H]-
INSTRUMENTTYPE: LC-ESI-QTOF
SMILES: OC1=CC2=C(C(O)=C1O)C(=O)C=C(O2)C1=CC=CC=C1
INCHIKEY: FXNFHKRTJBSTCS-UHFFFAOYSA-N
Ontology: Flavones
COLLISIONENERGY: 10
FORMULA: C15H10O5
RETENTIONTIME: 6.373367
IONMODE: Negative
Comment: registered in RIKEN PlaSMA
Num Peaks: 25
65.00327	7
108.99056	6
136.98808	34
139.00346	28
141.06943	9
143.05499	5
151.05208	12
166.99033	7
166.99849	8
169.06323	25
171.0451	9
185.06958	6
195.03862	10
195.0493	12
197.062	10
213.05925	7
223.03922	22
240.03897	8
241.04814	15
251.02779	14
251.03606	15
267.03165	16
268.02673	5
268.03473	16
269.0437	1000

NAME: Baicalein
PRECURSORMZ: 269.04554694783
PRECURSORTYPE: [M-H]-
INSTRUMENTTYPE: LC-ESI-QTOF
SMILES: OC1=CC2=C(C(O)=C1O)C(=O)C=C(O2)C1=CC=CC=C1
INCHIKEY: FXNFHKRTJBSTCS-UHFFFAOYSA-N
Ontology: Flavones
COLLISIONENERGY: 10
FORMULA: C15H10O5
RETENTIONTIME: 6.373367
IONMODE: Negative
Comment: registered in RIKEN PlaSMA
Num Peaks: 3
267.0303	38
268.03268	51
269.04468	1000

NAME: Baicalein
PRECURSORMZ: 269.04554694783
PRECURSORTYPE: [M-H]-
INSTRUMENTTYPE: LC-ESI-QTOF
SMILES: OC1=CC2=C(C(O)=C1O)C(=O)C=C(O2)C1=CC=CC=C1
INCHIKEY: FXNFHKRTJBSTCS-UHFFFAOYSA-N
Ontology: Flavones
COLLISIONENERGY: 30
FORMULA: C15H10O5
RETENTIONTIME: 6.373367
IONMODE: Negative
Comment: registered in RIKEN PlaSMA
Num Peaks: 49
65.00074	165
69.42945	50
79.01547	65
95.01767	68
96.01649	52
101.02983	52
108.99328	55
111.00788	47
122.00193	47
123.00244	63
123.0114	63
127.05381	144
136.98483	1000
136.99617	63
139.00285	908
140.00221	50
141.00093	65
141.06863	165
143.05363	47
145.02298	217
151.054	65
152.05656	52
154.0313	47
155.04694	217
164.97638	47
166.04247	47
166.99971	285
167.04858	317
168.05167	55
169.05922	110
169.06537	76
171.0466	304
179.04597	175
185.05382	50
186.0556	73
194.03102	52
195.0414	584
196.04753	120
197.02277	52
198.07051	58
199.0374	65
199.04631	110
212.74585	47
213.04904	58
213.06337	58
223.04126	442
239.02309	52
241.04607	149
269.04242	157

NAME: Bufalin
PRECURSORMZ: 431.243912404
PRECURSORTYPE: [M+FA-H]-
INSTRUMENTTYPE: LC-ESI-QTOF
SMILES: CC12CCC3C(CCC4CC(O)CCC34C)C1(O)CCC2C1=COC(=O)C=C1
INCHIKEY: QEEBRPGZBVVINN-UHFFFAOYNA-N
Ontology: Bufanolides and derivatives
COLLISIONENERGY: 10
FORMULA: C24H34O4
RETENTIONTIME: 6.99085
IONMODE: Negative
Comment: registered in RIKEN PlaSMA
Num Peaks: 2
431.24109	1000
431.26321	198

NAME: Honokiol
PRECURSORMZ: 265.12340334783
PRECURSORTYPE: [M-H]-
INSTRUMENTTYPE: LC-ESI-QTOF
SMILES: OC1=C(CC=C)C=C(C=C1)C1=C(O)C=CC(CC=C)=C1
INCHIKEY: FVYXIJYOAGAUQK-UHFFFAOYSA-N
Ontology: Biphenyls and derivatives
COLLISIONENERGY: 10
FORMULA: C18H18O2
RETENTIONTIME: 8.63375
IONMODE: Negative
Comment: registered in RIKEN PlaSMA
Num Peaks: 12
93.03162	8
197.06017	17
197.0961	5
209.05876	10
223.0755	156
224.08354	199
225.08652	6
239.10934	11
249.09247	63
250.09909	36
251.09338	6
265.12167	1000

NAME: Honokiol
PRECURSORMZ: 265.12340334783
PRECURSORTYPE: [M-H]-
INSTRUMENTTYPE: LC-ESI-QTOF
SMILES: OC1=C(CC=C)C=C(C=C1)C1=C(O)C=CC(CC=C)=C1
INCHIKEY: FVYXIJYOAGAUQK-UHFFFAOYSA-N
Ontology: Biphenyls and derivatives
COLLISIONENERGY: 30
FORMULA: C18H18O2
RETENTIONTIME: 8.63375
IONMODE: Negative
Comment: registered in RIKEN PlaSMA
Num Peaks: 59
91.05286	6
93.03596	13
117.0703	5
119.04634	14
119.05218	9
132.05696	6
133.05925	5
133.06934	9
136.93959	7
142.03897	7
146.07576	12
155.08458	5
157.07068	6
165.06953	11
170.06961	7
171.04369	6
180.0522	6
181.0649	12
183.03955	10
187.07411	7
193.06393	12
195.0788	19
196.05319	12
196.08324	35
197.06036	184
198.06389	11
205.06438	5
206.07304	5
209.06218	104
210.10205	5
211.0679	6
217.06061	6
219.10774	6
220.08896	6
221.05396	6
221.06473	19
221.13495	5
222.09993	15
222.11382	5
223.07465	1000
224.08217	445
225.07397	18
225.09183	32
226.08292	8
231.07115	6
235.0777	10
235.11084	17
235.11812	7
238.09406	5
245.09392	12
247.06644	8
249.09024	321
250.09843	140
251.09491	10
251.10434	8
263.10468	7
263.11392	12
265.1123	7
265.12546	30

NAME: Honokiol
PRECURSORMZ: 265.12340334783
PRECURSORTYPE: [M-H]-
INSTRUMENTTYPE: LC-ESI-QTOF
SMILES: OC1=C(CC=C)C=C(C=C1)C1=C(O)C=CC(CC=C)=C1
INCHIKEY: FVYXIJYOAGAUQK-UHFFFAOYSA-N
Ontology: Biphenyls and derivatives
COLLISIONENERGY: 50
FORMULA: C18H18O2
RETENTIONTIME: 8.63375
IONMODE: Negative
Comment: registered in RIKEN PlaSMA
Num Peaks: 32
89.03654	224
117.03907	95
128.02731	75
141.07054	83
143.04933	91
146.07437	75
153.06889	141
167.04361	178
169.06267	129
180.06773	75
181.06764	87
182.02989	158
182.04398	95
193.06964	278
195.08232	191
196.04948	203
197.04803	75
197.05864	83
198.0723	91
205.05725	100
206.075	83
207.03825	178
207.04979	199
209.09555	104
219.08031	75
221.06122	104
221.09198	75
223.07391	1000
223.18178	75
224.0787	104
225.08852	95
249.10063	216

NAME: Honokiol
PRECURSORMZ: 265.12340334783
PRECURSORTYPE: [M-H]-
INSTRUMENTTYPE: LC-ESI-QTOF
SMILES: OC1=C(CC=C)C=C(C=C1)C1=C(O)C=CC(CC=C)=C1
INCHIKEY: FVYXIJYOAGAUQK-UHFFFAOYSA-N
Ontology: Biphenyls and derivatives
COLLISIONENERGY: 10
FORMULA: C18H18O2
RETENTIONTIME: 8.63375
IONMODE: Negative
Comment: registered in RIKEN PlaSMA
Num Peaks: 15
141.06848	6
195.07866	8
196.04742	7
197.05702	30
209.06746	5
209.08521	6
222.06561	8
223.07527	134
224.08209	174
225.084	20
245.08977	5
249.08861	39
250.09962	27
262.10999	5
265.12195	1000

NAME: Honokiol
PRECURSORMZ: 265.12340334783
PRECURSORTYPE: [M-H]-
INSTRUMENTTYPE: LC-ESI-QTOF
SMILES: OC1=C(CC=C)C=C(C=C1)C1=C(O)C=CC(CC=C)=C1
INCHIKEY: FVYXIJYOAGAUQK-UHFFFAOYSA-N
Ontology: Biphenyls and derivatives
COLLISIONENERGY: 30
FORMULA: C18H18O2
RETENTIONTIME: 8.63375
IONMODE: Negative
Comment: registered in RIKEN PlaSMA
Num Peaks: 69
114.04504	6
117.03055	9
119.03947	5
119.04841	20
132.06282	12
133.06157	13
133.06863	17
141.06033	5
157.05215	5
157.06306	11
158.07298	5
168.05225	11
169.06627	16
170.07121	14
171.07649	12
172.09474	5
173.09851	6
177.07034	7
180.05527	6
180.09061	6
181.10231	13
182.03802	7
182.07285	6
183.07741	5
185.28207	5
193.06921	13
194.07159	7
195.0417	6
195.0829	23
195.11757	6
196.08949	14
197.06003	85
198.06145	26
205.10307	8
207.07242	11
208.04846	11
209.0611	96
209.09123	20
210.05382	10
210.06381	13
221.0583	11
221.09398	5
221.10226	7
221.11441	6
222.06383	10
222.09743	6
223.07541	1000
223.51663	5
224.08438	533
225.0873	123
226.0885	5
231.0871	5
231.10057	6
234.06548	5
235.07539	11
235.11069	5
237.09116	42
237.12608	6
238.09575	5
247.07597	6
247.09157	7
247.10464	5
247.11534	7
249.09007	281
249.11171	5
250.09283	78
250.10344	59
251.1053	7
265.12186	30

NAME: Honokiol
PRECURSORMZ: 265.12340334783
PRECURSORTYPE: [M-H]-
INSTRUMENTTYPE: LC-ESI-QTOF
SMILES: OC1=C(CC=C)C=C(C=C1)C1=C(O)C=CC(CC=C)=C1
INCHIKEY: FVYXIJYOAGAUQK-UHFFFAOYSA-N
Ontology: Biphenyls and derivatives
COLLISIONENERGY: 50
FORMULA: C18H18O2
RETENTIONTIME: 8.63375
IONMODE: Negative
Comment: registered in RIKEN PlaSMA
Num Peaks: 42
93.03063	82
93.03529	96
106.03464	91
115.05112	96
117.0294	91
127.0557	96
132.05835	119
141.02931	91
142.03207	87
143.04948	100
152.06502	96
155.05334	82
167.04268	91
167.05029	96
169.06514	82
180.05835	82
181.0593	91
182.0385	621
183.04376	96
193.07031	82
194.07976	205
195.0773	123
195.08643	82
196.0425	82
196.05307	447
196.08403	205
197.06046	233
197.06978	82
206.07379	87
221.05609	91
221.07443	91
222.06149	187
222.5199	82
223.07391	1000
224.06866	82
224.08084	82
245.09328	119
247.07758	110
247.08556	123
248.07748	105
249.08253	110
265.13403	82

NAME: Honokiol
PRECURSORMZ: 265.12340334783
PRECURSORTYPE: [M-H]-
INSTRUMENTTYPE: LC-ESI-QTOF
SMILES: OC1=C(CC=C)C=C(C=C1)C1=C(O)C=CC(CC=C)=C1
INCHIKEY: FVYXIJYOAGAUQK-UHFFFAOYSA-N
Ontology: Biphenyls and derivatives
COLLISIONENERGY: 10
FORMULA: C18H18O2
RETENTIONTIME: 8.63375
IONMODE: Negative
Comment: registered in RIKEN PlaSMA
Num Peaks: 11
131.04848	9
195.08582	5
196.09241	12
197.05888	7
209.06277	17
223.07501	160
224.08107	212
225.08856	26
249.09056	39
250.09694	32
265.1214	1000

NAME: Honokiol
PRECURSORMZ: 265.12340334783
PRECURSORTYPE: [M-H]-
INSTRUMENTTYPE: LC-ESI-QTOF
SMILES: OC1=C(CC=C)C=C(C=C1)C1=C(O)C=CC(CC=C)=C1
INCHIKEY: FVYXIJYOAGAUQK-UHFFFAOYSA-N
Ontology: Biphenyls and derivatives
COLLISIONENERGY: 30
FORMULA: C18H18O2
RETENTIONTIME: 8.63375
IONMODE: Negative
Comment: registered in RIKEN PlaSMA
Num Peaks: 69
81.04134	9
91.05751	7
93.03506	16
114.8246	11
119.04951	16
119.05804	5
133.0575	6
133.06602	9
141.07278	6
165.0713	5
166.07535	5
169.06892	10
173.09358	9
178.07503	5
182.06346	8
183.05133	5
184.04695	12
185.07851	6
185.0963	8
193.06252	6
194.0717	5
195.08234	84
195.12469	5
196.05867	10
196.08363	16
197.05537	123
198.06163	34
205.05605	9
207.04688	5
208.0813	6
208.09015	9
209.05956	87
209.06894	18
209.09612	14
210.04811	6
210.05975	6
210.09833	11
220.08865	6
221.0556	10
221.09015	16
222.06602	5
222.09558	11
222.11334	6
223.07431	1000
223.10307	7
223.11392	10
224.08025	589
225.08369	88
226.08255	5
226.13029	5
234.06917	5
235.07664	10
235.11269	28
236.0833	10
237.09946	5
237.12163	6
238.08446	5
247.1073	5
248.08722	10
248.1106	5
249.09006	419
250.09773	121
251.09421	19
251.11334	5
258.02405	5
263.0983	6
264.11661	14
265.10226	7
265.11853	27

NAME: Honokiol
PRECURSORMZ: 265.12340334783
PRECURSORTYPE: [M-H]-
INSTRUMENTTYPE: LC-ESI-QTOF
SMILES: OC1=C(CC=C)C=C(C=C1)C1=C(O)C=CC(CC=C)=C1
INCHIKEY: FVYXIJYOAGAUQK-UHFFFAOYSA-N
Ontology: Biphenyls and derivatives
COLLISIONENERGY: 50
FORMULA: C18H18O2
RETENTIONTIME: 8.63375
IONMODE: Negative
Comment: registered in RIKEN PlaSMA
Num Peaks: 48
89.03703	88
92.02177	84
93.03117	109
93.0348	193
116.01655	76
117.03461	269
119.04925	181
130.04321	109
141.06754	80
143.05067	76
167.04839	101
169.06641	80
179.04753	76
180.05186	227
181.06168	239
181.07043	76
182.03516	261
187.70822	76
193.07658	76
195.04713	76
195.06912	189
195.07864	88
196.04308	92
196.0511	97
197.05257	151
197.06317	202
207.04616	84
207.08044	76
208.04744	84
208.06017	76
209.04185	92
209.067	80
218.40363	84
220.0564	126
220.0898	101
221.05756	235
221.06604	130
222.06645	118
223.07655	1000
224.06642	88
224.08234	80
235.11559	113
247.07903	88
247.08784	84
249.09726	168
250.09303	151
262.08865	76
263.1243	76

NAME: Liquiritin
PRECURSORMZ: 417.11910584783
PRECURSORTYPE: [M-H]-
INSTRUMENTTYPE: LC-ESI-QTOF
SMILES: OCC1OC(OC2=CC=C(C=C2)C2CC(=O)C3=C(O2)C=C(O)C=C3)C(O)C(O)C1O
INCHIKEY: DEMKZLAVQYISIA-UHFFFAOYNA-N
Ontology: Flavonoid O-glycosides
COLLISIONENERGY: 10
FORMULA: C21H22O9
RETENTIONTIME: 4.08675
IONMODE: Negative
Comment: registered in RIKEN PlaSMA
Num Peaks: 9
91.01933	20
119.0491	124
120.04957	6
135.00739	324
136.01279	18
255.06572	1000
256.06998	150
257.07278	17
417.11948	495

NAME: Liquiritin
PRECURSORMZ: 417.11910584783
PRECURSORTYPE: [M-H]-
INSTRUMENTTYPE: LC-ESI-QTOF
SMILES: OCC1OC(OC2=CC=C(C=C2)C2CC(=O)C3=C(O2)C=C(O)C=C3)C(O)C(O)C1O
INCHIKEY: DEMKZLAVQYISIA-UHFFFAOYNA-N
Ontology: Flavonoid O-glycosides
COLLISIONENERGY: 10
FORMULA: C21H22O9
RETENTIONTIME: 4.08675
IONMODE: Negative
Comment: registered in RIKEN PlaSMA
Num Peaks: 3
255.06502	305
256.06702	45
417.11783	1000

NAME: Liquiritin
PRECURSORMZ: 417.11910584783
PRECURSORTYPE: [M-H]-
INSTRUMENTTYPE: LC-ESI-QTOF
SMILES: OCC1OC(OC2=CC=C(C=C2)C2CC(=O)C3=C(O2)C=C(O)C=C3)C(O)C(O)C1O
INCHIKEY: DEMKZLAVQYISIA-UHFFFAOYNA-N
Ontology: Flavonoid O-glycosides
COLLISIONENERGY: 30
FORMULA: C21H22O9
RETENTIONTIME: 4.08675
IONMODE: Negative
Comment: registered in RIKEN PlaSMA
Num Peaks: 9
91.01697	31
119.04839	399
120.05116	38
135.00685	1000
136.01025	79
148.01585	9
255.0645	486
256.06674	83
257.06754	15

NAME: Liquiritin
PRECURSORMZ: 417.11910584783
PRECURSORTYPE: [M-H]-
INSTRUMENTTYPE: LC-ESI-QTOF
SMILES: OCC1OC(OC2=CC=C(C=C2)C2CC(=O)C3=C(O2)C=C(O)C=C3)C(O)C(O)C1O
INCHIKEY: DEMKZLAVQYISIA-UHFFFAOYNA-N
Ontology: Flavonoid O-glycosides
COLLISIONENERGY: 50
FORMULA: C21H22O9
RETENTIONTIME: 4.08675
IONMODE: Negative
Comment: registered in RIKEN PlaSMA
Num Peaks: 18
91.0171	357
92.02383	55
107.012	7
119.04858	1000
120.01898	24
120.0242	17
120.05305	83
121.05331	6
135.00644	266
136.0117	8
148.01273	30
148.01978	22
149.022	12
184.04874	10
209.06056	6
211.03401	12
213.04854	6
213.05745	6

NAME: Liquiritin
PRECURSORMZ: 417.11910584783
PRECURSORTYPE: [M-H]-
INSTRUMENTTYPE: LC-ESI-QTOF
SMILES: OCC1OC(OC2=CC=C(C=C2)C2CC(=O)C3=C(O2)C=C(O)C=C3)C(O)C(O)C1O
INCHIKEY: DEMKZLAVQYISIA-UHFFFAOYNA-N
Ontology: Flavonoid O-glycosides
COLLISIONENERGY: 10
FORMULA: C21H22O9
RETENTIONTIME: 4.08675
IONMODE: Negative
Comment: registered in RIKEN PlaSMA
Num Peaks: 9
91.01903	19
119.04794	165
135.00729	367
136.00711	15
148.01656	19
255.06485	1000
256.0675	101
257.07156	11
417.11789	510

NAME: Liquiritin
PRECURSORMZ: 417.11910584783
PRECURSORTYPE: [M-H]-
INSTRUMENTTYPE: LC-ESI-QTOF
SMILES: OCC1OC(OC2=CC=C(C=C2)C2CC(=O)C3=C(O2)C=C(O)C=C3)C(O)C(O)C1O
INCHIKEY: DEMKZLAVQYISIA-UHFFFAOYNA-N
Ontology: Flavonoid O-glycosides
COLLISIONENERGY: 10
FORMULA: C21H22O9
RETENTIONTIME: 4.08675
IONMODE: Negative
Comment: registered in RIKEN PlaSMA
Num Peaks: 3
255.06584	297
256.06799	56
417.1181	1000

NAME: Liquiritin
PRECURSORMZ: 417.11910584783
PRECURSORTYPE: [M-H]-
INSTRUMENTTYPE: LC-ESI-QTOF
SMILES: OCC1OC(OC2=CC=C(C=C2)C2CC(=O)C3=C(O2)C=C(O)C=C3)C(O)C(O)C1O
INCHIKEY: DEMKZLAVQYISIA-UHFFFAOYNA-N
Ontology: Flavonoid O-glycosides
COLLISIONENERGY: 30
FORMULA: C21H22O9
RETENTIONTIME: 4.08675
IONMODE: Negative
Comment: registered in RIKEN PlaSMA
Num Peaks: 12
91.01746	30
119.04855	361
120.05093	39
135.0067	1000
136.0107	70
137.01094	6
148.01071	10
213.04822	7
213.0583	7
255.06505	568
256.06613	77
257.07816	5

NAME: Liquiritin
PRECURSORMZ: 417.11910584783
PRECURSORTYPE: [M-H]-
INSTRUMENTTYPE: LC-ESI-QTOF
SMILES: OCC1OC(OC2=CC=C(C=C2)C2CC(=O)C3=C(O2)C=C(O)C=C3)C(O)C(O)C1O
INCHIKEY: DEMKZLAVQYISIA-UHFFFAOYNA-N
Ontology: Flavonoid O-glycosides
COLLISIONENERGY: 50
FORMULA: C21H22O9
RETENTIONTIME: 4.08675
IONMODE: Negative
Comment: registered in RIKEN PlaSMA
Num Peaks: 23
64.99879	8
65.00389	7
91.01744	335
92.01627	10
92.02512	60
93.03337	6
93.04118	5
119.0482	1000
120.02029	19
120.05168	103
121.02927	11
135.00749	289
136.00864	16
136.01506	13
137.01421	10
148.01315	33
149.01996	7
184.04475	9
211.03458	8
213.05032	7
225.0466	7
253.04945	13
256.06879	5

NAME: Liquiritin
PRECURSORMZ: 417.11910584783
PRECURSORTYPE: [M-H]-
INSTRUMENTTYPE: LC-ESI-QTOF
SMILES: OCC1OC(OC2=CC=C(C=C2)C2CC(=O)C3=C(O2)C=C(O)C=C3)C(O)C(O)C1O
INCHIKEY: DEMKZLAVQYISIA-UHFFFAOYNA-N
Ontology: Flavonoid O-glycosides
COLLISIONENERGY: 10
FORMULA: C21H22O9
RETENTIONTIME: 4.08675
IONMODE: Negative
Comment: registered in RIKEN PlaSMA
Num Peaks: 9
91.01738	9
119.04894	152
120.0517	9
135.00757	352
136.00987	11
255.06557	1000
256.06857	123
257.06775	8
417.11932	474

NAME: Liquiritin
PRECURSORMZ: 417.11910584783
PRECURSORTYPE: [M-H]-
INSTRUMENTTYPE: LC-ESI-QTOF
SMILES: OCC1OC(OC2=CC=C(C=C2)C2CC(=O)C3=C(O2)C=C(O)C=C3)C(O)C(O)C1O
INCHIKEY: DEMKZLAVQYISIA-UHFFFAOYNA-N
Ontology: Flavonoid O-glycosides
COLLISIONENERGY: 10
FORMULA: C21H22O9
RETENTIONTIME: 4.08675
IONMODE: Negative
Comment: registered in RIKEN PlaSMA
Num Peaks: 3
255.06508	314
256.06882	41
417.11807	1000

NAME: Liquiritin
PRECURSORMZ: 417.11910584783
PRECURSORTYPE: [M-H]-
INSTRUMENTTYPE: LC-ESI-QTOF
SMILES: OCC1OC(OC2=CC=C(C=C2)C2CC(=O)C3=C(O2)C=C(O)C=C3)C(O)C(O)C1O
INCHIKEY: DEMKZLAVQYISIA-UHFFFAOYNA-N
Ontology: Flavonoid O-glycosides
COLLISIONENERGY: 30
FORMULA: C21H22O9
RETENTIONTIME: 4.08675
IONMODE: Negative
Comment: registered in RIKEN PlaSMA
Num Peaks: 11
91.01682	33
119.04791	386
120.05093	28
135.00641	1000
136.00995	59
137.01044	11
148.01329	14
149.02188	6
255.06438	533
256.0661	89
257.06772	10

NAME: Liquiritin
PRECURSORMZ: 417.11910584783
PRECURSORTYPE: [M-H]-
INSTRUMENTTYPE: LC-ESI-QTOF
SMILES: OCC1OC(OC2=CC=C(C=C2)C2CC(=O)C3=C(O2)C=C(O)C=C3)C(O)C(O)C1O
INCHIKEY: DEMKZLAVQYISIA-UHFFFAOYNA-N
Ontology: Flavonoid O-glycosides
COLLISIONENERGY: 50
FORMULA: C21H22O9
RETENTIONTIME: 4.08675
IONMODE: Negative
Comment: registered in RIKEN PlaSMA
Num Peaks: 14
91.01752	321
92.0243	92
93.02967	6
119.04816	1000
120.02026	39
120.05209	116
121.02337	7
135.00726	280
136.00966	17
145.02875	7
148.01508	25
169.06577	8
184.05324	11
213.05208	7

NAME: Resibufogenin
PRECURSORMZ: 429.228262304
PRECURSORTYPE: [M+FA-H]-
INSTRUMENTTYPE: LC-ESI-QTOF
SMILES: CC12CCC3C(CCC4CC(O)CCC34C)C11OC1CC2C1=COC(=O)C=C1
INCHIKEY: ATLJNLYIJOCWJE-UHFFFAOYNA-N
Ontology: Bufanolides and derivatives
COLLISIONENERGY: 10
FORMULA: C24H32O4
RETENTIONTIME: 7.5633
IONMODE: Negative
Comment: registered in RIKEN PlaSMA
Num Peaks: 2
403.9314	622
429.2356	1000

NAME: Resibufogenin
PRECURSORMZ: 429.228262304
PRECURSORTYPE: [M+FA-H]-
INSTRUMENTTYPE: LC-ESI-QTOF
SMILES: CC12CCC3C(CCC4CC(O)CCC34C)C11OC1CC2C1=COC(=O)C=C1
INCHIKEY: ATLJNLYIJOCWJE-UHFFFAOYNA-N
Ontology: Bufanolides and derivatives
COLLISIONENERGY: 10
FORMULA: C24H32O4
RETENTIONTIME: 7.5633
IONMODE: Negative
Comment: registered in RIKEN PlaSMA
Num Peaks: 1
182.95335	1000

NAME: Quercetin 3-O-[2''-O-b-D-glucopyranosyl]-a-L-rhamnopyranoside
PRECURSORMZ: 609.14610844783
PRECURSORTYPE: [M-H]-
INSTRUMENTTYPE: LC-ESI-QTOF
SMILES: CC1OC(OC2=C(OC3=CC(O)=CC(O)=C3C2=O)C2=CC(O)=C(O)C=C2)C(OC2OC(CO)C(O)C(O)C2O)C(O)C1O
INCHIKEY: DFNXNCCYQRPZMD-UHFFFAOYNA-N
Ontology: Flavonoid-3-O-glycosides
COLLISIONENERGY: 10
FORMULA: C27H30O16
RETENTIONTIME: 4.150383
IONMODE: Negative
Comment: registered in RIKEN PlaSMA
Num Peaks: 10
255.03207	18
271.02414	28
272.02911	8
299.02106	10
300.02704	454
301.03342	85
302.03894	6
303.05231	8
608.14685	6
609.14807	1000

NAME: Quercetin 3-O-[2''-O-b-D-glucopyranosyl]-a-L-rhamnopyranoside
PRECURSORMZ: 609.14610844783
PRECURSORTYPE: [M-H]-
INSTRUMENTTYPE: LC-ESI-QTOF
SMILES: CC1OC(OC2=C(OC3=CC(O)=CC(O)=C3C2=O)C2=CC(O)=C(O)C=C2)C(OC2OC(CO)C(O)C(O)C2O)C(O)C1O
INCHIKEY: DFNXNCCYQRPZMD-UHFFFAOYNA-N
Ontology: Flavonoid-3-O-glycosides
COLLISIONENERGY: 10
FORMULA: C27H30O16
RETENTIONTIME: 4.150383
IONMODE: Negative
Comment: registered in RIKEN PlaSMA
Num Peaks: 2
608.1319	8
609.14514	1000

NAME: Quercetin 3-O-[2''-O-b-D-glucopyranosyl]-a-L-rhamnopyranoside
PRECURSORMZ: 609.14610844783
PRECURSORTYPE: [M-H]-
INSTRUMENTTYPE: LC-ESI-QTOF
SMILES: CC1OC(OC2=C(OC3=CC(O)=CC(O)=C3C2=O)C2=CC(O)=C(O)C=C2)C(OC2OC(CO)C(O)C(O)C2O)C(O)C1O
INCHIKEY: DFNXNCCYQRPZMD-UHFFFAOYNA-N
Ontology: Flavonoid-3-O-glycosides
COLLISIONENERGY: 30
FORMULA: C27H30O16
RETENTIONTIME: 4.150383
IONMODE: Negative
Comment: registered in RIKEN PlaSMA
Num Peaks: 12
151.00307	14
178.9958	68
271.02283	18
299.02365	30
300.02661	1000
301.03256	251
302.03412	24
303.03256	6
303.05151	6
355.04309	12
429.07791	15
609.14874	209

NAME: Quercetin 3-O-[2''-O-b-D-glucopyranosyl]-a-L-rhamnopyranoside
PRECURSORMZ: 609.14610844783
PRECURSORTYPE: [M-H]-
INSTRUMENTTYPE: LC-ESI-QTOF
SMILES: CC1OC(OC2=C(OC3=CC(O)=CC(O)=C3C2=O)C2=CC(O)=C(O)C=C2)C(OC2OC(CO)C(O)C(O)C2O)C(O)C1O
INCHIKEY: DFNXNCCYQRPZMD-UHFFFAOYNA-N
Ontology: Flavonoid-3-O-glycosides
COLLISIONENERGY: 50
FORMULA: C27H30O16
RETENTIONTIME: 4.150383
IONMODE: Negative
Comment: registered in RIKEN PlaSMA
Num Peaks: 41
107.01169	14
108.0144	6
109.02541	5
120.01505	7
135.0054	9
136.01865	12
151.00294	94
164.01257	6
178.99309	14
179.00009	11
179.01746	6
187.04454	9
199.03847	7
211.03609	10
211.04707	7
215.03346	5
226.01845	6
226.0265	10
227.03209	37
228.04753	5
242.02142	17
243.02901	149
244.02409	6
244.03476	10
245.03381	6
254.02031	28
254.03622	7
255.02861	416
256.0347	65
257.04028	6
271.02371	1000
272.02902	144
273.0195	6
283.02792	6
299.01343	17
299.03177	6
300.02631	580
301.02713	103
301.03894	25
302.03534	17
303.03513	6

NAME: Quercetin 3-O-[2''-O-b-D-glucopyranosyl]-a-L-rhamnopyranoside
PRECURSORMZ: 609.14610844783
PRECURSORTYPE: [M-H]-
INSTRUMENTTYPE: LC-ESI-QTOF
SMILES: CC1OC(OC2=C(OC3=CC(O)=CC(O)=C3C2=O)C2=CC(O)=C(O)C=C2)C(OC2OC(CO)C(O)C(O)C2O)C(O)C1O
INCHIKEY: DFNXNCCYQRPZMD-UHFFFAOYNA-N
Ontology: Flavonoid-3-O-glycosides
COLLISIONENERGY: 10
FORMULA: C27H30O16
RETENTIONTIME: 4.150383
IONMODE: Negative
Comment: registered in RIKEN PlaSMA
Num Peaks: 12
151.00272	9
179.00031	10
255.03094	22
271.02304	49
299.01694	6
300.02594	440
301.03033	93
302.02957	11
302.04321	13
303.05103	6
608.13812	5
609.14557	1000

NAME: Quercetin 3-O-[2''-O-b-D-glucopyranosyl]-a-L-rhamnopyranoside
PRECURSORMZ: 609.14610844783
PRECURSORTYPE: [M-H]-
INSTRUMENTTYPE: LC-ESI-QTOF
SMILES: CC1OC(OC2=C(OC3=CC(O)=CC(O)=C3C2=O)C2=CC(O)=C(O)C=C2)C(OC2OC(CO)C(O)C(O)C2O)C(O)C1O
INCHIKEY: DFNXNCCYQRPZMD-UHFFFAOYNA-N
Ontology: Flavonoid-3-O-glycosides
COLLISIONENERGY: 10
FORMULA: C27H30O16
RETENTIONTIME: 4.150383
IONMODE: Negative
Comment: registered in RIKEN PlaSMA
Num Peaks: 2
608.13605	6
609.14581	1000

NAME: Quercetin 3-O-[2''-O-b-D-glucopyranosyl]-a-L-rhamnopyranoside
PRECURSORMZ: 609.14610844783
PRECURSORTYPE: [M-H]-
INSTRUMENTTYPE: LC-ESI-QTOF
SMILES: CC1OC(OC2=C(OC3=CC(O)=CC(O)=C3C2=O)C2=CC(O)=C(O)C=C2)C(OC2OC(CO)C(O)C(O)C2O)C(O)C1O
INCHIKEY: DFNXNCCYQRPZMD-UHFFFAOYNA-N
Ontology: Flavonoid-3-O-glycosides
COLLISIONENERGY: 30
FORMULA: C27H30O16
RETENTIONTIME: 4.150383
IONMODE: Negative
Comment: registered in RIKEN PlaSMA
Num Peaks: 17
151.0009	14
178.99652	47
271.03146	6
299.01657	36
299.02631	10
300.02649	1000
301.03125	262
302.03271	36
302.0484	8
303.04166	9
303.05377	5
325.03189	7
355.05099	6
411.07062	7
429.07556	13
430.07233	5
609.14612	241

NAME: Quercetin 3-O-[2''-O-b-D-glucopyranosyl]-a-L-rhamnopyranoside
PRECURSORMZ: 609.14610844783
PRECURSORTYPE: [M-H]-
INSTRUMENTTYPE: LC-ESI-QTOF
SMILES: CC1OC(OC2=C(OC3=CC(O)=CC(O)=C3C2=O)C2=CC(O)=C(O)C=C2)C(OC2OC(CO)C(O)C(O)C2O)C(O)C1O
INCHIKEY: DFNXNCCYQRPZMD-UHFFFAOYNA-N
Ontology: Flavonoid-3-O-glycosides
COLLISIONENERGY: 50
FORMULA: C27H30O16
RETENTIONTIME: 4.150383
IONMODE: Negative
Comment: registered in RIKEN PlaSMA
Num Peaks: 38
74.28372	5
109.0222	7
121.03225	7
135.00214	7
149.01933	7
151.00136	51
152.01237	11
162.99969	15
179.00166	30
211.03883	10
215.04118	16
216.04303	13
226.01855	13
226.02713	9
227.03513	26
242.01463	6
243.0311	107
244.02928	34
254.01683	10
254.02545	28
255.0293	481
256.02368	19
256.03674	33
256.73508	6
257.03604	10
270.00912	7
270.88879	6
271.02353	1000
272.02814	155
273.03055	24
283.01877	12
299.0094	9
299.02451	13
299.03668	7
300.02567	655
301.02216	51
301.03519	76
302.02679	10

NAME: Quercetin 3-O-[2''-O-b-D-glucopyranosyl]-a-L-rhamnopyranoside
PRECURSORMZ: 609.14610844783
PRECURSORTYPE: [M-H]-
INSTRUMENTTYPE: LC-ESI-QTOF
SMILES: CC1OC(OC2=C(OC3=CC(O)=CC(O)=C3C2=O)C2=CC(O)=C(O)C=C2)C(OC2OC(CO)C(O)C(O)C2O)C(O)C1O
INCHIKEY: DFNXNCCYQRPZMD-UHFFFAOYNA-N
Ontology: Flavonoid-3-O-glycosides
COLLISIONENERGY: 10
FORMULA: C27H30O16
RETENTIONTIME: 4.150383
IONMODE: Negative
Comment: registered in RIKEN PlaSMA
Num Peaks: 11
178.99747	16
255.0294	17
271.02322	43
272.03085	8
299.01721	21
300.02472	467
301.03012	99
302.02502	6
302.03629	12
608.12756	9
609.14441	1000

NAME: Quercetin 3-O-[2''-O-b-D-glucopyranosyl]-a-L-rhamnopyranoside
PRECURSORMZ: 609.14610844783
PRECURSORTYPE: [M-H]-
INSTRUMENTTYPE: LC-ESI-QTOF
SMILES: CC1OC(OC2=C(OC3=CC(O)=CC(O)=C3C2=O)C2=CC(O)=C(O)C=C2)C(OC2OC(CO)C(O)C(O)C2O)C(O)C1O
INCHIKEY: DFNXNCCYQRPZMD-UHFFFAOYNA-N
Ontology: Flavonoid-3-O-glycosides
COLLISIONENERGY: 10
FORMULA: C27H30O16
RETENTIONTIME: 4.150383
IONMODE: Negative
Comment: registered in RIKEN PlaSMA
Num Peaks: 2
607.13666	6
609.14569	1000

NAME: Quercetin 3-O-[2''-O-b-D-glucopyranosyl]-a-L-rhamnopyranoside
PRECURSORMZ: 609.14610844783
PRECURSORTYPE: [M-H]-
INSTRUMENTTYPE: LC-ESI-QTOF
SMILES: CC1OC(OC2=C(OC3=CC(O)=CC(O)=C3C2=O)C2=CC(O)=C(O)C=C2)C(OC2OC(CO)C(O)C(O)C2O)C(O)C1O
INCHIKEY: DFNXNCCYQRPZMD-UHFFFAOYNA-N
Ontology: Flavonoid-3-O-glycosides
COLLISIONENERGY: 30
FORMULA: C27H30O16
RETENTIONTIME: 4.150383
IONMODE: Negative
Comment: registered in RIKEN PlaSMA
Num Peaks: 12
178.99641	56
255.03616	6
271.01923	20
271.02728	7
298.00977	7
299.01529	29
300.02643	1000
301.03183	300
302.03131	37
303.04599	9
355.0394	14
609.1474	249

NAME: Quercetin 3-O-[2''-O-b-D-glucopyranosyl]-a-L-rhamnopyranoside
PRECURSORMZ: 609.14610844783
PRECURSORTYPE: [M-H]-
INSTRUMENTTYPE: LC-ESI-QTOF
SMILES: CC1OC(OC2=C(OC3=CC(O)=CC(O)=C3C2=O)C2=CC(O)=C(O)C=C2)C(OC2OC(CO)C(O)C(O)C2O)C(O)C1O
INCHIKEY: DFNXNCCYQRPZMD-UHFFFAOYNA-N
Ontology: Flavonoid-3-O-glycosides
COLLISIONENERGY: 50
FORMULA: C27H30O16
RETENTIONTIME: 4.150383
IONMODE: Negative
Comment: registered in RIKEN PlaSMA
Num Peaks: 43
107.01025	6
108.01788	12
124.01469	5
135.00708	6
148.0139	7
151.00264	71
152.0076	8
162.99936	9
174.03186	6
178.9935	21
179.00302	8
180.00354	10
192.00858	5
199.04597	6
203.02637	5
211.03532	8
214.03229	5
226.01811	8
226.03082	17
227.0282	18
240.04712	6
241.00795	6
242.01492	6
243.02821	80
243.03738	26
244.02412	10
244.04364	10
254.0206	20
255.02805	366
256.02856	72
257.03775	10
271.02316	1000
272.02667	192
273.01971	8
273.04245	9
282.62411	6
299.01151	22
299.02374	10
300.02484	602
301.02066	40
301.03073	109
302.03018	27
313.02896	6

NAME: Quercetin 3-O-[2''-O-(6'''-O-p-coumaroyl)-b-D-glucopyranosyl]-a-L-rhamnopyranoside
PRECURSORMZ: 755.18288784783
PRECURSORTYPE: [M-H]-
INSTRUMENTTYPE: LC-ESI-QTOF
SMILES: CC1OC(OC2=C(OC3=CC(O)=CC(O)=C3C2=O)C2=CC(O)=C(O)C=C2)C(OC2OC(COC(=O)C=CC3=CC=C(O)C=C3)C(O)C(O)C2O)C(O)C1O
INCHIKEY: LSMKTLJKBSXMMR-UHFFFAOYNA-N
Ontology: Flavonoid-3-O-glycosides
COLLISIONENERGY: 10
FORMULA: C36H36O18
RETENTIONTIME: 4.676867
IONMODE: Negative
Comment: registered in RIKEN PlaSMA
Num Peaks: 10
178.99472	15
299.01492	14
300.02548	239
301.03299	85
302.03638	15
609.14709	316
610.14886	74
611.15216	14
754.18628	6
755.18262	1000

NAME: Quercetin 3-O-[2''-O-(6'''-O-p-coumaroyl)-b-D-glucopyranosyl]-a-L-rhamnopyranoside
PRECURSORMZ: 755.18288784783
PRECURSORTYPE: [M-H]-
INSTRUMENTTYPE: LC-ESI-QTOF
SMILES: CC1OC(OC2=C(OC3=CC(O)=CC(O)=C3C2=O)C2=CC(O)=C(O)C=C2)C(OC2OC(COC(=O)C=CC3=CC=C(O)C=C3)C(O)C(O)C2O)C(O)C1O
INCHIKEY: LSMKTLJKBSXMMR-UHFFFAOYNA-N
Ontology: Flavonoid-3-O-glycosides
COLLISIONENERGY: 10
FORMULA: C36H36O18
RETENTIONTIME: 4.676867
IONMODE: Negative
Comment: registered in RIKEN PlaSMA
Num Peaks: 3
753.1853	5
754.17859	10
755.18561	1000

NAME: Quercetin 3-O-[2''-O-(6'''-O-p-coumaroyl)-b-D-glucopyranosyl]-a-L-rhamnopyranoside
PRECURSORMZ: 755.18288784783
PRECURSORTYPE: [M-H]-
INSTRUMENTTYPE: LC-ESI-QTOF
SMILES: CC1OC(OC2=C(OC3=CC(O)=CC(O)=C3C2=O)C2=CC(O)=C(O)C=C2)C(OC2OC(COC(=O)C=CC3=CC=C(O)C=C3)C(O)C(O)C2O)C(O)C1O
INCHIKEY: LSMKTLJKBSXMMR-UHFFFAOYNA-N
Ontology: Flavonoid-3-O-glycosides
COLLISIONENERGY: 30
FORMULA: C36H36O18
RETENTIONTIME: 4.676867
IONMODE: Negative
Comment: registered in RIKEN PlaSMA
Num Peaks: 18
145.03001	5
151.00148	6
178.99248	13
179.00127	23
299.01852	35
300.02487	283
301.01337	7
301.03284	76
302.02628	6
302.0412	14
429.07095	8
591.11047	6
591.14496	24
609.14642	1000
610.14923	298
611.15063	57
612.1568	15
755.18207	183

NAME: Quercetin 3-O-[2''-O-(6'''-O-p-coumaroyl)-b-D-glucopyranosyl]-a-L-rhamnopyranoside
PRECURSORMZ: 755.18288784783
PRECURSORTYPE: [M-H]-
INSTRUMENTTYPE: LC-ESI-QTOF
SMILES: CC1OC(OC2=C(OC3=CC(O)=CC(O)=C3C2=O)C2=CC(O)=C(O)C=C2)C(OC2OC(COC(=O)C=CC3=CC=C(O)C=C3)C(O)C(O)C2O)C(O)C1O
INCHIKEY: LSMKTLJKBSXMMR-UHFFFAOYNA-N
Ontology: Flavonoid-3-O-glycosides
COLLISIONENERGY: 10
FORMULA: C36H36O18
RETENTIONTIME: 4.676867
IONMODE: Negative
Comment: registered in RIKEN PlaSMA
Num Peaks: 9
255.03201	10
299.01633	7
300.02737	260
301.0325	77
302.03671	7
609.14618	374
610.15192	96
611.14764	18
755.18396	1000

NAME: Quercetin 3-O-[2''-O-(6'''-O-p-coumaroyl)-b-D-glucopyranosyl]-a-L-rhamnopyranoside
PRECURSORMZ: 755.18288784783
PRECURSORTYPE: [M-H]-
INSTRUMENTTYPE: LC-ESI-QTOF
SMILES: CC1OC(OC2=C(OC3=CC(O)=CC(O)=C3C2=O)C2=CC(O)=C(O)C=C2)C(OC2OC(COC(=O)C=CC3=CC=C(O)C=C3)C(O)C(O)C2O)C(O)C1O
INCHIKEY: LSMKTLJKBSXMMR-UHFFFAOYNA-N
Ontology: Flavonoid-3-O-glycosides
COLLISIONENERGY: 10
FORMULA: C36H36O18
RETENTIONTIME: 4.676867
IONMODE: Negative
Comment: registered in RIKEN PlaSMA
Num Peaks: 3
754.17548	11
755.18292	1000
755.25928	6

NAME: Quercetin 3-O-[2''-O-(6'''-O-p-coumaroyl)-b-D-glucopyranosyl]-a-L-rhamnopyranoside
PRECURSORMZ: 755.18288784783
PRECURSORTYPE: [M-H]-
INSTRUMENTTYPE: LC-ESI-QTOF
SMILES: CC1OC(OC2=C(OC3=CC(O)=CC(O)=C3C2=O)C2=CC(O)=C(O)C=C2)C(OC2OC(COC(=O)C=CC3=CC=C(O)C=C3)C(O)C(O)C2O)C(O)C1O
INCHIKEY: LSMKTLJKBSXMMR-UHFFFAOYNA-N
Ontology: Flavonoid-3-O-glycosides
COLLISIONENERGY: 30
FORMULA: C36H36O18
RETENTIONTIME: 4.676867
IONMODE: Negative
Comment: registered in RIKEN PlaSMA
Num Peaks: 18
178.99744	29
180.00529	5
299.00671	9
299.0239	13
300.02612	249
301.0296	75
301.04007	22
302.03848	14
429.07608	10
447.10211	6
591.13739	21
592.14026	12
609.14667	1000
609.20532	6
610.14935	315
611.1532	76
612.16003	9
755.1853	183

NAME: Quercetin 3-O-[2''-O-(6'''-O-p-coumaroyl)-b-D-glucopyranosyl]-a-L-rhamnopyranoside
PRECURSORMZ: 755.18288784783
PRECURSORTYPE: [M-H]-
INSTRUMENTTYPE: LC-ESI-QTOF
SMILES: CC1OC(OC2=C(OC3=CC(O)=CC(O)=C3C2=O)C2=CC(O)=C(O)C=C2)C(OC2OC(COC(=O)C=CC3=CC=C(O)C=C3)C(O)C(O)C2O)C(O)C1O
INCHIKEY: LSMKTLJKBSXMMR-UHFFFAOYNA-N
Ontology: Flavonoid-3-O-glycosides
COLLISIONENERGY: 50
FORMULA: C36H36O18
RETENTIONTIME: 4.676867
IONMODE: Negative
Comment: registered in RIKEN PlaSMA
Num Peaks: 16
151.00269	57
178.99777	48
242.02373	8
243.02591	11
254.02615	5
255.02824	105
256.03015	5
271.02533	196
272.02872	31
272.03885	19
299.01974	31
300.02658	1000
301.03165	258
302.02448	12
302.03799	27
609.15515	7

NAME: Quercetin 3-O-[2''-O-(6'''-O-p-coumaroyl)-b-D-glucopyranosyl]-a-L-rhamnopyranoside
PRECURSORMZ: 755.18288784783
PRECURSORTYPE: [M-H]-
INSTRUMENTTYPE: LC-ESI-QTOF
SMILES: CC1OC(OC2=C(OC3=CC(O)=CC(O)=C3C2=O)C2=CC(O)=C(O)C=C2)C(OC2OC(COC(=O)C=CC3=CC=C(O)C=C3)C(O)C(O)C2O)C(O)C1O
INCHIKEY: LSMKTLJKBSXMMR-UHFFFAOYNA-N
Ontology: Flavonoid-3-O-glycosides
COLLISIONENERGY: 10
FORMULA: C36H36O18
RETENTIONTIME: 4.676867
IONMODE: Negative
Comment: registered in RIKEN PlaSMA
Num Peaks: 12
178.9995	11
255.02776	8
271.01996	8
299.0213	6
300.02603	283
301.03094	74
302.03189	7
609.14459	338
610.14203	96
611.15454	26
754.17279	15
755.18152	1000

NAME: Quercetin 3-O-[2''-O-(6'''-O-p-coumaroyl)-b-D-glucopyranosyl]-a-L-rhamnopyranoside
PRECURSORMZ: 755.18288784783
PRECURSORTYPE: [M-H]-
INSTRUMENTTYPE: LC-ESI-QTOF
SMILES: CC1OC(OC2=C(OC3=CC(O)=CC(O)=C3C2=O)C2=CC(O)=C(O)C=C2)C(OC2OC(COC(=O)C=CC3=CC=C(O)C=C3)C(O)C(O)C2O)C(O)C1O
INCHIKEY: LSMKTLJKBSXMMR-UHFFFAOYNA-N
Ontology: Flavonoid-3-O-glycosides
COLLISIONENERGY: 10
FORMULA: C36H36O18
RETENTIONTIME: 4.676867
IONMODE: Negative
Comment: registered in RIKEN PlaSMA
Num Peaks: 2
754.15338	7
755.1828	1000

NAME: Quercetin 3-O-[2''-O-(6'''-O-p-coumaroyl)-b-D-glucopyranosyl]-a-L-rhamnopyranoside
PRECURSORMZ: 755.18288784783
PRECURSORTYPE: [M-H]-
INSTRUMENTTYPE: LC-ESI-QTOF
SMILES: CC1OC(OC2=C(OC3=CC(O)=CC(O)=C3C2=O)C2=CC(O)=C(O)C=C2)C(OC2OC(COC(=O)C=CC3=CC=C(O)C=C3)C(O)C(O)C2O)C(O)C1O
INCHIKEY: LSMKTLJKBSXMMR-UHFFFAOYNA-N
Ontology: Flavonoid-3-O-glycosides
COLLISIONENERGY: 30
FORMULA: C36H36O18
RETENTIONTIME: 4.676867
IONMODE: Negative
Comment: registered in RIKEN PlaSMA
Num Peaks: 17
151.00157	6
178.99469	27
179.00531	9
299.01898	21
300.02576	229
301.03354	95
302.03271	7
429.08368	11
447.09244	8
591.11273	8
591.146	14
609.14575	1000
609.20001	10
610.1485	267
611.15479	58
612.14777	7
755.18219	183

NAME: Quercetin 3-O-[2''-O-(6'''-O-p-coumaroyl)-b-D-glucopyranosyl]-a-L-rhamnopyranoside
PRECURSORMZ: 755.18288784783
PRECURSORTYPE: [M-H]-
INSTRUMENTTYPE: LC-ESI-QTOF
SMILES: CC1OC(OC2=C(OC3=CC(O)=CC(O)=C3C2=O)C2=CC(O)=C(O)C=C2)C(OC2OC(COC(=O)C=CC3=CC=C(O)C=C3)C(O)C(O)C2O)C(O)C1O
INCHIKEY: LSMKTLJKBSXMMR-UHFFFAOYNA-N
Ontology: Flavonoid-3-O-glycosides
COLLISIONENERGY: 50
FORMULA: C36H36O18
RETENTIONTIME: 4.676867
IONMODE: Negative
Comment: registered in RIKEN PlaSMA
Num Peaks: 18
119.04825	6
151.00203	57
178.99706	26
227.02168	5
243.02713	14
244.04681	6
254.01978	9
255.02922	83
256.02386	5
256.03409	5
271.02322	229
272.01785	9
272.02994	27
299.02371	25
300.02658	1000
301.03116	238
302.03552	36
609.14307	6

NAME: Cynarin
PRECURSORMZ: 515.11949974783
PRECURSORTYPE: [M-H]-
INSTRUMENTTYPE: LC-ESI-QTOF
SMILES: OC1CC(CC(OC(=O)C=CC2=CC(O)=C(O)C=C2)C1O)(OC(=O)C=CC1=CC(O)=C(O)C=C1)C(O)=O
INCHIKEY: YDDUMTOHNYZQPO-UHFFFAOYNA-N
Ontology: Quinic acids and derivatives
COLLISIONENERGY: 10
FORMULA: C25H24O12
RETENTIONTIME: 3.489183
IONMODE: Negative
Comment: registered in RIKEN PlaSMA
Num Peaks: 42
109.02831	25
133.02788	16
134.0343	42
135.04533	209
135.05598	25
136.04865	33
137.02188	16
137.04713	16
153.05765	24
155.0318	21
155.03952	18
161.02341	67
162.02243	16
162.03685	40
173.03806	38
173.05054	16
174.0442	18
175.14337	17
176.04572	21
177.01886	109
178.01738	17
178.02583	30
179.03378	853
180.0374	37
188.84731	19
191.05579	886
193.05313	17
193.06482	17
227.06131	17
274.18387	16
291.08954	17
295.06714	18
307.08121	18
335.08594	176
336.08279	18
351.06894	42
353.08905	570
354.08981	47
513.09802	51
514.11121	81
514.13	15
515.12164	1000

NAME: Sennoside B
PRECURSORMZ: 861.18836714783
PRECURSORTYPE: [M-H]-
INSTRUMENTTYPE: LC-ESI-QTOF
SMILES: OCC1OC(OC2=CC=CC3=C2C(=O)C2=C(C=C(C=C2O)C(O)=O)C3C2C3=C(C(OC4OC(CO)C(O)C(O)C4O)=CC=C3)C(=O)C3=C2C=C(C=C3O)C(O)=O)C(O)C(O)C1O
INCHIKEY: IPQVTOJGNYVQEO-UHFFFAOYNA-N
Ontology: Anthracenecarboxylic acids
COLLISIONENERGY: 10
FORMULA: C42H38O20
RETENTIONTIME: 3.824933
IONMODE: Negative
Comment: registered in RIKEN PlaSMA
Num Peaks: 51
224.04402	29
224.05963	7
241.05672	8
249.32144	7
268.03604	22
269.04224	14
280.34409	7
386.10071	193
387.10175	62
388.10248	23
400.11819	7
409.55618	7
417.02631	10
431.0914	13
447.09784	10
450.09866	10
460.047	8
470.884	7
497.46832	7
505.11975	7
517.09808	7
520.26971	7
537.09271	22
572.44537	10
583.75275	8
593.1637	7
610.15356	7
610.16907	7
611.14484	8
655.14081	32
655.16687	20
656.13635	16
697.14874	9
698.08533	7
698.12207	22
698.15564	7
699.13629	123
699.1803	7
700.12372	47
701.12048	7
701.15259	7
702.16962	7
704.08118	7
712.83453	10
731.96478	8
743.14832	7
770.30853	7
845.19977	10
861.0061	7
861.13019	8
861.18683	1000

NAME: Plantaginin
PRECURSORMZ: 447.09328504783
PRECURSORTYPE: [M-H]-
INSTRUMENTTYPE: LC-ESI-QTOF
SMILES: OCC1OC(OC2=C(O)C(O)=C3C(=O)C=C(OC3=C2)C2=CC=C(O)C=C2)C(O)C(O)C1O
INCHIKEY: VUGRLRAUZWGZJP-UHFFFAOYNA-N
Ontology: Flavonoid-7-O-glycosides
COLLISIONENERGY: 10
FORMULA: C21H20O11
RETENTIONTIME: 4.071683
IONMODE: Negative
Comment: registered in RIKEN PlaSMA
Num Peaks: 22
136.98642	23
137.98859	5
155.04503	8
171.05101	5
177.99315	5
186.0372	8
200.04279	5
211.04562	8
212.04697	25
215.06409	7
227.03485	10
255.03528	5
283.02396	33
284.03244	517
285.01343	7
285.03772	429
286.03851	26
286.04727	24
287.03537	9
318.99326	6
352.79361	7
447.09198	1000

NAME: Tectorigenin
PRECURSORMZ: 299.05611164783
PRECURSORTYPE: [M-H]-
INSTRUMENTTYPE: LC-ESI-QTOF
SMILES: COC1=C(O)C2=C(OC=C(C2=O)C2=CC=C(O)C=C2)C=C1O
INCHIKEY: OBBCRPUNCUPUOS-UHFFFAOYSA-N
Ontology: Isoflavones
COLLISIONENERGY: 10
FORMULA: C16H12O6
RETENTIONTIME: 5.961267
IONMODE: Negative
Comment: registered in RIKEN PlaSMA
Num Peaks: 32
132.02028	8
133.02887	15
133.99797	9
143.04691	6
155.0502	13
162.99864	8
182.0377	6
183.04477	15
190.99591	37
191.00645	7
192.00269	8
199.04007	10
200.04028	8
200.04883	11
211.04529	13
212.04729	12
227.03305	44
227.04048	14
228.04056	34
239.03484	18
240.03497	23
240.04594	46
241.04741	7
255.02946	19
256.02747	11
256.04037	7
283.02386	54
284.03195	950
285.03433	170
286.03256	6
286.0462	6
299.05515	1000

NAME: Ginsenoside Rc
PRECURSORMZ: 1077.58509854783
PRECURSORTYPE: [M-H]-
INSTRUMENTTYPE: LC-ESI-QTOF
SMILES: CC(C)=CCCC(C)(OC1OC(COC2OC(CO)C(O)C2O)C(O)C(O)C1O)C1CCC2(C)C1C(O)CC1C3(C)CCC(OC4OC(CO)C(O)C(O)C4OC4OC(CO)C(O)C(O)C4O)C(C)(C)C3CCC21C
INCHIKEY: JDCPEKQWFDWQLI-UHFFFAOYNA-N
Ontology: Triterpene saponins
COLLISIONENERGY: 10
FORMULA: C53H90O22
RETENTIONTIME: 6.011
IONMODE: Negative
Comment: registered in RIKEN PlaSMA
Num Peaks: 27
89.02349	12
113.01578	18
131.03186	11
161.05223	19
180.1317	15
191.05211	14
220.41278	14
221.07306	11
251.07738	24
337.15063	11
604.41187	12
621.41626	11
645.10205	12
669.60474	13
704.34406	12
743.20227	12
765.479	11
784.4906	11
946.54785	33
947.54828	12
1017.54974	13
1069.91785	12
1076.3053	14
1076.74915	12
1077.48865	12
1077.5835	1000
1077.68311	13

NAME: Ginsenoside Rc
PRECURSORMZ: 1123.59057785183
PRECURSORTYPE: [M+FA-H]-
INSTRUMENTTYPE: LC-ESI-QTOF
SMILES: CC(C)=CCCC(C)(OC1OC(COC2OC(CO)C(O)C2O)C(O)C(O)C1O)C1CCC2(C)C1C(O)CC1C3(C)CCC(OC4OC(CO)C(O)C(O)C4OC4OC(CO)C(O)C(O)C4O)C(C)(C)C3CCC21C
INCHIKEY: JDCPEKQWFDWQLI-UHFFFAOYNA-N
Ontology: Triterpene saponins
COLLISIONENERGY: 10
FORMULA: C53H90O22
RETENTIONTIME: 6.011
IONMODE: Negative
Comment: registered in RIKEN PlaSMA
Num Peaks: 29
82.52505	6
119.03152	7
149.04384	26
170.27263	6
191.05684	12
251.10031	5
293.08136	6
449.74976	7
511.09222	7
584.47949	7
729.48901	6
915.53979	5
945.55743	6
946.52869	17
1077.58435	1000
1078.06763	50
1078.58643	507
1079.03967	5
1079.10327	6
1079.1311	6
1079.59351	160
1079.64429	10
1080.59009	41
1091.08643	5
1096.04236	5
1100.55347	6
1101.59924	6
1123.55444	22
1123.59741	47

NAME: Cynarin
PRECURSORMZ: 515.11949974783
PRECURSORTYPE: [M-H]-
INSTRUMENTTYPE: LC-ESI-QTOF
SMILES: OC1CC(CC(OC(=O)C=CC2=CC(O)=C(O)C=C2)C1O)(OC(=O)C=CC1=CC(O)=C(O)C=C1)C(O)=O
INCHIKEY: YDDUMTOHNYZQPO-UHFFFAOYNA-N
Ontology: Quinic acids and derivatives
COLLISIONENERGY: 10
FORMULA: C25H24O12
RETENTIONTIME: 3.489183
IONMODE: Negative
Comment: registered in RIKEN PlaSMA
Num Peaks: 21
151.03462	5
177.01778	6
179.03279	27
180.03828	11
307.08496	18
328.79114	7
335.06564	17
335.09103	10
337.08701	5
351.05658	11
351.07513	31
352.069	21
352.08212	13
353.08621	104
374.15234	6
470.12097	8
513.09326	28
513.11139	40
514.10535	91
515.11884	1000
515.15942	7

NAME: Sennoside B
PRECURSORMZ: 861.18836714783
PRECURSORTYPE: [M-H]-
INSTRUMENTTYPE: LC-ESI-QTOF
SMILES: OCC1OC(OC2=CC=CC3=C2C(=O)C2=C(C=C(C=C2O)C(O)=O)C3C2C3=C(C(OC4OC(CO)C(O)C(O)C4O)=CC=C3)C(=O)C3=C2C=C(C=C3O)C(O)=O)C(O)C(O)C1O
INCHIKEY: IPQVTOJGNYVQEO-UHFFFAOYNA-N
Ontology: Anthracenecarboxylic acids
COLLISIONENERGY: 10
FORMULA: C42H38O20
RETENTIONTIME: 3.824933
IONMODE: Negative
Comment: registered in RIKEN PlaSMA
Num Peaks: 11
131.4101	5
286.42081	6
334.90576	5
386.10999	5
538.08746	5
699.10791	12
699.13831	17
700.15814	7
853.31738	6
861.19055	1000
861.33173	5

NAME: Plantaginin
PRECURSORMZ: 447.09328504783
PRECURSORTYPE: [M-H]-
INSTRUMENTTYPE: LC-ESI-QTOF
SMILES: OCC1OC(OC2=C(O)C(O)=C3C(=O)C=C(OC3=C2)C2=CC=C(O)C=C2)C(O)C(O)C1O
INCHIKEY: VUGRLRAUZWGZJP-UHFFFAOYNA-N
Ontology: Flavonoid-7-O-glycosides
COLLISIONENERGY: 10
FORMULA: C21H20O11
RETENTIONTIME: 4.071683
IONMODE: Negative
Comment: registered in RIKEN PlaSMA
Num Peaks: 4
285.03928	87
286.04712	6
446.08554	7
447.09293	1000

NAME: Tectorigenin
PRECURSORMZ: 299.05611164783
PRECURSORTYPE: [M-H]-
INSTRUMENTTYPE: LC-ESI-QTOF
SMILES: COC1=C(O)C2=C(OC=C(C2=O)C2=CC=C(O)C=C2)C=C1O
INCHIKEY: OBBCRPUNCUPUOS-UHFFFAOYSA-N
Ontology: Isoflavones
COLLISIONENERGY: 10
FORMULA: C16H12O6
RETENTIONTIME: 5.961267
IONMODE: Negative
Comment: registered in RIKEN PlaSMA
Num Peaks: 3
284.03131	178
285.034	17
299.05453	1000

NAME: Ginsenoside Rc
PRECURSORMZ: 1077.58509854783
PRECURSORTYPE: [M-H]-
INSTRUMENTTYPE: LC-ESI-QTOF
SMILES: CC(C)=CCCC(C)(OC1OC(COC2OC(CO)C(O)C2O)C(O)C(O)C1O)C1CCC2(C)C1C(O)CC1C3(C)CCC(OC4OC(CO)C(O)C(O)C4OC4OC(CO)C(O)C(O)C4O)C(C)(C)C3CCC21C
INCHIKEY: JDCPEKQWFDWQLI-UHFFFAOYNA-N
Ontology: Triterpene saponins
COLLISIONENERGY: 10
FORMULA: C53H90O22
RETENTIONTIME: 6.011
IONMODE: Negative
Comment: registered in RIKEN PlaSMA
Num Peaks: 6
295.9455	16
549.71698	18
588.99634	15
695.62463	15
1077.44629	15
1077.5835	1000

NAME: Ginsenoside Rc
PRECURSORMZ: 1123.59057785183
PRECURSORTYPE: [M+FA-H]-
INSTRUMENTTYPE: LC-ESI-QTOF
SMILES: CC(C)=CCCC(C)(OC1OC(COC2OC(CO)C(O)C2O)C(O)C(O)C1O)C1CCC2(C)C1C(O)CC1C3(C)CCC(OC4OC(CO)C(O)C(O)C4OC4OC(CO)C(O)C(O)C4O)C(C)(C)C3CCC21C
INCHIKEY: JDCPEKQWFDWQLI-UHFFFAOYNA-N
Ontology: Triterpene saponins
COLLISIONENERGY: 10
FORMULA: C53H90O22
RETENTIONTIME: 6.011
IONMODE: Negative
Comment: registered in RIKEN PlaSMA
Num Peaks: 19
439.9144	16
559.15356	14
622.5929	14
626.0614	14
772.38843	16
1077.57788	394
1077.61658	134
1078.08862	35
1078.53979	28
1078.59241	178
1079.07153	14
1079.59473	49
1079.63269	17
1080.58643	29
1081.09607	15
1091.32532	14
1101.09375	15
1102.1062	29
1123.58862	1000

NAME: Cynarin
PRECURSORMZ: 515.11949974783
PRECURSORTYPE: [M-H]-
INSTRUMENTTYPE: LC-ESI-QTOF
SMILES: OC1CC(CC(OC(=O)C=CC2=CC(O)=C(O)C=C2)C1O)(OC(=O)C=CC1=CC(O)=C(O)C=C1)C(O)=O
INCHIKEY: YDDUMTOHNYZQPO-UHFFFAOYNA-N
Ontology: Quinic acids and derivatives
COLLISIONENERGY: 30
FORMULA: C25H24O12
RETENTIONTIME: 3.489183
IONMODE: Negative
Comment: registered in RIKEN PlaSMA
Num Peaks: 40
93.03106	7
105.03098	11
133.02357	40
133.02965	60
134.03906	8
135.01776	10
135.04395	147
137.02377	7
143.03052	17
149.03018	8
155.03839	24
156.03967	10
156.04533	8
158.94206	8
161.01926	23
161.02808	39
162.02348	26
173.04405	52
177.01875	59
178.01653	8
178.02953	7
179.03247	795
180.02837	12
180.03975	60
180.92001	11
181.02863	8
181.03511	12
181.36436	10
191.03531	14
191.0546	1000
192.06392	37
193.06419	16
195.03426	7
203.03448	7
291.0907	9
335.07614	29
336.07199	9
351.05969	10
353.08588	23
354.09308	17

NAME: Sennoside B
PRECURSORMZ: 861.18836714783
PRECURSORTYPE: [M-H]-
INSTRUMENTTYPE: LC-ESI-QTOF
SMILES: OCC1OC(OC2=CC=CC3=C2C(=O)C2=C(C=C(C=C2O)C(O)=O)C3C2C3=C(C(OC4OC(CO)C(O)C(O)C4O)=CC=C3)C(=O)C3=C2C=C(C=C3O)C(O)=O)C(O)C(O)C1O
INCHIKEY: IPQVTOJGNYVQEO-UHFFFAOYNA-N
Ontology: Anthracenecarboxylic acids
COLLISIONENERGY: 30
FORMULA: C42H38O20
RETENTIONTIME: 3.824933
IONMODE: Negative
Comment: registered in RIKEN PlaSMA
Num Peaks: 74
224.04527	45
266.05402	20
268.03247	37
268.04681	27
269.03928	21
270.04147	21
281.05081	19
282.05954	24
302.05017	27
309.13898	23
331.70554	39
367.0712	18
386.0867	189
386.10028	822
387.09076	87
387.10364	119
387.17493	33
388.10117	18
388.11584	19
430.07697	20
431.08215	21
431.10611	18
459.10501	32
475.0777	18
490.09903	19
491.09644	20
491.1207	21
493.06787	18
494.09204	23
497.94913	18
514.48169	18
521.08563	24
535.08191	20
537.06531	58
537.0791	84
537.09924	87
537.11133	37
538.10974	18
539.06897	19
539.10669	20
546.76294	20
610.17426	18
612.19659	18
614.65405	20
631.62866	20
637.13763	18
640.1507	18
654.11255	21
655.11224	34
655.1358	45
655.16473	80
656.13824	56
663.11591	19
678.5329	22
686.68335	19
697.17615	75
698.125	134
699.1369	1000
699.50531	34
700.11157	42
700.14539	429
701.14893	37
702.14221	20
721.1084	20
774.18268	18
800.18158	18
817.19672	172
817.22455	43
817.25189	18
818.21252	93
819.17725	45
819.22418	46
860.81146	32
861.18726	985

NAME: Plantaginin
PRECURSORMZ: 447.09328504783
PRECURSORTYPE: [M-H]-
INSTRUMENTTYPE: LC-ESI-QTOF
SMILES: OCC1OC(OC2=C(O)C(O)=C3C(=O)C=C(OC3=C2)C2=CC=C(O)C=C2)C(O)C(O)C1O
INCHIKEY: VUGRLRAUZWGZJP-UHFFFAOYNA-N
Ontology: Flavonoid-7-O-glycosides
COLLISIONENERGY: 30
FORMULA: C21H20O11
RETENTIONTIME: 4.071683
IONMODE: Negative
Comment: registered in RIKEN PlaSMA
Num Peaks: 13
136.9864	36
147.00958	5
192.00339	6
212.0441	10
228.03934	5
239.03439	8
283.02884	15
284.03156	1000
284.06668	7
285.03702	462
286.04514	80
287.04388	8
447.09534	29

NAME: Tectorigenin
PRECURSORMZ: 299.05611164783
PRECURSORTYPE: [M-H]-
INSTRUMENTTYPE: LC-ESI-QTOF
SMILES: COC1=C(O)C2=C(OC=C(C2=O)C2=CC=C(O)C=C2)C=C1O
INCHIKEY: OBBCRPUNCUPUOS-UHFFFAOYSA-N
Ontology: Isoflavones
COLLISIONENERGY: 30
FORMULA: C16H12O6
RETENTIONTIME: 5.961267
IONMODE: Negative
Comment: registered in RIKEN PlaSMA
Num Peaks: 84
94.00681	14
110.00211	30
120.01311	14
120.02159	16
121.0701	14
122.00444	14
131.04979	24
132.01976	73
133.02667	137
135.0076	36
140.05702	14
141.0312	20
142.03847	14
146.03568	18
148.01778	14
150.99437	19
151.00218	81
153.89816	21
154.03683	18
155.04166	15
156.05724	47
157.05524	20
161.99709	16
163.00304	176
168.13611	14
171.03799	16
171.04601	19
172.04138	16
172.05031	36
172.0605	15
182.0347	15
182.76868	14
183.04013	33
184.05125	42
187.04263	16
190.98444	20
190.9971	270
192.00348	14
199.01944	14
199.03885	63
199.04684	75
200.04924	433
201.03682	15
201.05093	26
201.14117	14
202.02345	15
210.03391	16
211.03123	108
212.05202	73
227.03212	450
227.04819	36
228.03831	192
228.05296	14
229.03052	16
229.05112	30
238.02534	77
239.0275	139
239.03922	127
240.04332	512
240.05789	33
240.394	17
241.03558	31
241.04933	14
242.05145	30
255.02734	213
255.03586	197
256.03464	108
256.04865	20
256.18866	14
256.48788	15
257.03531	14
267.00833	14
267.03131	34
267.0452	20
269.03311	17
271.5697	16
283.01831	283
283.02777	239
284.02881	1000
284.05353	30
285.02759	32
285.03961	97
285.05502	27
286.04572	15

NAME: Ginsenoside Rc
PRECURSORMZ: 1077.58509854783
PRECURSORTYPE: [M-H]-
INSTRUMENTTYPE: LC-ESI-QTOF
SMILES: CC(C)=CCCC(C)(OC1OC(COC2OC(CO)C(O)C2O)C(O)C(O)C1O)C1CCC2(C)C1C(O)CC1C3(C)CCC(OC4OC(CO)C(O)C(O)C4OC4OC(CO)C(O)C(O)C4O)C(C)(C)C3CCC21C
INCHIKEY: JDCPEKQWFDWQLI-UHFFFAOYNA-N
Ontology: Triterpene saponins
COLLISIONENERGY: 30
FORMULA: C53H90O22
RETENTIONTIME: 6.011
IONMODE: Negative
Comment: registered in RIKEN PlaSMA
Num Peaks: 16
64.87234	9
71.01642	9
207.04417	12
494.67639	14
607.04004	9
679.25787	8
764.35748	11
765.49432	23
783.50433	8
784.48218	11
915.50092	8
915.5246	9
945.54492	10
946.5484	20
946.60065	8
1077.58704	1000

NAME: Ginsenoside Rc
PRECURSORMZ: 1123.59057785183
PRECURSORTYPE: [M+FA-H]-
INSTRUMENTTYPE: LC-ESI-QTOF
SMILES: CC(C)=CCCC(C)(OC1OC(COC2OC(CO)C(O)C2O)C(O)C(O)C1O)C1CCC2(C)C1C(O)CC1C3(C)CCC(OC4OC(CO)C(O)C(O)C4OC4OC(CO)C(O)C(O)C4O)C(C)(C)C3CCC21C
INCHIKEY: JDCPEKQWFDWQLI-UHFFFAOYNA-N
Ontology: Triterpene saponins
COLLISIONENERGY: 30
FORMULA: C53H90O22
RETENTIONTIME: 6.011
IONMODE: Negative
Comment: registered in RIKEN PlaSMA
Num Peaks: 10
505.3891	8
580.3999	11
915.53125	6
945.54279	8
1077.5874	1000
1078.59131	545
1078.69531	11
1079.5448	9
1079.58667	95
1116.23413	5

NAME: Cynarin
PRECURSORMZ: 515.11949974783
PRECURSORTYPE: [M-H]-
INSTRUMENTTYPE: LC-ESI-QTOF
SMILES: OC1CC(CC(OC(=O)C=CC2=CC(O)=C(O)C=C2)C1O)(OC(=O)C=CC1=CC(O)=C(O)C=C1)C(O)=O
INCHIKEY: YDDUMTOHNYZQPO-UHFFFAOYNA-N
Ontology: Quinic acids and derivatives
COLLISIONENERGY: 50
FORMULA: C25H24O12
RETENTIONTIME: 3.489183
IONMODE: Negative
Comment: registered in RIKEN PlaSMA
Num Peaks: 35
59.01145	29
71.76501	16
73.02482	18
77.03651	15
85.02679	35
85.03096	19
93.03282	15
97.99718	15
106.03759	15
109.0261	15
111.04499	26
111.05056	15
117.03416	14
127.03762	36
129.02237	14
132.03194	16
133.02637	103
134.03236	64
135.04382	1000
135.05632	29
136.04645	62
138.05426	15
155.03134	20
161.02113	45
162.02785	14
173.04185	28
176.04224	14
179.03461	177
191.02415	14
191.05354	647
192.06216	100
193.06021	32
208.32266	19
252.03996	16
343.01749	15

NAME: Sennoside B
PRECURSORMZ: 861.18836714783
PRECURSORTYPE: [M-H]-
INSTRUMENTTYPE: LC-ESI-QTOF
SMILES: OCC1OC(OC2=CC=CC3=C2C(=O)C2=C(C=C(C=C2O)C(O)=O)C3C2C3=C(C(OC4OC(CO)C(O)C(O)C4O)=CC=C3)C(=O)C3=C2C=C(C=C3O)C(O)=O)C(O)C(O)C1O
INCHIKEY: IPQVTOJGNYVQEO-UHFFFAOYNA-N
Ontology: Anthracenecarboxylic acids
COLLISIONENERGY: 50
FORMULA: C42H38O20
RETENTIONTIME: 3.824933
IONMODE: Negative
Comment: registered in RIKEN PlaSMA
Num Peaks: 71
71.00877	15
71.01559	13
95.01116	11
186.03537	11
209.06395	11
224.04547	1000
225.05237	151
225.0688	10
236.04811	11
265.03867	12
266.06216	13
268.0296	11
268.04797	27
269.04269	11
269.05032	33
270.0618	11
282.05127	11
311.04846	14
311.21982	14
356.07779	14
386.09805	537
387.09933	94
388.13031	10
400.04742	13
407.09683	13
414.09274	10
419.07932	22
419.10626	15
429.17621	11
430.10126	12
431.09698	10
431.11157	10
446.1033	14
447.09409	84
448.09045	23
448.11145	19
449.07629	22
449.09778	74
449.11224	32
450.09454	35
450.11642	26
451.09766	10
460.10089	15
462.10748	13
471.23987	10
473.11365	11
474.05902	11
475.06732	11
491.03995	14
491.08392	10
491.11191	13
491.1398	11
492.09003	21
493.08313	12
493.10123	58
503.12799	11
518.06879	10
536.05524	13
537.07056	13
585.14349	13
609.14856	24
610.1496	11
611.14984	36
612.12598	10
613.15912	11
636.10864	14
636.12469	14
637.17828	11
638.11078	10
654.14563	11
655.15192	13

NAME: Plantaginin
PRECURSORMZ: 447.09328504783
PRECURSORTYPE: [M-H]-
INSTRUMENTTYPE: LC-ESI-QTOF
SMILES: OCC1OC(OC2=C(O)C(O)=C3C(=O)C=C(OC3=C2)C2=CC=C(O)C=C2)C(O)C(O)C1O
INCHIKEY: VUGRLRAUZWGZJP-UHFFFAOYNA-N
Ontology: Flavonoid-7-O-glycosides
COLLISIONENERGY: 50
FORMULA: C21H20O11
RETENTIONTIME: 4.071683
IONMODE: Negative
Comment: registered in RIKEN PlaSMA
Num Peaks: 90
65.0017	153
67.01582	22
94.0038	37
95.01173	22
108.99416	28
109.99845	127
117.03119	170
117.04128	28
118.03786	22
119.00968	29
119.01756	34
119.0474	75
121.05521	23
130.04012	109
133.0275	30
136.98598	1000
137.02083	22
137.99191	33
139.00465	92
140.01071	24
141.03972	22
143.05327	24
144.05574	29
149.99496	22
150.00861	22
150.99744	25
153.00768	40
153.01352	23
155.04213	29
155.05231	34
155.06438	33
156.05812	97
157.05891	22
157.06493	24
158.03651	24
159.04648	24
164.01013	89
165.98825	41
165.99472	77
167.04195	51
168.89331	25
170.03474	24
172.05168	22
175.03258	22
182.03917	110
183.04129	74
183.05595	70
184.05016	130
185.01991	50
185.0618	46
186.02925	109
186.05806	28
187.04646	25
190.99178	22
195.03339	24
195.0442	22
197.02232	25
198.03418	24
199.03404	27
199.04173	47
200.04607	81
201.05151	33
210.02449	47
211.03239	99
211.04164	109
212.03328	62
212.04565	171
213.04146	30
213.05464	70
214.02045	22
214.02989	58
216.03668	47
222.03011	27
223.0385	24
227.03612	92
228.03676	127
238.02078	36
239.02435	33
240.02844	27
241.02255	59
243.03336	24
256.03018	81
267.02081	22
267.03134	52
268.03418	24
283.02097	163
284.00854	23
284.03094	297
285.03949	27
286.03131	31

NAME: Tectorigenin
PRECURSORMZ: 299.05611164783
PRECURSORTYPE: [M-H]-
INSTRUMENTTYPE: LC-ESI-QTOF
SMILES: COC1=C(O)C2=C(OC=C(C2=O)C2=CC=C(O)C=C2)C=C1O
INCHIKEY: OBBCRPUNCUPUOS-UHFFFAOYSA-N
Ontology: Isoflavones
COLLISIONENERGY: 50
FORMULA: C16H12O6
RETENTIONTIME: 5.961267
IONMODE: Negative
Comment: registered in RIKEN PlaSMA
Num Peaks: 57
60.81062	54
65.00172	60
65.00739	71
91.02025	49
92.99339	62
94.01018	68
95.01535	54
104.0259	101
105.03178	54
117.0334	149
117.04192	73
125.03986	98
129.03227	98
130.04182	158
131.04816	52
132.02138	508
133.02625	1000
136.98502	62
136.99757	52
141.02573	52
141.03394	106
143.04454	73
143.05028	117
144.0562	62
145.02797	49
150.9993	52
153.02808	101
155.04817	367
157.03004	54
159.04297	103
160.98846	54
163.00482	125
163.01416	52
165.00778	52
165.03355	49
165.99878	57
167.04803	62
169.02081	52
169.02756	54
171.04568	52
172.05508	49
174.05368	52
182.03653	220
183.03871	54
183.05269	52
184.04898	49
185.0341	57
195.04332	65
198.0314	149
200.04018	163
200.04755	90
210.02458	57
211.04123	109
212.19868	54
219.93344	54
226.0307	52
227.0325	54

NAME: Ginsenoside Rc
PRECURSORMZ: 1077.58509854783
PRECURSORTYPE: [M-H]-
INSTRUMENTTYPE: LC-ESI-QTOF
SMILES: CC(C)=CCCC(C)(OC1OC(COC2OC(CO)C(O)C2O)C(O)C(O)C1O)C1CCC2(C)C1C(O)CC1C3(C)CCC(OC4OC(CO)C(O)C(O)C4OC4OC(CO)C(O)C(O)C4O)C(C)(C)C3CCC21C
INCHIKEY: JDCPEKQWFDWQLI-UHFFFAOYNA-N
Ontology: Triterpene saponins
COLLISIONENERGY: 50
FORMULA: C53H90O22
RETENTIONTIME: 6.011
IONMODE: Negative
Comment: registered in RIKEN PlaSMA
Num Peaks: 62
59.01376	86
71.01136	208
73.02772	42
73.03301	53
85.01789	42
85.02819	38
85.03287	80
87.01256	42
89.02287	366
90.02421	44
99.00986	90
101.02042	206
101.03214	44
102.02341	42
107.03777	40
113.02272	294
113.03193	53
119.03272	90
119.04204	44
131.03194	294
132.03262	46
134.04959	38
143.03175	38
147.10829	42
149.04469	1000
159.0218	46
159.03215	44
161.04376	496
179.06096	80
191.05112	412
191.07526	38
193.05818	38
221.06609	84
292.95032	38
297.34009	38
378.05573	63
459.38022	126
459.41165	40
460.41241	38
539.71307	40
591.70074	38
604.41833	76
605.39825	40
621.3949	38
621.4176	44
621.44299	38
622.45093	78
623.42657	42
670.82306	55
765.48315	88
765.51007	40
783.45441	42
783.50751	82
784.46796	53
784.49713	38
785.47272	38
922.35999	46
945.53387	80
945.55536	210
946.55194	78
947.55011	118
1077.62744	42

NAME: Ginsenoside Rc
PRECURSORMZ: 1123.59057785183
PRECURSORTYPE: [M+FA-H]-
INSTRUMENTTYPE: LC-ESI-QTOF
SMILES: CC(C)=CCCC(C)(OC1OC(COC2OC(CO)C(O)C2O)C(O)C(O)C1O)C1CCC2(C)C1C(O)CC1C3(C)CCC(OC4OC(CO)C(O)C(O)C4OC4OC(CO)C(O)C(O)C4O)C(C)(C)C3CCC21C
INCHIKEY: JDCPEKQWFDWQLI-UHFFFAOYNA-N
Ontology: Triterpene saponins
COLLISIONENERGY: 50
FORMULA: C53H90O22
RETENTIONTIME: 6.011
IONMODE: Negative
Comment: registered in RIKEN PlaSMA
Num Peaks: 69
59.01484	39
77.02209	30
83.00907	27
85.02667	50
89.02369	533
101.01963	99
101.025	331
102.02028	27
102.02851	46
113.022	129
113.02821	113
114.02878	63
119.03455	126
125.02258	56
126.03202	29
131.03114	59
131.03665	178
143.0331	82
145.32854	29
148.00752	40
149.04356	744
161.04756	279
163.04031	30
179.05005	87
189.03325	50
191.05591	712
192.06238	97
221.06076	146
251.08263	99
281.08969	26
287.47101	32
293.09583	60
311.10428	34
321.08792	32
344.64084	43
459.36652	26
459.39517	26
562.25397	30
603.43304	60
604.43079	40
621.43927	256
622.43488	29
622.45764	54
622.81543	26
630.53613	30
666.47333	29
765.46271	74
765.48474	46
765.53143	99
766.14331	26
766.49652	27
783.49518	421
784.48846	138
785.48846	82
785.52026	30
915.47327	30
915.55853	54
945.53198	434
945.59027	29
946.53015	143
946.56055	29
947.53851	39
1077.57996	1000
1077.6582	29
1078.5929	330
1079.55432	64
1079.59973	119
1080.57141	29
1081.604	26

NAME: Cynarin
PRECURSORMZ: 515.11949974783
PRECURSORTYPE: [M-H]-
INSTRUMENTTYPE: LC-ESI-QTOF
SMILES: OC1CC(CC(OC(=O)C=CC2=CC(O)=C(O)C=C2)C1O)(OC(=O)C=CC1=CC(O)=C(O)C=C1)C(O)=O
INCHIKEY: YDDUMTOHNYZQPO-UHFFFAOYNA-N
Ontology: Quinic acids and derivatives
COLLISIONENERGY: 10
FORMULA: C25H24O12
RETENTIONTIME: 3.489183
IONMODE: Negative
Comment: registered in RIKEN PlaSMA
Num Peaks: 44
93.03492	16
111.04025	16
127.03747	14
133.0307	53
134.02721	14
135.04434	150
144.03699	14
149.03278	30
155.03487	12
161.01988	41
161.03206	14
162.02998	34
162.06403	12
173.04283	59
174.05351	14
177.01085	41
177.02246	127
178.02005	20
179.0181	11
179.03407	832
180.03937	14
191.0554	853
192.05194	13
192.05867	37
203.03113	12
227.07114	14
285.35922	12
308.09033	12
335.07443	154
336.07938	14
337.08218	14
351.0672	30
351.09406	13
352.07565	27
353.08597	480
354.08621	26
355.09741	34
426.12186	12
426.13641	12
513.08173	19
513.11755	58
514.10626	64
515.07751	12
515.11853	1000

NAME: Sennoside B
PRECURSORMZ: 861.18836714783
PRECURSORTYPE: [M-H]-
INSTRUMENTTYPE: LC-ESI-QTOF
SMILES: OCC1OC(OC2=CC=CC3=C2C(=O)C2=C(C=C(C=C2O)C(O)=O)C3C2C3=C(C(OC4OC(CO)C(O)C(O)C4O)=CC=C3)C(=O)C3=C2C=C(C=C3O)C(O)=O)C(O)C(O)C1O
INCHIKEY: IPQVTOJGNYVQEO-UHFFFAOYNA-N
Ontology: Anthracenecarboxylic acids
COLLISIONENERGY: 10
FORMULA: C42H38O20
RETENTIONTIME: 3.824933
IONMODE: Negative
Comment: registered in RIKEN PlaSMA
Num Peaks: 59
54.3143	7
149.36833	8
224.04987	43
268.04074	9
268.05075	7
293.55078	6
309.04099	7
386.09723	248
386.12448	19
387.09802	36
387.14365	8
388.11084	9
389.10632	7
430.08984	7
447.08197	7
448.07031	7
448.09006	15
448.11319	7
452.5484	6
476.05289	7
492.07819	7
492.10599	8
493.07916	6
493.11914	9
501.05884	7
513.55066	7
519.06982	6
522.09808	9
522.45819	11
535.10541	7
536.09088	14
537.09253	14
538.07471	20
545.05103	6
609.12524	9
637.11475	14
653.13513	6
653.17316	7
654.11945	6
655.10858	6
655.13629	6
655.1662	7
656.13391	17
681.1405	7
697.177	8
698.09631	7
699.11182	31
699.1366	68
700.11584	8
700.14355	28
700.16571	14
702.14978	7
750.68164	7
781.18494	10
817.20239	16
819.44684	6
861.10699	7
861.18744	1000
861.26117	26

NAME: Plantaginin
PRECURSORMZ: 447.09328504783
PRECURSORTYPE: [M-H]-
INSTRUMENTTYPE: LC-ESI-QTOF
SMILES: OCC1OC(OC2=C(O)C(O)=C3C(=O)C=C(OC3=C2)C2=CC=C(O)C=C2)C(O)C(O)C1O
INCHIKEY: VUGRLRAUZWGZJP-UHFFFAOYNA-N
Ontology: Flavonoid-7-O-glycosides
COLLISIONENERGY: 10
FORMULA: C21H20O11
RETENTIONTIME: 4.071683
IONMODE: Negative
Comment: registered in RIKEN PlaSMA
Num Peaks: 24
136.98833	36
137.99086	8
155.81512	5
171.04274	5
183.04669	10
195.05739	5
198.02759	5
211.03276	7
212.05171	6
213.05579	6
227.0274	9
227.03737	7
228.03322	13
246.18355	5
254.02881	5
262.42615	5
267.02585	12
283.017	18
284.03101	474
285.03827	498
285.07266	5
286.04272	58
298.02811	6
447.09076	1000

NAME: Tectorigenin
PRECURSORMZ: 299.05611164783
PRECURSORTYPE: [M-H]-
INSTRUMENTTYPE: LC-ESI-QTOF
SMILES: COC1=C(O)C2=C(OC=C(C2=O)C2=CC=C(O)C=C2)C=C1O
INCHIKEY: OBBCRPUNCUPUOS-UHFFFAOYSA-N
Ontology: Isoflavones
COLLISIONENERGY: 10
FORMULA: C16H12O6
RETENTIONTIME: 5.961267
IONMODE: Negative
Comment: registered in RIKEN PlaSMA
Num Peaks: 29
132.02275	5
133.02277	6
133.03461	6
142.03926	7
155.04086	6
163.00163	10
183.04024	13
184.05576	5
190.9986	34
191.01244	6
199.04115	13
200.04733	25
210.03098	10
211.0443	8
212.04321	8
227.03625	36
228.04079	30
239.03354	12
240.04114	66
241.04808	8
255.02977	43
255.06842	6
256.03653	10
283.02368	27
284.03171	1000
285.02939	42
285.03784	117
286.04886	11
299.05582	928

NAME: Ginsenoside Rc
PRECURSORMZ: 1077.58509854783
PRECURSORTYPE: [M-H]-
INSTRUMENTTYPE: LC-ESI-QTOF
SMILES: CC(C)=CCCC(C)(OC1OC(COC2OC(CO)C(O)C2O)C(O)C(O)C1O)C1CCC2(C)C1C(O)CC1C3(C)CCC(OC4OC(CO)C(O)C(O)C4OC4OC(CO)C(O)C(O)C4O)C(C)(C)C3CCC21C
INCHIKEY: JDCPEKQWFDWQLI-UHFFFAOYNA-N
Ontology: Triterpene saponins
COLLISIONENERGY: 10
FORMULA: C53H90O22
RETENTIONTIME: 6.011
IONMODE: Negative
Comment: registered in RIKEN PlaSMA
Num Peaks: 25
52.04299	12
89.02341	15
100.87808	13
101.03027	12
133.04121	17
191.05049	12
251.07042	11
511.89474	11
603.43042	12
621.4187	14
621.44568	12
623.44073	11
668.28839	12
718.16711	12
730.70612	12
765.49188	11
766.49072	14
783.47125	27
783.50366	26
784.47601	11
915.52808	11
945.54926	15
946.51025	11
947.55121	12
1077.58728	1000

NAME: Ginsenoside Rc
PRECURSORMZ: 1123.59057785183
PRECURSORTYPE: [M+FA-H]-
INSTRUMENTTYPE: LC-ESI-QTOF
SMILES: CC(C)=CCCC(C)(OC1OC(COC2OC(CO)C(O)C2O)C(O)C(O)C1O)C1CCC2(C)C1C(O)CC1C3(C)CCC(OC4OC(CO)C(O)C(O)C4OC4OC(CO)C(O)C(O)C4O)C(C)(C)C3CCC21C
INCHIKEY: JDCPEKQWFDWQLI-UHFFFAOYNA-N
Ontology: Triterpene saponins
COLLISIONENERGY: 10
FORMULA: C53H90O22
RETENTIONTIME: 6.011
IONMODE: Negative
Comment: registered in RIKEN PlaSMA
Num Peaks: 19
294.09552	5
352.08481	6
567.2511	7
675.59924	7
713.3609	7
726.41321	5
784.4931	5
1077.58728	1000
1078.10046	46
1078.59192	448
1079.10498	6
1079.59485	154
1080.61316	25
1081.59692	16
1081.81848	6
1082.62463	6
1100.6012	5
1102.10352	5
1123.58545	66

NAME: Cynarin
PRECURSORMZ: 515.11949974783
PRECURSORTYPE: [M-H]-
INSTRUMENTTYPE: LC-ESI-QTOF
SMILES: OC1CC(CC(OC(=O)C=CC2=CC(O)=C(O)C=C2)C1O)(OC(=O)C=CC1=CC(O)=C(O)C=C1)C(O)=O
INCHIKEY: YDDUMTOHNYZQPO-UHFFFAOYNA-N
Ontology: Quinic acids and derivatives
COLLISIONENERGY: 10
FORMULA: C25H24O12
RETENTIONTIME: 3.489183
IONMODE: Negative
Comment: registered in RIKEN PlaSMA
Num Peaks: 19
111.04513	5
174.05215	6
179.03444	8
269.08398	9
291.08426	8
307.08572	8
308.08682	9
335.08176	25
336.06964	14
351.06534	28
351.07703	26
352.07053	12
353.07889	86
354.09711	10
408.7515	7
469.09714	9
513.10266	55
514.1037	93
515.11658	1000

NAME: Sennoside B
PRECURSORMZ: 861.18836714783
PRECURSORTYPE: [M-H]-
INSTRUMENTTYPE: LC-ESI-QTOF
SMILES: OCC1OC(OC2=CC=CC3=C2C(=O)C2=C(C=C(C=C2O)C(O)=O)C3C2C3=C(C(OC4OC(CO)C(O)C(O)C4O)=CC=C3)C(=O)C3=C2C=C(C=C3O)C(O)=O)C(O)C(O)C1O
INCHIKEY: IPQVTOJGNYVQEO-UHFFFAOYNA-N
Ontology: Anthracenecarboxylic acids
COLLISIONENERGY: 10
FORMULA: C42H38O20
RETENTIONTIME: 3.824933
IONMODE: Negative
Comment: registered in RIKEN PlaSMA
Num Peaks: 6
454.43881	6
483.58438	5
646.2384	11
699.10962	9
700.12274	5
861.18738	1000

NAME: Plantaginin
PRECURSORMZ: 447.09328504783
PRECURSORTYPE: [M-H]-
INSTRUMENTTYPE: LC-ESI-QTOF
SMILES: OCC1OC(OC2=C(O)C(O)=C3C(=O)C=C(OC3=C2)C2=CC=C(O)C=C2)C(O)C(O)C1O
INCHIKEY: VUGRLRAUZWGZJP-UHFFFAOYNA-N
Ontology: Flavonoid-7-O-glycosides
COLLISIONENERGY: 10
FORMULA: C21H20O11
RETENTIONTIME: 4.071683
IONMODE: Negative
Comment: registered in RIKEN PlaSMA
Num Peaks: 5
283.0257	6
285.03769	62
286.04257	11
446.0838	6
447.09299	1000

NAME: Tectorigenin
PRECURSORMZ: 299.05611164783
PRECURSORTYPE: [M-H]-
INSTRUMENTTYPE: LC-ESI-QTOF
SMILES: COC1=C(O)C2=C(OC=C(C2=O)C2=CC=C(O)C=C2)C=C1O
INCHIKEY: OBBCRPUNCUPUOS-UHFFFAOYSA-N
Ontology: Isoflavones
COLLISIONENERGY: 10
FORMULA: C16H12O6
RETENTIONTIME: 5.961267
IONMODE: Negative
Comment: registered in RIKEN PlaSMA
Num Peaks: 3
284.0314	149
285.03439	20
299.05484	1000

NAME: Ginsenoside Rc
PRECURSORMZ: 1077.58509854783
PRECURSORTYPE: [M-H]-
INSTRUMENTTYPE: LC-ESI-QTOF
SMILES: CC(C)=CCCC(C)(OC1OC(COC2OC(CO)C(O)C2O)C(O)C(O)C1O)C1CCC2(C)C1C(O)CC1C3(C)CCC(OC4OC(CO)C(O)C(O)C4OC4OC(CO)C(O)C(O)C4O)C(C)(C)C3CCC21C
INCHIKEY: JDCPEKQWFDWQLI-UHFFFAOYNA-N
Ontology: Triterpene saponins
COLLISIONENERGY: 10
FORMULA: C53H90O22
RETENTIONTIME: 6.011
IONMODE: Negative
Comment: registered in RIKEN PlaSMA
Num Peaks: 2
923.85126	25
1077.58203	1000

NAME: Ginsenoside Rc
PRECURSORMZ: 1123.59057785183
PRECURSORTYPE: [M+FA-H]-
INSTRUMENTTYPE: LC-ESI-QTOF
SMILES: CC(C)=CCCC(C)(OC1OC(COC2OC(CO)C(O)C2O)C(O)C(O)C1O)C1CCC2(C)C1C(O)CC1C3(C)CCC(OC4OC(CO)C(O)C(O)C4OC4OC(CO)C(O)C(O)C4O)C(C)(C)C3CCC21C
INCHIKEY: JDCPEKQWFDWQLI-UHFFFAOYNA-N
Ontology: Triterpene saponins
COLLISIONENERGY: 10
FORMULA: C53H90O22
RETENTIONTIME: 6.011
IONMODE: Negative
Comment: registered in RIKEN PlaSMA
Num Peaks: 21
363.8844	18
588.73309	17
730.74023	19
743.45886	17
1010.80035	18
1077.58411	517
1078.09302	87
1078.1167	39
1078.57666	186
1079.10156	20
1079.5481	17
1079.59338	93
1079.65576	17
1080.56909	38
1081.60059	41
1100.57104	44
1101.06592	55
1101.38049	20
1101.58459	18
1123.59131	1000
1123.65271	18

NAME: Cynarin
PRECURSORMZ: 515.11949974783
PRECURSORTYPE: [M-H]-
INSTRUMENTTYPE: LC-ESI-QTOF
SMILES: OC1CC(CC(OC(=O)C=CC2=CC(O)=C(O)C=C2)C1O)(OC(=O)C=CC1=CC(O)=C(O)C=C1)C(O)=O
INCHIKEY: YDDUMTOHNYZQPO-UHFFFAOYNA-N
Ontology: Quinic acids and derivatives
COLLISIONENERGY: 30
FORMULA: C25H24O12
RETENTIONTIME: 3.489183
IONMODE: Negative
Comment: registered in RIKEN PlaSMA
Num Peaks: 44
77.03733	13
79.04787	8
113.0218	7
123.04261	8
133.02759	180
134.02974	19
134.03662	38
135.04414	106
136.04239	7
136.04984	15
142.81895	10
150.03369	9
155.03801	8
161.0271	57
162.02234	8
170.99582	7
173.04291	67
173.05821	8
177.01953	46
178.01927	7
179.0336	839
179.0493	6
180.02927	27
180.03937	63
181.03827	14
191.05431	1000
192.05423	63
192.06744	19
193.05614	11
193.06577	10
194.058	7
195.02838	23
196.03044	8
198.83438	7
199.07477	8
203.8672	8
290.89456	8
307.08301	13
308.08554	9
335.07242	13
352.98203	7
353.07922	23
353.10123	14
360.66885	7

NAME: Sennoside B
PRECURSORMZ: 861.18836714783
PRECURSORTYPE: [M-H]-
INSTRUMENTTYPE: LC-ESI-QTOF
SMILES: OCC1OC(OC2=CC=CC3=C2C(=O)C2=C(C=C(C=C2O)C(O)=O)C3C2C3=C(C(OC4OC(CO)C(O)C(O)C4O)=CC=C3)C(=O)C3=C2C=C(C=C3O)C(O)=O)C(O)C(O)C1O
INCHIKEY: IPQVTOJGNYVQEO-UHFFFAOYNA-N
Ontology: Anthracenecarboxylic acids
COLLISIONENERGY: 30
FORMULA: C42H38O20
RETENTIONTIME: 3.824933
IONMODE: Negative
Comment: registered in RIKEN PlaSMA
Num Peaks: 70
224.05162	101
225.04128	18
225.05353	21
226.05247	20
266.06314	18
268.0329	39
268.04633	32
281.05737	22
283.06369	29
297.05127	21
343.86707	18
386.09964	1000
387.10187	82
387.11569	35
388.09775	27
389.09698	20
413.7793	20
431.08093	18
448.74664	24
449.086	31
476.08694	18
518.06635	19
535.12189	26
537.06232	39
537.08313	137
537.31036	24
537.50031	19
538.06128	20
567.39038	19
582.81189	20
610.133	18
610.15179	20
611.13458	20
613.16235	18
636.10681	18
637.11041	20
637.12994	21
638.13184	21
653.15472	20
654.12994	20
654.15796	30
655.12524	46
655.16046	167
656.12347	41
658.51483	18
663.09717	20
663.12726	18
679.17322	20
681.08557	20
681.10767	40
681.12927	18
697.15027	18
697.20056	20
698.13593	165
699.13782	779
699.20312	55
700.1377	291
701.12311	39
701.16113	18
702.1731	23
708.64838	22
742.13934	20
817.20166	88
818.16718	53
818.21387	45
819.20978	24
859.94476	18
860.3139	18
861.17749	534
861.21777	141

NAME: Plantaginin
PRECURSORMZ: 447.09328504783
PRECURSORTYPE: [M-H]-
INSTRUMENTTYPE: LC-ESI-QTOF
SMILES: OCC1OC(OC2=C(O)C(O)=C3C(=O)C=C(OC3=C2)C2=CC=C(O)C=C2)C(O)C(O)C1O
INCHIKEY: VUGRLRAUZWGZJP-UHFFFAOYNA-N
Ontology: Flavonoid-7-O-glycosides
COLLISIONENERGY: 30
FORMULA: C21H20O11
RETENTIONTIME: 4.071683
IONMODE: Negative
Comment: registered in RIKEN PlaSMA
Num Peaks: 17
136.98738	10
149.99998	6
177.9884	6
212.04782	10
213.0473	5
228.04028	13
267.02698	9
268.03201	6
281.0455	7
283.02426	9
283.03598	8
284.03174	1000
285.039	470
286.03821	43
286.05426	16
447.07443	12
447.09122	26

NAME: Tectorigenin
PRECURSORMZ: 299.05611164783
PRECURSORTYPE: [M-H]-
INSTRUMENTTYPE: LC-ESI-QTOF
SMILES: COC1=C(O)C2=C(OC=C(C2=O)C2=CC=C(O)C=C2)C=C1O
INCHIKEY: OBBCRPUNCUPUOS-UHFFFAOYSA-N
Ontology: Isoflavones
COLLISIONENERGY: 30
FORMULA: C16H12O6
RETENTIONTIME: 5.961267
IONMODE: Negative
Comment: registered in RIKEN PlaSMA
Num Peaks: 93
82.00329	14
86.4088	12
94.00274	11
94.01022	12
104.023	14
110.00118	27
119.00978	11
120.02129	13
130.04404	13
131.05231	13
132.00357	19
132.01801	102
133.02972	132
135.00876	28
136.98384	26
138.0013	25
143.04701	25
145.03098	13
154.04306	14
156.05016	16
156.05791	32
156.07845	12
159.04115	11
161.9957	27
162.4527	13
163.0015	180
163.00681	52
164.00128	11
164.00639	19
165.01552	11
165.98836	24
166.00726	13
171.0441	27
171.05467	15
172.04988	37
173.05232	11
174.02991	12
182.03333	35
183.0363	27
183.04468	112
184.04782	28
184.08293	18
185.05365	13
187.03899	13
190.01627	13
190.99738	295
191.45724	13
199.02588	15
199.04274	120
200.02708	13
200.0439	301
201.04536	12
201.05363	29
202.0253	13
210.02965	43
210.03806	24
211.02972	45
211.0385	139
212.04073	80
212.05795	33
221.31346	12
227.01764	12
227.0351	402
227.05406	10
228.0424	353
229.04953	13
237.02309	15
238.02017	24
239.03273	205
239.05153	32
239.35376	11
240.04158	616
241.0367	21
241.04826	45
243.04944	15
255.0267	512
255.0444	41
256.02466	45
256.0387	62
257.04758	13
266.0224	15
266.03094	13
267.03101	60
267.07132	14
283.02631	319
284.00705	30
284.0311	1000
284.05551	22
284.20059	13
285.03006	72
285.03992	76
285.06723	13
286.04373	29

NAME: Ginsenoside Rc
PRECURSORMZ: 1077.58509854783
PRECURSORTYPE: [M-H]-
INSTRUMENTTYPE: LC-ESI-QTOF
SMILES: CC(C)=CCCC(C)(OC1OC(COC2OC(CO)C(O)C2O)C(O)C(O)C1O)C1CCC2(C)C1C(O)CC1C3(C)CCC(OC4OC(CO)C(O)C(O)C4OC4OC(CO)C(O)C(O)C4O)C(C)(C)C3CCC21C
INCHIKEY: JDCPEKQWFDWQLI-UHFFFAOYNA-N
Ontology: Triterpene saponins
COLLISIONENERGY: 30
FORMULA: C53H90O22
RETENTIONTIME: 6.011
IONMODE: Negative
Comment: registered in RIKEN PlaSMA
Num Peaks: 13
517.72186	8
527.0459	7
534.91241	7
666.99341	8
720.39746	8
783.49622	10
783.53381	8
903.93317	8
915.52344	8
945.51788	8
945.57147	9
946.53076	16
1077.58374	1000

NAME: Cynarin
PRECURSORMZ: 515.11949974783
PRECURSORTYPE: [M-H]-
INSTRUMENTTYPE: LC-ESI-QTOF
SMILES: OC1CC(CC(OC(=O)C=CC2=CC(O)=C(O)C=C2)C1O)(OC(=O)C=CC1=CC(O)=C(O)C=C1)C(O)=O
INCHIKEY: YDDUMTOHNYZQPO-UHFFFAOYNA-N
Ontology: Quinic acids and derivatives
COLLISIONENERGY: 50
FORMULA: C25H24O12
RETENTIONTIME: 3.489183
IONMODE: Negative
Comment: registered in RIKEN PlaSMA
Num Peaks: 31
57.03362	11
65.03638	17
67.01443	11
91.05289	13
93.03526	43
106.0353	11
107.0473	40
112.04971	18
115.04563	16
118.04202	13
121.02345	13
127.04261	12
133.02197	14
133.02972	94
133.06921	12
134.03288	50
134.03995	42
135.01164	15
135.04385	1000
136.04866	109
137.04738	17
153.02351	12
161.0229	86
171.03391	12
173.04379	35
179.03329	246
179.94893	11
180.03693	11
191.05592	617
192.05653	68
225.98238	13

NAME: Sennoside B
PRECURSORMZ: 861.18836714783
PRECURSORTYPE: [M-H]-
INSTRUMENTTYPE: LC-ESI-QTOF
SMILES: OCC1OC(OC2=CC=CC3=C2C(=O)C2=C(C=C(C=C2O)C(O)=O)C3C2C3=C(C(OC4OC(CO)C(O)C(O)C4O)=CC=C3)C(=O)C3=C2C=C(C=C3O)C(O)=O)C(O)C(O)C1O
INCHIKEY: IPQVTOJGNYVQEO-UHFFFAOYNA-N
Ontology: Anthracenecarboxylic acids
COLLISIONENERGY: 50
FORMULA: C42H38O20
RETENTIONTIME: 3.824933
IONMODE: Negative
Comment: registered in RIKEN PlaSMA
Num Peaks: 80
102.02383	12
107.05175	11
134.05653	17
188.55745	14
213.05388	12
223.04289	11
224.04694	1000
225.05101	125
225.06384	28
239.07028	10
244.89954	10
247.90358	11
251.06766	11
253.05173	11
265.04471	11
266.06339	50
267.07227	30
268.03433	37
268.04739	22
269.03851	12
269.07565	10
280.03711	11
281.03101	10
281.0578	11
282.05771	26
315.78479	10
324.06656	13
386.08676	137
386.10147	610
387.09009	14
387.11203	88
388.09973	19
389.09506	11
403.2666	11
419.07867	20
419.09903	12
422.08087	10
430.0947	12
431.06351	15
431.08563	33
431.10889	10
433.0603	15
446.08133	12
447.07922	64
447.12848	11
448.09885	166
449.09995	123
450.0733	33
450.09528	31
450.11163	23
450.12762	12
451.10925	11
464.06604	11
472.30063	11
473.07974	11
474.06909	12
475.05643	10
475.10904	12
476.10986	12
491.09961	11
492.09073	11
493.09293	22
493.11792	12
494.09183	11
517.09583	16
536.10468	14
537.09454	10
543.68604	11
568.17407	13
593.14392	13
610.13373	11
610.15796	33
612.16315	10
637.14282	14
639.12152	10
654.12506	25
654.15466	11
655.09521	14
656.12866	11
773.19843	11

NAME: Plantaginin
PRECURSORMZ: 447.09328504783
PRECURSORTYPE: [M-H]-
INSTRUMENTTYPE: LC-ESI-QTOF
SMILES: OCC1OC(OC2=C(O)C(O)=C3C(=O)C=C(OC3=C2)C2=CC=C(O)C=C2)C(O)C(O)C1O
INCHIKEY: VUGRLRAUZWGZJP-UHFFFAOYNA-N
Ontology: Flavonoid-7-O-glycosides
COLLISIONENERGY: 50
FORMULA: C21H20O11
RETENTIONTIME: 4.071683
IONMODE: Negative
Comment: registered in RIKEN PlaSMA
Num Peaks: 88
65.00145	231
66.00922	26
79.02262	30
95.01449	26
108.01684	72
108.99222	27
109.99829	99
115.04784	31
117.03116	54
118.03754	26
118.04531	27
119.00974	27
119.04778	29
121.99718	27
130.04149	27
132.0215	24
132.05882	64
135.00345	24
136.01279	33
136.02063	24
136.98637	1000
137.02454	24
137.99017	24
138.98524	39
139.00227	84
143.0565	24
147.00945	29
154.04646	29
155.04655	24
156.05624	189
157.06354	31
158.03987	24
159.03542	24
162.99724	30
164.98083	77
165.01642	29
165.99228	31
166.99626	76
167.04547	52
167.05344	88
168.05327	27
171.049	24
182.03903	24
183.0421	135
183.05606	24
184.04865	88
185.02301	94
185.04768	24
185.05659	58
185.33908	27
186.03	314
190.9944	24
193.00203	27
194.03549	24
195.04686	24
197.02637	26
198.01703	29
198.03978	27
199.03685	77
200.04807	246
201.04092	30
201.05647	27
210.03043	53
211.03909	163
212.0432	292
212.92499	24
213.01408	26
213.05194	37
214.02641	24
227.03021	194
227.03772	72
228.03654	23
228.04591	60
237.01492	26
237.13309	27
239.03072	91
239.05418	45
241.04131	34
254.97235	27
255.02757	69
256.03806	27
283.01654	49
283.0376	30
284.02747	76
285.02814	24
285.0419	24
286.02588	26
337.86642	24

NAME: Tectorigenin
PRECURSORMZ: 299.05611164783
PRECURSORTYPE: [M-H]-
INSTRUMENTTYPE: LC-ESI-QTOF
SMILES: COC1=C(O)C2=C(OC=C(C2=O)C2=CC=C(O)C=C2)C=C1O
INCHIKEY: OBBCRPUNCUPUOS-UHFFFAOYSA-N
Ontology: Isoflavones
COLLISIONENERGY: 50
FORMULA: C16H12O6
RETENTIONTIME: 5.961267
IONMODE: Negative
Comment: registered in RIKEN PlaSMA
Num Peaks: 64
77.04321	81
82.00386	125
89.03576	71
89.0417	111
91.01579	61
92.99664	64
93.03608	68
95.00848	101
105.04077	88
105.99953	108
106.00418	68
107.01182	68
108.99345	61
109.99873	71
116.0279	95
117.03362	145
117.03873	139
120.01241	84
123.00591	68
125.04198	64
129.03505	182
130.03838	68
130.04347	95
132.02113	324
132.02768	209
133.01254	64
133.02959	1000
134.03284	132
136.98491	142
141.03091	189
141.03712	162
143.04758	355
144.05328	84
145.02888	68
145.96671	68
154.0392	149
155.04523	274
155.05768	88
157.02487	78
159.04347	149
159.05264	61
160.05048	95
161.0257	61
169.02591	61
171.04063	159
173.02208	68
174.02577	78
181.02849	64
182.03535	172
183.03888	284
183.04807	122
187.03604	74
195.05446	61
198.02429	68
198.04517	61
199.03661	64
199.04446	64
211.0368	189
213.04762	74
227.0192	64
227.03716	128
228.02863	71
228.04401	61
255.03163	321

NAME: Ginsenoside Rc
PRECURSORMZ: 1077.58509854783
PRECURSORTYPE: [M-H]-
INSTRUMENTTYPE: LC-ESI-QTOF
SMILES: CC(C)=CCCC(C)(OC1OC(COC2OC(CO)C(O)C2O)C(O)C(O)C1O)C1CCC2(C)C1C(O)CC1C3(C)CCC(OC4OC(CO)C(O)C(O)C4OC4OC(CO)C(O)C(O)C4O)C(C)(C)C3CCC21C
INCHIKEY: JDCPEKQWFDWQLI-UHFFFAOYNA-N
Ontology: Triterpene saponins
COLLISIONENERGY: 50
FORMULA: C53H90O22
RETENTIONTIME: 6.011
IONMODE: Negative
Comment: registered in RIKEN PlaSMA
Num Peaks: 51
71.0128	174
85.02821	34
89.0242	872
90.02361	40
101.02258	400
102.0217	40
102.02684	36
113.02061	209
113.02666	63
119.03625	34
125.02166	117
125.03265	38
131.03705	228
133.03603	40
143.02165	63
143.03569	34
143.04372	38
149.04391	418
152.23495	34
161.04109	199
161.0471	63
191.05298	1000
192.06046	34
203.05325	34
221.06813	36
221.0824	40
251.06757	73
251.09123	52
300.46259	40
366.97644	38
432.83463	38
442.4436	57
459.39087	57
496.85828	44
531.8335	44
621.4325	178
621.46991	34
622.4212	36
765.46417	71
783.44812	34
783.48969	38
783.51276	38
784.50562	38
915.78265	84
945.48944	48
945.53326	80
945.57544	44
946.72986	36
947.55023	38
1077.5448	34
1077.58105	159

NAME: Cynarin
PRECURSORMZ: 515.11949974783
PRECURSORTYPE: [M-H]-
INSTRUMENTTYPE: LC-ESI-QTOF
SMILES: OC1CC(CC(OC(=O)C=CC2=CC(O)=C(O)C=C2)C1O)(OC(=O)C=CC1=CC(O)=C(O)C=C1)C(O)=O
INCHIKEY: YDDUMTOHNYZQPO-UHFFFAOYNA-N
Ontology: Quinic acids and derivatives
COLLISIONENERGY: 10
FORMULA: C25H24O12
RETENTIONTIME: 3.489183
IONMODE: Negative
Comment: registered in RIKEN PlaSMA
Num Peaks: 49
113.02376	16
124.04661	19
133.02744	129
134.03653	23
135.04562	165
136.04562	17
137.02696	17
143.03297	19
149.02831	20
155.03502	17
161.01288	23
163.03566	30
173.04086	26
173.04927	23
177.01837	66
178.01122	16
178.01779	71
178.93091	32
179.03371	864
180.02583	41
180.0387	86
180.06079	23
181.0388	17
191.05342	835
191.07257	17
192.05489	23
192.06134	54
192.06898	41
193.05327	16
197.04332	16
229.08789	16
308.06906	17
309.0918	18
320.07684	18
335.06003	46
335.08417	33
336.08148	18
351.06747	63
352.06848	74
353.08881	685
354.0831	100
354.09738	66
355.09998	33
469.10733	25
513.07886	16
513.10022	64
513.12451	26
514.1037	21
515.11676	1000

NAME: Sennoside B
PRECURSORMZ: 861.18836714783
PRECURSORTYPE: [M-H]-
INSTRUMENTTYPE: LC-ESI-QTOF
SMILES: OCC1OC(OC2=CC=CC3=C2C(=O)C2=C(C=C(C=C2O)C(O)=O)C3C2C3=C(C(OC4OC(CO)C(O)C(O)C4O)=CC=C3)C(=O)C3=C2C=C(C=C3O)C(O)=O)C(O)C(O)C1O
INCHIKEY: IPQVTOJGNYVQEO-UHFFFAOYNA-N
Ontology: Anthracenecarboxylic acids
COLLISIONENERGY: 10
FORMULA: C42H38O20
RETENTIONTIME: 3.824933
IONMODE: Negative
Comment: registered in RIKEN PlaSMA
Num Peaks: 41
224.04185	12
224.05293	8
225.04991	13
268.0369	6
269.04068	7
269.05881	8
386.10117	163
387.08957	22
387.11588	7
388.10745	21
432.4006	7
448.09738	16
449.11127	6
466.93866	6
490.09818	6
491.1102	6
491.1373	6
494.13126	6
537.09204	6
555.74609	6
571.32062	8
611.11334	5
611.15448	6
611.17029	6
650.11047	6
654.13031	13
655.11304	6
655.14172	20
656.12006	6
656.15149	12
660.08551	8
698.11108	9
698.1286	8
699.13177	48
701.12946	6
817.17517	7
817.20599	6
819.22766	8
861.12354	6
861.185	1000
861.29089	5

NAME: Plantaginin
PRECURSORMZ: 447.09328504783
PRECURSORTYPE: [M-H]-
INSTRUMENTTYPE: LC-ESI-QTOF
SMILES: OCC1OC(OC2=C(O)C(O)=C3C(=O)C=C(OC3=C2)C2=CC=C(O)C=C2)C(O)C(O)C1O
INCHIKEY: VUGRLRAUZWGZJP-UHFFFAOYNA-N
Ontology: Flavonoid-7-O-glycosides
COLLISIONENERGY: 10
FORMULA: C21H20O11
RETENTIONTIME: 4.071683
IONMODE: Negative
Comment: registered in RIKEN PlaSMA
Num Peaks: 13
136.98363	25
149.9928	15
163.00545	10
200.04773	9
212.0408	6
213.05045	5
227.02875	10
255.02081	5
284.03189	523
285.03922	467
286.04214	65
287.05176	5
447.09119	1000

NAME: Tectorigenin
PRECURSORMZ: 299.05611164783
PRECURSORTYPE: [M-H]-
INSTRUMENTTYPE: LC-ESI-QTOF
SMILES: COC1=C(O)C2=C(OC=C(C2=O)C2=CC=C(O)C=C2)C=C1O
INCHIKEY: OBBCRPUNCUPUOS-UHFFFAOYSA-N
Ontology: Isoflavones
COLLISIONENERGY: 10
FORMULA: C16H12O6
RETENTIONTIME: 5.961267
IONMODE: Negative
Comment: registered in RIKEN PlaSMA
Num Peaks: 23
132.01852	8
133.02658	10
156.05371	8
163.00342	15
183.04648	10
190.99664	37
199.0416	18
199.04826	9
200.04916	19
211.0352	17
212.05226	10
227.03647	47
228.04361	35
239.03209	37
240.04231	88
241.04211	7
255.02805	55
256.03467	16
283.0246	33
284.03137	1000
285.03549	152
286.0329	7
299.05515	847

NAME: Ginsenoside Rc
PRECURSORMZ: 1077.58509854783
PRECURSORTYPE: [M-H]-
INSTRUMENTTYPE: LC-ESI-QTOF
SMILES: CC(C)=CCCC(C)(OC1OC(COC2OC(CO)C(O)C2O)C(O)C(O)C1O)C1CCC2(C)C1C(O)CC1C3(C)CCC(OC4OC(CO)C(O)C(O)C4OC4OC(CO)C(O)C(O)C4O)C(C)(C)C3CCC21C
INCHIKEY: JDCPEKQWFDWQLI-UHFFFAOYNA-N
Ontology: Triterpene saponins
COLLISIONENERGY: 10
FORMULA: C53H90O22
RETENTIONTIME: 6.011
IONMODE: Negative
Comment: registered in RIKEN PlaSMA
Num Peaks: 20
89.02039	11
125.02083	11
191.04935	10
518.30109	10
547.14703	10
593.73615	17
621.42017	13
767.48602	10
768.47687	10
783.49701	38
915.53522	12
918.53247	15
938.90375	11
945.50708	11
945.53162	11
946.56812	11
1075.67712	11
1077.36414	11
1077.58582	1000
1077.68762	21

NAME: Ginsenoside Rc
PRECURSORMZ: 1123.59057785183
PRECURSORTYPE: [M+FA-H]-
INSTRUMENTTYPE: LC-ESI-QTOF
SMILES: CC(C)=CCCC(C)(OC1OC(COC2OC(CO)C(O)C2O)C(O)C(O)C1O)C1CCC2(C)C1C(O)CC1C3(C)CCC(OC4OC(CO)C(O)C(O)C4OC4OC(CO)C(O)C(O)C4O)C(C)(C)C3CCC21C
INCHIKEY: JDCPEKQWFDWQLI-UHFFFAOYNA-N
Ontology: Triterpene saponins
COLLISIONENERGY: 10
FORMULA: C53H90O22
RETENTIONTIME: 6.011
IONMODE: Negative
Comment: registered in RIKEN PlaSMA
Num Peaks: 19
122.75552	6
131.03693	5
149.05064	9
191.05528	6
945.57562	5
950.91174	11
1051.93677	5
1077.58118	1000
1078.09473	29
1078.51147	12
1078.58752	602
1079.09509	6
1079.57922	120
1080.55542	11
1080.61377	18
1081.59607	5
1081.62085	6
1123.53149	6
1123.59949	97

NAME: Cynarin
PRECURSORMZ: 515.11949974783
PRECURSORTYPE: [M-H]-
INSTRUMENTTYPE: LC-ESI-QTOF
SMILES: OC1CC(CC(OC(=O)C=CC2=CC(O)=C(O)C=C2)C1O)(OC(=O)C=CC1=CC(O)=C(O)C=C1)C(O)=O
INCHIKEY: YDDUMTOHNYZQPO-UHFFFAOYNA-N
Ontology: Quinic acids and derivatives
COLLISIONENERGY: 10
FORMULA: C25H24O12
RETENTIONTIME: 3.489183
IONMODE: Negative
Comment: registered in RIKEN PlaSMA
Num Peaks: 14
110.62471	5
179.03471	34
181.0403	5
307.08557	8
335.07462	29
351.0683	55
353.08734	51
354.09314	9
425.11441	8
426.13263	9
513.09851	103
514.10571	77
514.13232	12
515.11719	1000

NAME: Sennoside B
PRECURSORMZ: 861.18836714783
PRECURSORTYPE: [M-H]-
INSTRUMENTTYPE: LC-ESI-QTOF
SMILES: OCC1OC(OC2=CC=CC3=C2C(=O)C2=C(C=C(C=C2O)C(O)=O)C3C2C3=C(C(OC4OC(CO)C(O)C(O)C4O)=CC=C3)C(=O)C3=C2C=C(C=C3O)C(O)=O)C(O)C(O)C1O
INCHIKEY: IPQVTOJGNYVQEO-UHFFFAOYNA-N
Ontology: Anthracenecarboxylic acids
COLLISIONENERGY: 10
FORMULA: C42H38O20
RETENTIONTIME: 3.824933
IONMODE: Negative
Comment: registered in RIKEN PlaSMA
Num Peaks: 14
140.33929	5
347.86252	10
411.12366	7
453.27563	5
479.10086	6
496.30939	6
519.6665	10
601.20715	5
665.6532	6
699.12555	10
701.79443	6
719.80353	5
861.18939	1000
861.25891	6

NAME: Plantaginin
PRECURSORMZ: 447.09328504783
PRECURSORTYPE: [M-H]-
INSTRUMENTTYPE: LC-ESI-QTOF
SMILES: OCC1OC(OC2=C(O)C(O)=C3C(=O)C=C(OC3=C2)C2=CC=C(O)C=C2)C(O)C(O)C1O
INCHIKEY: VUGRLRAUZWGZJP-UHFFFAOYNA-N
Ontology: Flavonoid-7-O-glycosides
COLLISIONENERGY: 10
FORMULA: C21H20O11
RETENTIONTIME: 4.071683
IONMODE: Negative
Comment: registered in RIKEN PlaSMA
Num Peaks: 5
283.01889	7
285.03912	106
286.04355	13
445.08078	5
447.09286	1000

NAME: Tectorigenin
PRECURSORMZ: 299.05611164783
PRECURSORTYPE: [M-H]-
INSTRUMENTTYPE: LC-ESI-QTOF
SMILES: COC1=C(O)C2=C(OC=C(C2=O)C2=CC=C(O)C=C2)C=C1O
INCHIKEY: OBBCRPUNCUPUOS-UHFFFAOYSA-N
Ontology: Isoflavones
COLLISIONENERGY: 10
FORMULA: C16H12O6
RETENTIONTIME: 5.961267
IONMODE: Negative
Comment: registered in RIKEN PlaSMA
Num Peaks: 3
284.03098	156
285.03491	18
299.05536	1000

NAME: Ginsenoside Rc
PRECURSORMZ: 1077.58509854783
PRECURSORTYPE: [M-H]-
INSTRUMENTTYPE: LC-ESI-QTOF
SMILES: CC(C)=CCCC(C)(OC1OC(COC2OC(CO)C(O)C2O)C(O)C(O)C1O)C1CCC2(C)C1C(O)CC1C3(C)CCC(OC4OC(CO)C(O)C(O)C4OC4OC(CO)C(O)C(O)C4O)C(C)(C)C3CCC21C
INCHIKEY: JDCPEKQWFDWQLI-UHFFFAOYNA-N
Ontology: Triterpene saponins
COLLISIONENERGY: 10
FORMULA: C53H90O22
RETENTIONTIME: 6.011
IONMODE: Negative
Comment: registered in RIKEN PlaSMA
Num Peaks: 5
263.98502	15
510.88535	17
852.44995	16
996.99146	14
1077.58374	1000

NAME: Ginsenoside Rc
PRECURSORMZ: 1123.59057785183
PRECURSORTYPE: [M+FA-H]-
INSTRUMENTTYPE: LC-ESI-QTOF
SMILES: CC(C)=CCCC(C)(OC1OC(COC2OC(CO)C(O)C2O)C(O)C(O)C1O)C1CCC2(C)C1C(O)CC1C3(C)CCC(OC4OC(CO)C(O)C(O)C4OC4OC(CO)C(O)C(O)C4O)C(C)(C)C3CCC21C
INCHIKEY: JDCPEKQWFDWQLI-UHFFFAOYNA-N
Ontology: Triterpene saponins
COLLISIONENERGY: 10
FORMULA: C53H90O22
RETENTIONTIME: 6.011
IONMODE: Negative
Comment: registered in RIKEN PlaSMA
Num Peaks: 18
217.49867	14
1072.5343	14
1077.58789	530
1078.04321	19
1078.07178	17
1078.10913	14
1078.59399	325
1078.65942	16
1079.08801	30
1079.57556	61
1101.06873	17
1101.57385	14
1101.61902	31
1105.80469	15
1123.44299	17
1123.58838	1000
1123.61462	423
1123.76721	20

NAME: Cynarin
PRECURSORMZ: 515.11949974783
PRECURSORTYPE: [M-H]-
INSTRUMENTTYPE: LC-ESI-QTOF
SMILES: OC1CC(CC(OC(=O)C=CC2=CC(O)=C(O)C=C2)C1O)(OC(=O)C=CC1=CC(O)=C(O)C=C1)C(O)=O
INCHIKEY: YDDUMTOHNYZQPO-UHFFFAOYNA-N
Ontology: Quinic acids and derivatives
COLLISIONENERGY: 30
FORMULA: C25H24O12
RETENTIONTIME: 3.489183
IONMODE: Negative
Comment: registered in RIKEN PlaSMA
Num Peaks: 45
55.05411	7
77.04012	7
105.0326	8
111.04475	22
113.02557	7
132.02238	8
133.02832	74
134.02724	11
134.0334	22
135.04396	83
135.06015	7
139.02695	7
149.02542	7
161.0235	49
161.03078	18
162.0244	7
162.03342	8
163.03093	8
173.03642	23
173.04843	33
174.04335	8
174.05504	10
175.04829	7
177.01973	109
178.01427	6
178.024	31
179.03317	726
180.03862	67
181.03532	14
191.05539	1000
192.05971	85
193.05115	21
195.01958	7
201.46254	9
223.91072	8
247.10597	8
270.09467	7
291.09589	7
307.07874	8
335.05917	11
335.06998	13
336.06836	8
351.07993	15
353.07443	22
353.09171	30

NAME: Sennoside B
PRECURSORMZ: 861.18836714783
PRECURSORTYPE: [M-H]-
INSTRUMENTTYPE: LC-ESI-QTOF
SMILES: OCC1OC(OC2=CC=CC3=C2C(=O)C2=C(C=C(C=C2O)C(O)=O)C3C2C3=C(C(OC4OC(CO)C(O)C(O)C4O)=CC=C3)C(=O)C3=C2C=C(C=C3O)C(O)=O)C(O)C(O)C1O
INCHIKEY: IPQVTOJGNYVQEO-UHFFFAOYNA-N
Ontology: Anthracenecarboxylic acids
COLLISIONENERGY: 30
FORMULA: C42H38O20
RETENTIONTIME: 3.824933
IONMODE: Negative
Comment: registered in RIKEN PlaSMA
Num Peaks: 66
224.03831	16
225.04887	29
268.03033	36
268.04294	62
269.04861	22
281.05435	27
282.04425	20
313.05609	34
349.8389	18
386.07452	26
386.09781	536
387.09277	48
387.1059	74
387.12601	20
388.086	24
388.10599	16
430.10095	18
431.08508	19
432.09384	15
476.11102	17
492.0983	16
518.06763	15
518.98083	17
519.07068	17
520.08429	15
523.59308	15
536.10425	17
537.08313	160
538.08093	31
540.10352	20
540.39288	15
578.08606	25
610.15247	15
611.17877	23
624.13556	21
636.14423	20
653.15411	15
654.13196	31
654.15582	16
655.14288	89
656.12445	16
656.14716	50
663.10016	20
697.15765	15
697.17828	20
698.11426	54
698.15735	45
699.1358	1000
699.17938	87
700.14581	330
701.08966	21
701.13947	32
701.16327	32
702.13	22
709.40698	17
723.11334	15
741.14081	16
817.19843	84
817.22473	32
818.15198	16
818.19922	15
819.18243	15
820.46533	16
829.2489	21
861.12683	23
861.19165	588

NAME: Plantaginin
PRECURSORMZ: 447.09328504783
PRECURSORTYPE: [M-H]-
INSTRUMENTTYPE: LC-ESI-QTOF
SMILES: OCC1OC(OC2=C(O)C(O)=C3C(=O)C=C(OC3=C2)C2=CC=C(O)C=C2)C(O)C(O)C1O
INCHIKEY: VUGRLRAUZWGZJP-UHFFFAOYNA-N
Ontology: Flavonoid-7-O-glycosides
COLLISIONENERGY: 30
FORMULA: C21H20O11
RETENTIONTIME: 4.071683
IONMODE: Negative
Comment: registered in RIKEN PlaSMA
Num Peaks: 18
136.98442	18
137.99458	5
149.99748	6
164.008	7
184.05206	7
213.04982	6
227.03482	8
228.04515	10
255.02946	11
257.05664	6
268.03656	5
283.02701	12
284.0311	1000
284.0585	7
285.03745	502
286.03903	65
286.05869	5
447.09366	8

NAME: Tectorigenin
PRECURSORMZ: 299.05611164783
PRECURSORTYPE: [M-H]-
INSTRUMENTTYPE: LC-ESI-QTOF
SMILES: COC1=C(O)C2=C(OC=C(C2=O)C2=CC=C(O)C=C2)C=C1O
INCHIKEY: OBBCRPUNCUPUOS-UHFFFAOYSA-N
Ontology: Isoflavones
COLLISIONENERGY: 30
FORMULA: C16H12O6
RETENTIONTIME: 5.961267
IONMODE: Negative
Comment: registered in RIKEN PlaSMA
Num Peaks: 99
89.0377	11
91.02103	16
95.00706	27
104.02523	21
110.00169	49
111.0052	11
117.03703	11
119.00816	23
123.00481	32
130.03763	28
130.04247	14
132.02034	66
133.02756	148
134.02702	15
135.0076	25
135.01562	15
136.00786	21
136.01453	12
137.99033	12
137.99911	11
139.04668	12
142.03793	12
143.04779	23
144.05353	18
146.87589	16
153.02351	11
155.04904	78
156.05307	42
156.06331	24
157.05377	12
158.03537	11
158.65912	11
159.04582	12
160.04099	12
160.04883	11
162.99532	27
163.00293	65
165.02036	12
165.98543	11
165.998	12
167.00356	13
167.05913	13
168.05898	16
171.0442	11
172.05156	12
172.05861	27
183.04158	122
184.04787	49
184.05672	49
185.02687	12
185.05345	14
187.03561	11
190.99841	199
191.00731	55
192.0034	21
195.04492	20
198.02661	11
199.03288	78
199.0425	53
199.97504	13
200.04776	261
200.06563	12
200.19048	19
201.0519	24
210.02914	28
210.03862	64
211.03525	202
212.04944	49
214.01537	12
214.05009	12
223.04489	11
226.91167	15
227.03365	343
227.45782	12
228.02808	71
228.04601	90
229.04567	55
234.00867	11
238.02419	23
239.03168	223
240.04279	483
241.04341	35
241.05249	42
242.06316	14
255.02902	481
255.05038	33
256.03094	129
256.04825	29
257.01489	12
257.0408	12
257.41992	17
267.03104	14
267.0408	11
268.03278	12
283.02115	371
284.0314	1000
285.03229	144
286.03958	13
287.03671	12

NAME: Ginsenoside Rc
PRECURSORMZ: 1077.58509854783
PRECURSORTYPE: [M-H]-
INSTRUMENTTYPE: LC-ESI-QTOF
SMILES: CC(C)=CCCC(C)(OC1OC(COC2OC(CO)C(O)C2O)C(O)C(O)C1O)C1CCC2(C)C1C(O)CC1C3(C)CCC(OC4OC(CO)C(O)C(O)C4OC4OC(CO)C(O)C(O)C4O)C(C)(C)C3CCC21C
INCHIKEY: JDCPEKQWFDWQLI-UHFFFAOYNA-N
Ontology: Triterpene saponins
COLLISIONENERGY: 30
FORMULA: C53H90O22
RETENTIONTIME: 6.011
IONMODE: Negative
Comment: registered in RIKEN PlaSMA
Num Peaks: 24
98.55646	7
119.03191	8
143.03325	7
149.0408	17
149.04816	9
151.04021	10
191.05887	7
251.06564	6
251.07991	7
460.39825	6
550.05243	6
621.80347	6
664.83234	8
765.83295	7
772.15222	6
783.44653	9
783.47968	24
837.44666	6
945.52832	8
945.55554	6
947.5722	6
950.68964	6
1066.35803	10
1077.57922	1000

NAME: Ginsenoside Rc
PRECURSORMZ: 1123.59057785183
PRECURSORTYPE: [M+FA-H]-
INSTRUMENTTYPE: LC-ESI-QTOF
SMILES: CC(C)=CCCC(C)(OC1OC(COC2OC(CO)C(O)C2O)C(O)C(O)C1O)C1CCC2(C)C1C(O)CC1C3(C)CCC(OC4OC(CO)C(O)C(O)C4OC4OC(CO)C(O)C(O)C4O)C(C)(C)C3CCC21C
INCHIKEY: JDCPEKQWFDWQLI-UHFFFAOYNA-N
Ontology: Triterpene saponins
COLLISIONENERGY: 30
FORMULA: C53H90O22
RETENTIONTIME: 6.011
IONMODE: Negative
Comment: registered in RIKEN PlaSMA
Num Peaks: 10
555.83759	5
872.62573	7
947.55072	6
1077.58325	1000
1078.58838	600
1079.57703	108
1079.61475	54
1080.59644	26
1080.61865	8
1081.57471	10

NAME: Cynarin
PRECURSORMZ: 515.11949974783
PRECURSORTYPE: [M-H]-
INSTRUMENTTYPE: LC-ESI-QTOF
SMILES: OC1CC(CC(OC(=O)C=CC2=CC(O)=C(O)C=C2)C1O)(OC(=O)C=CC1=CC(O)=C(O)C=C1)C(O)=O
INCHIKEY: YDDUMTOHNYZQPO-UHFFFAOYNA-N
Ontology: Quinic acids and derivatives
COLLISIONENERGY: 50
FORMULA: C25H24O12
RETENTIONTIME: 3.489183
IONMODE: Negative
Comment: registered in RIKEN PlaSMA
Num Peaks: 36
54.04079	11
81.03108	14
85.02902	16
87.00511	11
88.47805	13
93.03632	12
99.0463	11
105.03343	47
106.03955	11
107.04762	41
108.04988	19
111.04312	22
121.02889	15
122.03913	11
127.04263	11
133.01752	9
133.02979	189
134.03508	105
135.04527	1000
136.03986	11
136.04808	11
137.04704	12
137.05338	11
145.04733	11
149.05763	15
153.0244	11
159.04076	11
161.01598	42
161.02509	52
173.03328	11
173.04335	25
177.01683	11
179.03181	92
180.04613	70
191.05646	501
192.06709	39

NAME: Sennoside B
PRECURSORMZ: 861.18836714783
PRECURSORTYPE: [M-H]-
INSTRUMENTTYPE: LC-ESI-QTOF
SMILES: OCC1OC(OC2=CC=CC3=C2C(=O)C2=C(C=C(C=C2O)C(O)=O)C3C2C3=C(C(OC4OC(CO)C(O)C(O)C4O)=CC=C3)C(=O)C3=C2C=C(C=C3O)C(O)=O)C(O)C(O)C1O
INCHIKEY: IPQVTOJGNYVQEO-UHFFFAOYNA-N
Ontology: Anthracenecarboxylic acids
COLLISIONENERGY: 50
FORMULA: C42H38O20
RETENTIONTIME: 3.824933
IONMODE: Negative
Comment: registered in RIKEN PlaSMA
Num Peaks: 69
71.00986	12
159.29858	12
194.03558	11
213.06273	11
224.04689	1000
225.04521	52
225.05519	108
238.06648	14
266.06586	15
267.03293	13
268.04074	14
268.05258	16
269.03934	29
270.04398	11
270.0556	11
282.02374	12
288.30304	12
311.06509	11
386.09586	606
387.09998	60
387.11703	25
401.05878	12
417.08728	15
419.09399	43
430.06616	28
430.09515	28
431.0762	11
431.09253	47
432.09622	11
445.11002	14
446.07971	11
446.10663	13
447.07889	29
447.09433	52
448.06335	11
448.09299	140
448.11554	31
449.08658	61
449.10611	31
450.10251	34
450.12341	25
451.09375	25
458.07373	11
464.12708	13
471.08011	11
472.07861	16
474.07336	11
474.10275	17
475.07147	26
476.08221	13
490.09879	15
490.12787	11
491.1044	12
492.0899	13
493.08853	11
536.08459	11
536.86475	12
537.08167	23
563.07654	14
593.13745	13
593.15881	30
610.12988	24
610.16486	11
612.15094	14
612.17267	11
653.12512	16
654.13214	11
655.11584	11
656.16632	11

NAME: Plantaginin
PRECURSORMZ: 447.09328504783
PRECURSORTYPE: [M-H]-
INSTRUMENTTYPE: LC-ESI-QTOF
SMILES: OCC1OC(OC2=C(O)C(O)=C3C(=O)C=C(OC3=C2)C2=CC=C(O)C=C2)C(O)C(O)C1O
INCHIKEY: VUGRLRAUZWGZJP-UHFFFAOYNA-N
Ontology: Flavonoid-7-O-glycosides
COLLISIONENERGY: 50
FORMULA: C21H20O11
RETENTIONTIME: 4.071683
IONMODE: Negative
Comment: registered in RIKEN PlaSMA
Num Peaks: 96
64.99989	248
66.00405	35
67.00777	24
69.99902	24
82.00318	24
89.00136	28
95.01214	31
108.99399	55
109.99988	107
116.02284	48
117.03201	51
119.04791	39
121.99385	31
123.01389	76
130.04103	51
132.01804	24
133.02411	40
136.98624	1000
137.0218	59
137.99326	29
138.00044	25
138.0238	24
138.99835	56
140.00993	29
143.0361	54
143.04965	121
144.05959	48
145.02502	28
146.03139	24
149.9966	59
151.00317	28
155.05254	27
156.04623	40
156.05899	31
157.06099	27
158.0376	91
160.03917	24
160.05223	36
163.0032	24
164.00221	24
164.0135	28
164.97581	24
165.98906	114
166.00797	25
168.00371	27
171.04121	66
171.04854	24
173.05423	51
177.98734	27
182.03217	32
183.04605	298
184.01692	25
184.05043	198
185.02156	84
185.03467	24
186.03485	107
186.06477	51
187.03398	79
187.04697	29
195.03406	36
195.04301	31
195.05203	27
197.0172	28
199.0412	54
200.04448	202
201.04616	51
201.06413	42
202.04875	24
207.00089	24
210.02914	25
211.03714	315
211.05226	23
212.05843	25
213.01851	32
214.03452	40
227.03014	87
227.04271	133
228.03738	131
230.04826	39
239.01865	25
239.03036	24
239.04361	25
239.05565	24
241.00589	24
255.04041	48
267.02393	38
267.03513	27
273.84567	28
283.02084	181
283.03259	204
283.93774	27
284.01712	51
284.03354	103
284.05371	24
285.03162	147
285.04263	54

NAME: Tectorigenin
PRECURSORMZ: 299.05611164783
PRECURSORTYPE: [M-H]-
INSTRUMENTTYPE: LC-ESI-QTOF
SMILES: COC1=C(O)C2=C(OC=C(C2=O)C2=CC=C(O)C=C2)C=C1O
INCHIKEY: OBBCRPUNCUPUOS-UHFFFAOYSA-N
Ontology: Isoflavones
COLLISIONENERGY: 50
FORMULA: C16H12O6
RETENTIONTIME: 5.961267
IONMODE: Negative
Comment: registered in RIKEN PlaSMA
Num Peaks: 44
64.4787	98
65.00657	104
78.01006	58
91.02022	61
92.993	64
95.0106	76
104.02657	204
106.00546	64
116.02828	88
117.03099	61
119.01421	55
129.02934	110
130.03761	116
131.05528	55
132.02599	195
133.02771	1000
134.00218	58
135.14732	61
136.01633	55
136.98964	79
141.03433	88
142.03888	64
143.05128	61
155.05017	201
156.04799	61
157.03574	82
158.0379	134
159.04317	128
163.00284	131
167.05772	76
170.03305	55
172.05348	61
182.03464	131
182.04585	73
183.0471	64
183.05757	58
184.0407	55
198.10966	67
199.0343	55
199.04695	140
211.03734	183
226.03221	55
227.02693	137
255.02715	58

NAME: Delphinidin 3-galactoside
PRECURSORMZ: 463.08765101576
PRECURSORTYPE: [M-2H]-
INSTRUMENTTYPE: LC-ESI-QTOF
SMILES: OCC1OC(OC2=C([O+]=C3C=C(O)C=C(O)C3=C2)C2=CC(O)=C(O)C(O)=C2)C(O)C(O)C1O
INCHIKEY: XENHPQQLDPAYIJ-UHFFFAOYNA-O
Ontology: Anthocyanidin-3-O-glycosides
COLLISIONENERGY: 10
FORMULA: C21H21O12
RETENTIONTIME: 2.634633
IONMODE: Negative
Comment: registered in RIKEN PlaSMA
Num Peaks: 23
125.03166	31
127.0353	28
189.01729	35
203.08623	40
227.03737	41
245.5378	34
255.02483	28
257.03067	28
270.21725	28
271.04297	29
283.02872	41
283.53778	38
299.02554	57
300.02594	242
300.04044	144
301.03632	95
302.02542	60
313.02927	28
315.63095	40
337.0448	31
337.06741	37
378.08334	31
463.08844	1000

NAME: Naringin
PRECURSORMZ: 579.17192924783
PRECURSORTYPE: [M-H]-
INSTRUMENTTYPE: LC-ESI-QTOF
SMILES: CC1OC(OC2C(O)C(O)C(CO)OC2OC2=CC(O)=C3C(=O)CC(OC3=C2)C2=CC=C(O)C=C2)C(O)C(O)C1O
INCHIKEY: DFPMSGMNTNDNHN-UHFFFAOYNA-N
Ontology: Flavonoid-7-O-glycosides
COLLISIONENERGY: 10
FORMULA: C27H32O14
RETENTIONTIME: 4.378117
IONMODE: Negative
Comment: registered in RIKEN PlaSMA
Num Peaks: 23
119.04712	8
145.02934	9
151.00246	224
152.00087	8
152.0069	9
177.01573	6
191.03758	6
193.0182	7
235.0197	16
235.03166	7
271.06006	336
272.06479	57
273.06918	6
295.05136	9
313.06384	15
313.08026	5
339.07462	14
459.09851	20
459.11215	79
459.13776	8
460.10934	7
577.15155	5
579.1712	1000

NAME: Ginsenoside Rb1
PRECURSORMZ: 1107.59566254783
PRECURSORTYPE: [M-H]-
INSTRUMENTTYPE: LC-ESI-QTOF
SMILES: CC(C)=CCCC(C)(OC1OC(COC2OC(CO)C(O)C(O)C2O)C(O)C(O)C1O)C1CCC2(C)C1C(O)CC1C3(C)CCC(OC4OC(CO)C(O)C(O)C4OC4OC(CO)C(O)C(O)C4O)C(C)(C)C3CCC21C
INCHIKEY: GZYPWOGIYAIIPV-UHFFFAOYNA-N
Ontology: Triterpene saponins
COLLISIONENERGY: 10
FORMULA: C54H92O23
RETENTIONTIME: 5.88955
IONMODE: Negative
Comment: registered in RIKEN PlaSMA
Num Peaks: 12
89.02321	5
140.42725	5
171.56956	7
179.05542	21
221.06682	17
525.2533	8
540.46307	6
573.7002	5
781.36786	5
928.5824	8
945.53802	15
1107.59619	1000

NAME: Ginsenoside Rb1
PRECURSORMZ: 1153.60114185183
PRECURSORTYPE: [M+FA-H]-
INSTRUMENTTYPE: LC-ESI-QTOF
SMILES: CC(C)=CCCC(C)(OC1OC(COC2OC(CO)C(O)C(O)C2O)C(O)C(O)C1O)C1CCC2(C)C1C(O)CC1C3(C)CCC(OC4OC(CO)C(O)C(O)C4OC4OC(CO)C(O)C(O)C4O)C(C)(C)C3CCC21C
INCHIKEY: GZYPWOGIYAIIPV-UHFFFAOYNA-N
Ontology: Triterpene saponins
COLLISIONENERGY: 10
FORMULA: C54H92O23
RETENTIONTIME: 5.88955
IONMODE: Negative
Comment: registered in RIKEN PlaSMA
Num Peaks: 21
552.62024	8
603.83453	10
651.74103	9
716.02515	8
745.76691	10
768.32843	8
785.02856	9
1056.27222	13
1107.59216	1000
1108.08105	20
1108.60132	607
1109.12207	10
1109.40552	14
1109.51123	8
1109.60229	188
1110.56287	9
1110.61548	42
1112.11902	8
1113.55396	8
1131.06848	9
1153.59253	326

NAME: Chikusetsusaponin IV
PRECURSORMZ: 925.48023904783
PRECURSORTYPE: [M-H]-
INSTRUMENTTYPE: LC-ESI-QTOF
SMILES: CC1(C)CCC2(CCC3(C)C(=CCC4C5(C)CCC(OC6OC(C(OC7OC(CO)C(O)C7O)C(O)C6O)C(O)=O)C(C)(C)C5CCC34C)C2C1)C(=O)OC1OC(CO)C(O)C(O)C1O
INCHIKEY: KQSFNXMDCOFFGW-UHFFFAOYNA-N
Ontology: Triterpene saponins
COLLISIONENERGY: 10
FORMULA: C47H74O18
RETENTIONTIME: 6.386483
IONMODE: Negative
Comment: registered in RIKEN PlaSMA
Num Peaks: 13
89.02384	24
131.03558	8
149.04495	13
509.35388	6
569.38373	196
570.38953	63
571.3866	12
613.37561	17
614.39246	5
775.422	17
776.45184	7
793.45184	6
925.4801	1000

NAME: Delphinidin 3-galactoside
PRECURSORMZ: 463.08765101576
PRECURSORTYPE: [M-2H]-
INSTRUMENTTYPE: LC-ESI-QTOF
SMILES: OCC1OC(OC2=C([O+]=C3C=C(O)C=C(O)C3=C2)C2=CC(O)=C(O)C(O)=C2)C(O)C(O)C1O
INCHIKEY: XENHPQQLDPAYIJ-UHFFFAOYNA-O
Ontology: Anthocyanidin-3-O-glycosides
COLLISIONENERGY: 10
FORMULA: C21H21O12
RETENTIONTIME: 2.634633
IONMODE: Negative
Comment: registered in RIKEN PlaSMA
Num Peaks: 10
149.86255	19
230.72173	11
299.02188	12
300.01761	12
300.02805	9
301.0365	10
337.07132	11
373.40164	10
463.08603	1000
463.12292	11

NAME: Ginsenoside Rb1
PRECURSORMZ: 1107.59566254783
PRECURSORTYPE: [M-H]-
INSTRUMENTTYPE: LC-ESI-QTOF
SMILES: CC(C)=CCCC(C)(OC1OC(COC2OC(CO)C(O)C(O)C2O)C(O)C(O)C1O)C1CCC2(C)C1C(O)CC1C3(C)CCC(OC4OC(CO)C(O)C(O)C4OC4OC(CO)C(O)C(O)C4O)C(C)(C)C3CCC21C
INCHIKEY: GZYPWOGIYAIIPV-UHFFFAOYNA-N
Ontology: Triterpene saponins
COLLISIONENERGY: 10
FORMULA: C54H92O23
RETENTIONTIME: 5.88955
IONMODE: Negative
Comment: registered in RIKEN PlaSMA
Num Peaks: 17
72.99478	6
264.86438	6
386.13507	6
441.43878	5
455.17065	7
565.76276	7
582.20459	6
603.12787	6
613.41827	6
629.47217	6
630.29462	6
633.58972	9
659.79639	6
736.54962	6
1107.52954	17
1107.5957	1000
1107.66895	19

NAME: Ginsenoside Rb1
PRECURSORMZ: 1153.60114185183
PRECURSORTYPE: [M+FA-H]-
INSTRUMENTTYPE: LC-ESI-QTOF
SMILES: CC(C)=CCCC(C)(OC1OC(COC2OC(CO)C(O)C(O)C2O)C(O)C(O)C1O)C1CCC2(C)C1C(O)CC1C3(C)CCC(OC4OC(CO)C(O)C(O)C4OC4OC(CO)C(O)C(O)C4O)C(C)(C)C3CCC21C
INCHIKEY: GZYPWOGIYAIIPV-UHFFFAOYNA-N
Ontology: Triterpene saponins
COLLISIONENERGY: 10
FORMULA: C54H92O23
RETENTIONTIME: 5.88955
IONMODE: Negative
Comment: registered in RIKEN PlaSMA
Num Peaks: 16
911.86316	43
1107.59656	795
1107.62195	365
1108.10059	108
1108.56091	52
1108.59839	296
1108.63928	134
1109.08972	41
1109.60986	123
1110.5647	43
1110.60815	43
1130.59253	45
1131.10596	71
1135.0332	54
1135.57764	45
1153.60168	1000

NAME: Delphinidin 3-galactoside
PRECURSORMZ: 463.08765101576
PRECURSORTYPE: [M-2H]-
INSTRUMENTTYPE: LC-ESI-QTOF
SMILES: OCC1OC(OC2=C([O+]=C3C=C(O)C=C(O)C3=C2)C2=CC(O)=C(O)C(O)=C2)C(O)C(O)C1O
INCHIKEY: XENHPQQLDPAYIJ-UHFFFAOYNA-O
Ontology: Anthocyanidin-3-O-glycosides
COLLISIONENERGY: 30
FORMULA: C21H21O12
RETENTIONTIME: 2.634633
IONMODE: Negative
Comment: registered in RIKEN PlaSMA
Num Peaks: 28
124.01075	28
124.02087	26
125.02183	90
127.64256	24
147.00726	28
174.99907	36
177.01253	25
187.04379	26
191.03354	24
193.00981	25
199.03802	28
200.01581	29
207.03043	26
214.0296	26
229.01093	24
240.95587	30
244.02835	29
245.04054	25
246.08772	28
256.0441	30
272.02603	24
299.99298	29
300.01495	256
300.02783	1000
301.02621	203
301.04556	103
316.05948	40
338.04663	26

NAME: Ginsenoside Rb1
PRECURSORMZ: 1107.59566254783
PRECURSORTYPE: [M-H]-
INSTRUMENTTYPE: LC-ESI-QTOF
SMILES: CC(C)=CCCC(C)(OC1OC(COC2OC(CO)C(O)C(O)C2O)C(O)C(O)C1O)C1CCC2(C)C1C(O)CC1C3(C)CCC(OC4OC(CO)C(O)C(O)C4OC4OC(CO)C(O)C(O)C4O)C(C)(C)C3CCC21C
INCHIKEY: GZYPWOGIYAIIPV-UHFFFAOYNA-N
Ontology: Triterpene saponins
COLLISIONENERGY: 30
FORMULA: C54H92O23
RETENTIONTIME: 5.88955
IONMODE: Negative
Comment: registered in RIKEN PlaSMA
Num Peaks: 7
179.05521	8
179.06396	6
783.48712	7
945.55652	7
946.55029	6
1107.59668	1000
1107.67407	15

NAME: Ginsenoside Rb1
PRECURSORMZ: 1153.60114185183
PRECURSORTYPE: [M+FA-H]-
INSTRUMENTTYPE: LC-ESI-QTOF
SMILES: CC(C)=CCCC(C)(OC1OC(COC2OC(CO)C(O)C(O)C2O)C(O)C(O)C1O)C1CCC2(C)C1C(O)CC1C3(C)CCC(OC4OC(CO)C(O)C(O)C4OC4OC(CO)C(O)C(O)C4O)C(C)(C)C3CCC21C
INCHIKEY: GZYPWOGIYAIIPV-UHFFFAOYNA-N
Ontology: Triterpene saponins
COLLISIONENERGY: 30
FORMULA: C54H92O23
RETENTIONTIME: 5.88955
IONMODE: Negative
Comment: registered in RIKEN PlaSMA
Num Peaks: 17
161.04222	7
533.23169	7
661.22021	10
723.96228	10
900.88354	8
1107.29041	8
1107.59766	1000
1107.72266	8
1108.60583	503
1109.58948	112
1109.67566	7
1110.54736	8
1110.59033	8
1110.63306	16
1111.55164	7
1111.58606	8
1134.52429	7

NAME: Chikusetsusaponin IV
PRECURSORMZ: 925.48023904783
PRECURSORTYPE: [M-H]-
INSTRUMENTTYPE: LC-ESI-QTOF
SMILES: CC1(C)CCC2(CCC3(C)C(=CCC4C5(C)CCC(OC6OC(C(OC7OC(CO)C(O)C7O)C(O)C6O)C(O)=O)C(C)(C)C5CCC34C)C2C1)C(=O)OC1OC(CO)C(O)C(O)C1O
INCHIKEY: KQSFNXMDCOFFGW-UHFFFAOYNA-N
Ontology: Triterpene saponins
COLLISIONENERGY: 30
FORMULA: C47H74O18
RETENTIONTIME: 6.386483
IONMODE: Negative
Comment: registered in RIKEN PlaSMA
Num Peaks: 16
71.01184	8
89.02397	29
131.03513	36
149.04311	35
569.3858	206
570.38977	66
570.41992	9
613.3689	23
613.3913	11
614.3844	13
719.44995	5
731.44916	7
775.42548	32
775.45709	9
793.43579	15
925.48273	1000

NAME: Delphinidin 3-galactoside
PRECURSORMZ: 463.08765101576
PRECURSORTYPE: [M-2H]-
INSTRUMENTTYPE: LC-ESI-QTOF
SMILES: OCC1OC(OC2=C([O+]=C3C=C(O)C=C(O)C3=C2)C2=CC(O)=C(O)C(O)=C2)C(O)C(O)C1O
INCHIKEY: XENHPQQLDPAYIJ-UHFFFAOYNA-O
Ontology: Anthocyanidin-3-O-glycosides
COLLISIONENERGY: 50
FORMULA: C21H21O12
RETENTIONTIME: 2.634633
IONMODE: Negative
Comment: registered in RIKEN PlaSMA
Num Peaks: 22
103.01991	174
119.00507	149
119.01366	512
124.01755	174
132.01776	182
148.01329	314
148.0224	149
149.02397	223
155.04517	174
183.04453	207
187.04135	455
199.03667	182
203.04118	207
210.02426	149
211.03976	157
227.0322	694
255.02689	636
271.01581	198
271.03088	1000
272.02237	190
272.03323	157
300.02991	174

NAME: Ginsenoside Rb1
PRECURSORMZ: 1107.59566254783
PRECURSORTYPE: [M-H]-
INSTRUMENTTYPE: LC-ESI-QTOF
SMILES: CC(C)=CCCC(C)(OC1OC(COC2OC(CO)C(O)C(O)C2O)C(O)C(O)C1O)C1CCC2(C)C1C(O)CC1C3(C)CCC(OC4OC(CO)C(O)C(O)C4OC4OC(CO)C(O)C(O)C4O)C(C)(C)C3CCC21C
INCHIKEY: GZYPWOGIYAIIPV-UHFFFAOYNA-N
Ontology: Triterpene saponins
COLLISIONENERGY: 50
FORMULA: C54H92O23
RETENTIONTIME: 5.88955
IONMODE: Negative
Comment: registered in RIKEN PlaSMA
Num Peaks: 68
59.0113	63
71.01324	123
71.01874	31
73.02258	20
73.03174	21
85.02319	23
85.02874	22
89.0237	503
101.02289	652
113.01676	22
113.02523	234
119.03457	567
121.03947	58
125.02348	42
131.02722	20
131.0351	119
143.03284	175
144.02859	20
149.04584	59
159.03387	30
161.03966	127
161.04587	336
179.05408	1000
180.05861	24
188.88171	24
221.05835	151
221.06705	311
223.05832	20
241.11354	21
263.05399	22
263.07544	68
282.08496	20
323.09985	64
323.11429	20
451.57077	20
459.36963	45
459.39169	23
463.33377	23
515.3399	22
536.7998	22
621.4234	72
621.45044	64
621.48193	21
622.44189	96
623.46033	30
750.9483	30
765.47327	20
783.48254	122
783.51782	20
784.45178	26
784.50433	20
785.49438	23
785.56323	20
792.26044	20
891.8739	20
930.51489	23
945.50488	46
945.54883	73
945.58929	25
946.50739	46
947.28406	20
947.55054	39
949.15295	21
950.51031	25
954.3161	22
970.83185	22
1107.59424	526
1107.68738	21

NAME: Ginsenoside Rb1
PRECURSORMZ: 1153.60114185183
PRECURSORTYPE: [M+FA-H]-
INSTRUMENTTYPE: LC-ESI-QTOF
SMILES: CC(C)=CCCC(C)(OC1OC(COC2OC(CO)C(O)C(O)C2O)C(O)C(O)C1O)C1CCC2(C)C1C(O)CC1C3(C)CCC(OC4OC(CO)C(O)C(O)C4OC4OC(CO)C(O)C(O)C4O)C(C)(C)C3CCC21C
INCHIKEY: GZYPWOGIYAIIPV-UHFFFAOYNA-N
Ontology: Triterpene saponins
COLLISIONENERGY: 50
FORMULA: C54H92O23
RETENTIONTIME: 5.88955
IONMODE: Negative
Comment: registered in RIKEN PlaSMA
Num Peaks: 55
59.01294	50
71.01398	131
89.02529	56
101.01614	50
101.02442	225
107.02803	50
113.01845	108
113.02384	197
119.03422	247
119.04079	78
125.02421	108
131.01917	58
131.03326	122
143.03339	167
159.03717	50
161.04224	83
161.04919	183
179.056	811
179.07083	50
204.7148	50
221.06024	342
233.06577	50
245.07066	108
247.93245	72
253.11684	56
264.08615	50
323.10443	158
325.10648	53
403.3768	67
491.22464	83
505.50345	58
622.42352	50
650.69946	61
728.04968	53
765.49023	58
766.45959	58
783.453	125
783.49664	108
783.54224	53
784.5047	125
785.51593	69
879.50598	69
945.55621	286
945.6366	50
946.54944	114
951.04877	58
1048.32764	64
1106.27612	72
1107.53076	111
1107.59851	1000
1107.64844	222
1108.55859	158
1108.61267	375
1109.57031	142
1109.64966	50

NAME: Chikusetsusaponin IV
PRECURSORMZ: 925.48023904783
PRECURSORTYPE: [M-H]-
INSTRUMENTTYPE: LC-ESI-QTOF
SMILES: CC1(C)CCC2(CCC3(C)C(=CCC4C5(C)CCC(OC6OC(C(OC7OC(CO)C(O)C7O)C(O)C6O)C(O)=O)C(C)(C)C5CCC34C)C2C1)C(=O)OC1OC(CO)C(O)C(O)C1O
INCHIKEY: KQSFNXMDCOFFGW-UHFFFAOYNA-N
Ontology: Triterpene saponins
COLLISIONENERGY: 50
FORMULA: C47H74O18
RETENTIONTIME: 6.386483
IONMODE: Negative
Comment: registered in RIKEN PlaSMA
Num Peaks: 50
59.01212	117
61.02058	5
71.00867	18
71.01361	46
73.01382	6
75.00712	6
85.02737	28
89.02273	384
90.02846	6
93.33095	6
101.02403	36
113.02021	51
119.03265	5
129.01759	10
131.03586	52
149.03639	11
149.04529	29
287.74341	8
395.47513	6
398.7258	9
419.6156	6
455.34357	5
499.41275	6
564.87689	5
569.32715	6
569.38354	1000
570.38568	318
570.42358	5
571.3866	37
572.38776	5
583.36987	5
583.41064	10
588.39429	18
613.35956	48
613.3858	10
614.36523	22
614.38324	25
615.37909	10
615.40936	10
627.40784	6
650.3595	6
655.38501	15
775.43097	7
793.42908	5
794.43152	8
794.45813	12
828.44293	6
844.44403	10
925.46985	34
925.50348	22

NAME: Delphinidin 3-galactoside
PRECURSORMZ: 463.08765101576
PRECURSORTYPE: [M-2H]-
INSTRUMENTTYPE: LC-ESI-QTOF
SMILES: OCC1OC(OC2=C([O+]=C3C=C(O)C=C(O)C3=C2)C2=CC(O)=C(O)C(O)=C2)C(O)C(O)C1O
INCHIKEY: XENHPQQLDPAYIJ-UHFFFAOYNA-O
Ontology: Anthocyanidin-3-O-glycosides
COLLISIONENERGY: 10
FORMULA: C21H21O12
RETENTIONTIME: 2.634633
IONMODE: Negative
Comment: registered in RIKEN PlaSMA
Num Peaks: 20
125.02364	62
147.00438	29
148.06497	27
185.06819	30
204.04533	30
217.01085	84
227.03282	27
228.03812	29
240.03581	30
243.32166	30
258.01453	41
273.03839	30
300.02682	401
301.01865	38
301.0329	90
302.0253	67
303.63254	33
316.06107	32
337.04611	43
463.08551	1000

NAME: Naringin
PRECURSORMZ: 579.17192924783
PRECURSORTYPE: [M-H]-
INSTRUMENTTYPE: LC-ESI-QTOF
SMILES: CC1OC(OC2C(O)C(O)C(CO)OC2OC2=CC(O)=C3C(=O)CC(OC3=C2)C2=CC=C(O)C=C2)C(O)C(O)C1O
INCHIKEY: DFPMSGMNTNDNHN-UHFFFAOYNA-N
Ontology: Flavonoid-7-O-glycosides
COLLISIONENERGY: 10
FORMULA: C27H32O14
RETENTIONTIME: 4.378117
IONMODE: Negative
Comment: registered in RIKEN PlaSMA
Num Peaks: 19
119.0475	7
145.02783	9
151.00224	175
152.00539	37
175.00652	6
177.01993	7
193.01097	11
235.02249	13
271.06107	327
272.06479	37
273.07025	7
313.07199	27
339.06955	14
373.09354	6
459.11563	91
460.10608	7
460.12155	15
579.17078	1000
579.22388	13

NAME: Ginsenoside Rb1
PRECURSORMZ: 1107.59566254783
PRECURSORTYPE: [M-H]-
INSTRUMENTTYPE: LC-ESI-QTOF
SMILES: CC(C)=CCCC(C)(OC1OC(COC2OC(CO)C(O)C(O)C2O)C(O)C(O)C1O)C1CCC2(C)C1C(O)CC1C3(C)CCC(OC4OC(CO)C(O)C(O)C4OC4OC(CO)C(O)C(O)C4O)C(C)(C)C3CCC21C
INCHIKEY: GZYPWOGIYAIIPV-UHFFFAOYNA-N
Ontology: Triterpene saponins
COLLISIONENERGY: 10
FORMULA: C54H92O23
RETENTIONTIME: 5.88955
IONMODE: Negative
Comment: registered in RIKEN PlaSMA
Num Peaks: 11
71.45229	6
139.03673	5
179.05302	23
742.23083	6
783.46387	8
783.49518	7
784.47906	8
941.91199	6
945.54633	9
946.57971	10
1107.59509	1000

NAME: Ginsenoside Rb1
PRECURSORMZ: 1153.60114185183
PRECURSORTYPE: [M+FA-H]-
INSTRUMENTTYPE: LC-ESI-QTOF
SMILES: CC(C)=CCCC(C)(OC1OC(COC2OC(CO)C(O)C(O)C2O)C(O)C(O)C1O)C1CCC2(C)C1C(O)CC1C3(C)CCC(OC4OC(CO)C(O)C(O)C4OC4OC(CO)C(O)C(O)C4O)C(C)(C)C3CCC21C
INCHIKEY: GZYPWOGIYAIIPV-UHFFFAOYNA-N
Ontology: Triterpene saponins
COLLISIONENERGY: 10
FORMULA: C54H92O23
RETENTIONTIME: 5.88955
IONMODE: Negative
Comment: registered in RIKEN PlaSMA
Num Peaks: 22
119.03977	14
179.05128	20
197.52036	9
312.10764	8
534.5354	9
549.1875	10
678.81775	9
825.49316	10
837.81744	8
945.5578	13
946.5365	9
947.50653	8
1107.30164	9
1107.59485	1000
1108.59668	508
1108.68237	11
1109.59753	163
1109.67346	9
1110.61682	34
1111.62109	20
1153.58179	56
1153.62378	89

NAME: Chikusetsusaponin IV
PRECURSORMZ: 925.48023904783
PRECURSORTYPE: [M-H]-
INSTRUMENTTYPE: LC-ESI-QTOF
SMILES: CC1(C)CCC2(CCC3(C)C(=CCC4C5(C)CCC(OC6OC(C(OC7OC(CO)C(O)C7O)C(O)C6O)C(O)=O)C(C)(C)C5CCC34C)C2C1)C(=O)OC1OC(CO)C(O)C(O)C1O
INCHIKEY: KQSFNXMDCOFFGW-UHFFFAOYNA-N
Ontology: Triterpene saponins
COLLISIONENERGY: 10
FORMULA: C47H74O18
RETENTIONTIME: 6.386483
IONMODE: Negative
Comment: registered in RIKEN PlaSMA
Num Peaks: 18
59.01216	10
89.02669	20
101.02628	7
131.03793	14
149.04416	20
569.38538	154
570.39246	48
571.39215	11
613.35217	8
613.3819	28
615.36816	6
696.65912	6
763.42889	8
776.42419	5
776.44818	5
793.45032	14
925.41541	7
925.4798	1000

NAME: Delphinidin 3-galactoside
PRECURSORMZ: 463.08765101576
PRECURSORTYPE: [M-2H]-
INSTRUMENTTYPE: LC-ESI-QTOF
SMILES: OCC1OC(OC2=C([O+]=C3C=C(O)C=C(O)C3=C2)C2=CC(O)=C(O)C(O)=C2)C(O)C(O)C1O
INCHIKEY: XENHPQQLDPAYIJ-UHFFFAOYNA-O
Ontology: Anthocyanidin-3-O-glycosides
COLLISIONENERGY: 10
FORMULA: C21H21O12
RETENTIONTIME: 2.634633
IONMODE: Negative
Comment: registered in RIKEN PlaSMA
Num Peaks: 6
125.01927	10
126.02709	13
301.01718	11
336.0527	12
461.58157	10
463.08661	1000

NAME: Ginsenoside Rb1
PRECURSORMZ: 1107.59566254783
PRECURSORTYPE: [M-H]-
INSTRUMENTTYPE: LC-ESI-QTOF
SMILES: CC(C)=CCCC(C)(OC1OC(COC2OC(CO)C(O)C(O)C2O)C(O)C(O)C1O)C1CCC2(C)C1C(O)CC1C3(C)CCC(OC4OC(CO)C(O)C(O)C4OC4OC(CO)C(O)C(O)C4O)C(C)(C)C3CCC21C
INCHIKEY: GZYPWOGIYAIIPV-UHFFFAOYNA-N
Ontology: Triterpene saponins
COLLISIONENERGY: 10
FORMULA: C54H92O23
RETENTIONTIME: 5.88955
IONMODE: Negative
Comment: registered in RIKEN PlaSMA
Num Peaks: 14
175.46071	6
412.7005	5
450.3942	7
457.96008	5
535.24664	6
574.79865	7
618.23157	8
621.29779	5
675.29791	6
701.474	8
709.18219	6
756.90405	6
1107.59924	1000
1107.68896	5

NAME: Ginsenoside Rb1
PRECURSORMZ: 1153.60114185183
PRECURSORTYPE: [M+FA-H]-
INSTRUMENTTYPE: LC-ESI-QTOF
SMILES: CC(C)=CCCC(C)(OC1OC(COC2OC(CO)C(O)C(O)C2O)C(O)C(O)C1O)C1CCC2(C)C1C(O)CC1C3(C)CCC(OC4OC(CO)C(O)C(O)C4OC4OC(CO)C(O)C(O)C4O)C(C)(C)C3CCC21C
INCHIKEY: GZYPWOGIYAIIPV-UHFFFAOYNA-N
Ontology: Triterpene saponins
COLLISIONENERGY: 10
FORMULA: C54H92O23
RETENTIONTIME: 5.88955
IONMODE: Negative
Comment: registered in RIKEN PlaSMA
Num Peaks: 15
202.20047	34
902.8786	34
1107.5238	38
1107.59277	1000
1107.69714	38
1108.10059	236
1108.56299	78
1108.64087	202
1109.02161	34
1109.56848	38
1109.60632	78
1132.12903	34
1132.56372	59
1153.57947	216
1153.62122	478

NAME: Delphinidin 3-galactoside
PRECURSORMZ: 463.08765101576
PRECURSORTYPE: [M-2H]-
INSTRUMENTTYPE: LC-ESI-QTOF
SMILES: OCC1OC(OC2=C([O+]=C3C=C(O)C=C(O)C3=C2)C2=CC(O)=C(O)C(O)=C2)C(O)C(O)C1O
INCHIKEY: XENHPQQLDPAYIJ-UHFFFAOYNA-O
Ontology: Anthocyanidin-3-O-glycosides
COLLISIONENERGY: 30
FORMULA: C21H21O12
RETENTIONTIME: 2.634633
IONMODE: Negative
Comment: registered in RIKEN PlaSMA
Num Peaks: 25
124.01643	80
125.00941	18
125.02447	89
147.00798	17
175.00467	20
191.04018	18
193.0153	18
219.05188	17
228.03641	18
231.02319	18
271.02322	58
272.02563	35
272.03842	18
273.07938	17
283.02124	36
284.02731	17
299.02222	94
299.04123	18
300.0072	34
300.02557	1000
300.09845	17
300.22113	17
301.03406	127
302.02994	20
315.0571	19

NAME: Ginsenoside Rb1
PRECURSORMZ: 1107.59566254783
PRECURSORTYPE: [M-H]-
INSTRUMENTTYPE: LC-ESI-QTOF
SMILES: CC(C)=CCCC(C)(OC1OC(COC2OC(CO)C(O)C(O)C2O)C(O)C(O)C1O)C1CCC2(C)C1C(O)CC1C3(C)CCC(OC4OC(CO)C(O)C(O)C4OC4OC(CO)C(O)C(O)C4O)C(C)(C)C3CCC21C
INCHIKEY: GZYPWOGIYAIIPV-UHFFFAOYNA-N
Ontology: Triterpene saponins
COLLISIONENERGY: 30
FORMULA: C54H92O23
RETENTIONTIME: 5.88955
IONMODE: Negative
Comment: registered in RIKEN PlaSMA
Num Peaks: 4
783.48938	6
784.48523	5
946.56201	9
1107.5957	1000

NAME: Ginsenoside Rb1
PRECURSORMZ: 1153.60114185183
PRECURSORTYPE: [M+FA-H]-
INSTRUMENTTYPE: LC-ESI-QTOF
SMILES: CC(C)=CCCC(C)(OC1OC(COC2OC(CO)C(O)C(O)C2O)C(O)C(O)C1O)C1CCC2(C)C1C(O)CC1C3(C)CCC(OC4OC(CO)C(O)C(O)C4OC4OC(CO)C(O)C(O)C4O)C(C)(C)C3CCC21C
INCHIKEY: GZYPWOGIYAIIPV-UHFFFAOYNA-N
Ontology: Triterpene saponins
COLLISIONENERGY: 30
FORMULA: C54H92O23
RETENTIONTIME: 5.88955
IONMODE: Negative
Comment: registered in RIKEN PlaSMA
Num Peaks: 15
235.67989	9
365.25955	10
377.66898	12
682.08099	8
696.73694	10
799.02228	10
840.4826	8
1107.59692	1000
1108.53052	22
1108.60254	423
1109.59827	87
1109.63721	16
1110.57947	8
1110.6134	16
1111.55908	8

NAME: Chikusetsusaponin IV
PRECURSORMZ: 925.48023904783
PRECURSORTYPE: [M-H]-
INSTRUMENTTYPE: LC-ESI-QTOF
SMILES: CC1(C)CCC2(CCC3(C)C(=CCC4C5(C)CCC(OC6OC(C(OC7OC(CO)C(O)C7O)C(O)C6O)C(O)=O)C(C)(C)C5CCC34C)C2C1)C(=O)OC1OC(CO)C(O)C(O)C1O
INCHIKEY: KQSFNXMDCOFFGW-UHFFFAOYNA-N
Ontology: Triterpene saponins
COLLISIONENERGY: 30
FORMULA: C47H74O18
RETENTIONTIME: 6.386483
IONMODE: Negative
Comment: registered in RIKEN PlaSMA
Num Peaks: 17
71.01328	11
89.02338	38
131.03447	13
131.04114	9
149.04572	36
569.38379	200
570.38983	72
571.39606	26
613.35278	19
613.37988	27
614.38342	15
763.42645	12
775.43872	10
775.46082	8
776.43799	5
793.44427	7
925.48236	1000

NAME: Delphinidin 3-galactoside
PRECURSORMZ: 463.08765101576
PRECURSORTYPE: [M-2H]-
INSTRUMENTTYPE: LC-ESI-QTOF
SMILES: OCC1OC(OC2=C([O+]=C3C=C(O)C=C(O)C3=C2)C2=CC(O)=C(O)C(O)=C2)C(O)C(O)C1O
INCHIKEY: XENHPQQLDPAYIJ-UHFFFAOYNA-O
Ontology: Anthocyanidin-3-O-glycosides
COLLISIONENERGY: 50
FORMULA: C21H21O12
RETENTIONTIME: 2.634633
IONMODE: Negative
Comment: registered in RIKEN PlaSMA
Num Peaks: 41
104.02846	172
107.01165	141
124.01759	516
125.02439	281
145.02408	141
147.00537	641
147.01346	141
148.02505	188
149.02344	219
158.03384	141
164.00975	203
174.02194	141
175.03575	188
177.04997	195
186.03244	148
187.04274	148
198.02412	156
198.04338	180
199.05052	211
201.01852	297
203.03102	305
204.03816	391
204.05234	141
211.03987	141
213.01761	180
227.03023	336
228.05379	156
229.00613	172
229.02473	148
243.02446	750
243.03291	219
244.02896	156
244.03854	156
255.02943	328
271.02496	156
271.03848	1000
272.0217	141
272.03516	344
299.01019	320
299.02399	180
300.02417	164

NAME: Naringin
PRECURSORMZ: 579.17192924783
PRECURSORTYPE: [M-H]-
INSTRUMENTTYPE: LC-ESI-QTOF
SMILES: CC1OC(OC2C(O)C(O)C(CO)OC2OC2=CC(O)=C3C(=O)CC(OC3=C2)C2=CC=C(O)C=C2)C(O)C(O)C1O
INCHIKEY: DFPMSGMNTNDNHN-UHFFFAOYNA-N
Ontology: Flavonoid-7-O-glycosides
COLLISIONENERGY: 50
FORMULA: C27H32O14
RETENTIONTIME: 4.378117
IONMODE: Negative
Comment: registered in RIKEN PlaSMA
Num Peaks: 34
63.02685	6
65.00301	11
83.0135	21
93.0351	25
107.01358	153
108.01253	6
119.04918	279
120.05028	23
120.06368	6
121.03195	6
125.02504	31
136.01787	31
145.02852	17
151.00281	1000
152.00664	53
153.0078	7
163.03679	6
164.01169	30
165.01756	56
177.01869	53
185.06384	10
187.03864	27
213.99498	7
227.07072	56
228.06889	8
229.04541	16
229.07111	6
269.03848	12
271.06302	120
272.06653	12
285.08066	6
295.04761	6
579.15515	6
579.17249	10

NAME: Ginsenoside Rb1
PRECURSORMZ: 1107.59566254783
PRECURSORTYPE: [M-H]-
INSTRUMENTTYPE: LC-ESI-QTOF
SMILES: CC(C)=CCCC(C)(OC1OC(COC2OC(CO)C(O)C(O)C2O)C(O)C(O)C1O)C1CCC2(C)C1C(O)CC1C3(C)CCC(OC4OC(CO)C(O)C(O)C4OC4OC(CO)C(O)C(O)C4O)C(C)(C)C3CCC21C
INCHIKEY: GZYPWOGIYAIIPV-UHFFFAOYNA-N
Ontology: Triterpene saponins
COLLISIONENERGY: 50
FORMULA: C54H92O23
RETENTIONTIME: 5.88955
IONMODE: Negative
Comment: registered in RIKEN PlaSMA
Num Peaks: 74
71.01121	76
71.01856	42
85.02557	38
87.00533	19
89.02382	435
90.0253	40
99.00556	18
101.02233	288
103.02979	20
107.03568	20
113.01834	89
113.02552	182
114.02737	20
115.03519	17
119.03519	533
120.04108	18
125.02277	102
131.03146	45
133.04112	17
137.64995	20
143.02759	18
143.0374	67
149.04742	20
161.04512	382
161.05243	86
162.04955	61
167.03253	25
179.05501	1000
203.0526	19
221.06607	320
222.06656	20
222.07434	19
232.71594	19
245.06236	35
264.06873	22
282.09711	47
323.09024	40
323.10074	19
350.5976	29
459.36832	18
469.63657	22
517.90015	27
562.2431	22
621.40448	19
621.44226	19
621.46027	19
622.42847	19
622.46423	41
623.44916	20
663.45355	17
685.56683	20
765.46667	17
765.49963	20
767.51288	25
783.32977	19
783.47089	68
783.50031	71
783.52838	69
784.48395	37
784.55487	17
785.48273	19
833.03168	17
927.51337	17
945.49658	20
945.53204	34
945.57257	122
946.56226	17
946.59851	21
947.56714	17
953.79968	19
1042.56543	18
1107.55884	88
1107.58752	271
1107.63354	103

NAME: Ginsenoside Rb1
PRECURSORMZ: 1153.60114185183
PRECURSORTYPE: [M+FA-H]-
INSTRUMENTTYPE: LC-ESI-QTOF
SMILES: CC(C)=CCCC(C)(OC1OC(COC2OC(CO)C(O)C(O)C2O)C(O)C(O)C1O)C1CCC2(C)C1C(O)CC1C3(C)CCC(OC4OC(CO)C(O)C(O)C4OC4OC(CO)C(O)C(O)C4O)C(C)(C)C3CCC21C
INCHIKEY: GZYPWOGIYAIIPV-UHFFFAOYNA-N
Ontology: Triterpene saponins
COLLISIONENERGY: 50
FORMULA: C54H92O23
RETENTIONTIME: 5.88955
IONMODE: Negative
Comment: registered in RIKEN PlaSMA
Num Peaks: 47
73.0304	41
89.02142	128
89.02686	152
99.00613	39
101.02406	285
113.02374	98
114.02509	39
119.03107	207
119.0362	167
131.03645	50
141.01849	54
143.02759	83
143.03673	39
144.0361	46
149.04855	57
150.05173	54
159.03247	61
161.04814	43
179.05627	698
221.06572	159
281.07358	57
323.08725	157
323.09708	89
323.11407	50
518.74542	76
518.78284	48
602.77917	61
621.43408	43
621.46521	48
664.48639	50
705.84216	43
765.48944	39
783.45337	130
783.49182	180
784.46912	46
784.49695	96
945.5282	196
947.53162	41
949.90045	43
1051.12134	39
1083.54395	41
1107.59766	1000
1108.60388	793
1108.6875	39
1108.85999	43
1109.58789	211
1109.62244	80

NAME: Chikusetsusaponin IV
PRECURSORMZ: 925.48023904783
PRECURSORTYPE: [M-H]-
INSTRUMENTTYPE: LC-ESI-QTOF
SMILES: CC1(C)CCC2(CCC3(C)C(=CCC4C5(C)CCC(OC6OC(C(OC7OC(CO)C(O)C7O)C(O)C6O)C(O)=O)C(C)(C)C5CCC34C)C2C1)C(=O)OC1OC(CO)C(O)C(O)C1O
INCHIKEY: KQSFNXMDCOFFGW-UHFFFAOYNA-N
Ontology: Triterpene saponins
COLLISIONENERGY: 50
FORMULA: C47H74O18
RETENTIONTIME: 6.386483
IONMODE: Negative
Comment: registered in RIKEN PlaSMA
Num Peaks: 52
57.03329	7
59.01266	45
71.01222	118
72.01521	10
82.10265	6
85.02983	16
86.0324	5
89.02362	363
90.0251	16
90.03046	18
95.01089	6
101.02345	47
113.02168	69
119.03564	6
129.01392	5
129.02501	8
131.02765	10
131.0383	19
132.03249	12
149.0442	15
211.54704	6
257.59439	6
278.11084	6
337.11609	6
469.39655	6
497.3566	6
498.38412	5
509.35812	6
509.38034	7
512.37848	6
527.39258	5
569.38477	1000
569.47845	5
570.39288	321
571.10767	6
571.36652	11
571.39136	22
571.41333	5
583.40857	5
587.37817	7
587.40833	6
589.3924	5
613.34473	10
613.38446	53
614.33167	5
614.38501	41
615.38385	12
655.39075	5
729.03894	6
793.42096	5
793.44012	15
925.50317	5

NAME: Delphinidin 3-galactoside
PRECURSORMZ: 463.08765101576
PRECURSORTYPE: [M-2H]-
INSTRUMENTTYPE: LC-ESI-QTOF
SMILES: OCC1OC(OC2=C([O+]=C3C=C(O)C=C(O)C3=C2)C2=CC(O)=C(O)C(O)=C2)C(O)C(O)C1O
INCHIKEY: XENHPQQLDPAYIJ-UHFFFAOYNA-O
Ontology: Anthocyanidin-3-O-glycosides
COLLISIONENERGY: 10
FORMULA: C21H21O12
RETENTIONTIME: 2.634633
IONMODE: Negative
Comment: registered in RIKEN PlaSMA
Num Peaks: 20
125.03064	80
126.02637	33
191.02914	41
199.30681	39
201.05234	33
239.04434	39
257.03177	37
271.01529	46
272.0307	37
272.99277	35
282.01627	37
286.01151	43
299.02127	48
299.36792	37
300.02872	1000
301.03229	160
302.02689	33
315.06165	35
337.06784	71
463.08444	636

NAME: Naringin
PRECURSORMZ: 579.17192924783
PRECURSORTYPE: [M-H]-
INSTRUMENTTYPE: LC-ESI-QTOF
SMILES: CC1OC(OC2C(O)C(O)C(CO)OC2OC2=CC(O)=C3C(=O)CC(OC3=C2)C2=CC=C(O)C=C2)C(O)C(O)C1O
INCHIKEY: DFPMSGMNTNDNHN-UHFFFAOYNA-N
Ontology: Flavonoid-7-O-glycosides
COLLISIONENERGY: 10
FORMULA: C27H32O14
RETENTIONTIME: 4.378117
IONMODE: Negative
Comment: registered in RIKEN PlaSMA
Num Peaks: 17
119.04948	16
145.0289	15
151.00269	208
193.01323	11
235.02559	25
271.05963	339
272.06183	36
273.0719	6
295.05621	6
313.06839	11
314.06821	6
339.06165	6
339.08148	7
340.06964	6
459.11862	100
460.11526	16
579.17065	1000

NAME: Ginsenoside Rb1
PRECURSORMZ: 1107.59566254783
PRECURSORTYPE: [M-H]-
INSTRUMENTTYPE: LC-ESI-QTOF
SMILES: CC(C)=CCCC(C)(OC1OC(COC2OC(CO)C(O)C(O)C2O)C(O)C(O)C1O)C1CCC2(C)C1C(O)CC1C3(C)CCC(OC4OC(CO)C(O)C(O)C4OC4OC(CO)C(O)C(O)C4O)C(C)(C)C3CCC21C
INCHIKEY: GZYPWOGIYAIIPV-UHFFFAOYNA-N
Ontology: Triterpene saponins
COLLISIONENERGY: 10
FORMULA: C54H92O23
RETENTIONTIME: 5.88955
IONMODE: Negative
Comment: registered in RIKEN PlaSMA
Num Peaks: 15
71.01073	5
119.03576	6
179.05145	15
528.82031	5
622.57343	7
687.43756	6
783.45709	8
783.48505	6
945.5777	8
947.57715	8
948.55664	5
952.51056	5
953.7027	7
1107.59326	1000
1107.69141	8

NAME: Ginsenoside Rb1
PRECURSORMZ: 1153.60114185183
PRECURSORTYPE: [M+FA-H]-
INSTRUMENTTYPE: LC-ESI-QTOF
SMILES: CC(C)=CCCC(C)(OC1OC(COC2OC(CO)C(O)C(O)C2O)C(O)C(O)C1O)C1CCC2(C)C1C(O)CC1C3(C)CCC(OC4OC(CO)C(O)C(O)C4OC4OC(CO)C(O)C(O)C4O)C(C)(C)C3CCC21C
INCHIKEY: GZYPWOGIYAIIPV-UHFFFAOYNA-N
Ontology: Triterpene saponins
COLLISIONENERGY: 10
FORMULA: C54H92O23
RETENTIONTIME: 5.88955
IONMODE: Negative
Comment: registered in RIKEN PlaSMA
Num Peaks: 34
101.02843	8
131.59554	7
168.92278	7
179.06136	11
192.35286	8
219.06281	9
444.39151	9
510.88412	7
542.86835	7
566.17688	7
571.94232	11
701.3988	8
799.85962	13
817.96429	7
843.57684	8
858.19983	12
945.54645	9
1089.46057	8
1107.59351	1000
1108.09766	60
1108.60107	521
1108.76038	8
1109.08875	8
1109.12988	7
1109.59766	136
1109.68579	7
1110.60437	7
1110.62939	7
1110.65894	7
1111.59949	8
1135.06238	7
1143.19263	8
1153.599	230
1153.64246	22

NAME: Chikusetsusaponin IV
PRECURSORMZ: 925.48023904783
PRECURSORTYPE: [M-H]-
INSTRUMENTTYPE: LC-ESI-QTOF
SMILES: CC1(C)CCC2(CCC3(C)C(=CCC4C5(C)CCC(OC6OC(C(OC7OC(CO)C(O)C7O)C(O)C6O)C(O)=O)C(C)(C)C5CCC34C)C2C1)C(=O)OC1OC(CO)C(O)C(O)C1O
INCHIKEY: KQSFNXMDCOFFGW-UHFFFAOYNA-N
Ontology: Triterpene saponins
COLLISIONENERGY: 10
FORMULA: C47H74O18
RETENTIONTIME: 6.386483
IONMODE: Negative
Comment: registered in RIKEN PlaSMA
Num Peaks: 13
89.01945	6
89.02513	15
113.02362	6
131.03596	8
149.04846	6
569.38599	106
570.38422	20
570.40527	7
571.39941	8
613.37366	22
614.37396	7
925.48077	1000
925.54749	5

NAME: Delphinidin 3-galactoside
PRECURSORMZ: 463.08765101576
PRECURSORTYPE: [M-2H]-
INSTRUMENTTYPE: LC-ESI-QTOF
SMILES: OCC1OC(OC2=C([O+]=C3C=C(O)C=C(O)C3=C2)C2=CC(O)=C(O)C(O)=C2)C(O)C(O)C1O
INCHIKEY: XENHPQQLDPAYIJ-UHFFFAOYNA-O
Ontology: Anthocyanidin-3-O-glycosides
COLLISIONENERGY: 10
FORMULA: C21H21O12
RETENTIONTIME: 2.634633
IONMODE: Negative
Comment: registered in RIKEN PlaSMA
Num Peaks: 6
301.01962	18
315.04428	11
325.03229	10
343.07657	11
380.54852	15
463.08728	1000

NAME: Ginsenoside Rb1
PRECURSORMZ: 1107.59566254783
PRECURSORTYPE: [M-H]-
INSTRUMENTTYPE: LC-ESI-QTOF
SMILES: CC(C)=CCCC(C)(OC1OC(COC2OC(CO)C(O)C(O)C2O)C(O)C(O)C1O)C1CCC2(C)C1C(O)CC1C3(C)CCC(OC4OC(CO)C(O)C(O)C4OC4OC(CO)C(O)C(O)C4O)C(C)(C)C3CCC21C
INCHIKEY: GZYPWOGIYAIIPV-UHFFFAOYNA-N
Ontology: Triterpene saponins
COLLISIONENERGY: 10
FORMULA: C54H92O23
RETENTIONTIME: 5.88955
IONMODE: Negative
Comment: registered in RIKEN PlaSMA
Num Peaks: 7
550.85016	6
557.39307	7
1015.63165	7
1090.28589	8
1107.44275	6
1107.60046	1000
1107.68262	7

NAME: Ginsenoside Rb1
PRECURSORMZ: 1153.60114185183
PRECURSORTYPE: [M+FA-H]-
INSTRUMENTTYPE: LC-ESI-QTOF
SMILES: CC(C)=CCCC(C)(OC1OC(COC2OC(CO)C(O)C(O)C2O)C(O)C(O)C1O)C1CCC2(C)C1C(O)CC1C3(C)CCC(OC4OC(CO)C(O)C(O)C4OC4OC(CO)C(O)C(O)C4O)C(C)(C)C3CCC21C
INCHIKEY: GZYPWOGIYAIIPV-UHFFFAOYNA-N
Ontology: Triterpene saponins
COLLISIONENERGY: 10
FORMULA: C54H92O23
RETENTIONTIME: 5.88955
IONMODE: Negative
Comment: registered in RIKEN PlaSMA
Num Peaks: 12
501.16068	36
732.51166	32
1107.59509	814
1108.10815	29
1108.54858	29
1108.60596	154
1108.63818	44
1109.60181	91
1110.59351	37
1110.62073	58
1131.10779	52
1153.60803	1000

NAME: Delphinidin 3-galactoside
PRECURSORMZ: 463.08765101576
PRECURSORTYPE: [M-2H]-
INSTRUMENTTYPE: LC-ESI-QTOF
SMILES: OCC1OC(OC2=C([O+]=C3C=C(O)C=C(O)C3=C2)C2=CC(O)=C(O)C(O)=C2)C(O)C(O)C1O
INCHIKEY: XENHPQQLDPAYIJ-UHFFFAOYNA-O
Ontology: Anthocyanidin-3-O-glycosides
COLLISIONENERGY: 30
FORMULA: C21H21O12
RETENTIONTIME: 2.634633
IONMODE: Negative
Comment: registered in RIKEN PlaSMA
Num Peaks: 36
124.00673	30
125.02325	87
137.49042	23
147.00235	20
148.0139	36
158.29669	35
163.00172	78
172.0519	19
177.01347	23
187.03456	19
188.05005	19
195.04639	19
200.0499	19
201.01666	26
204.04468	19
213.01167	27
216.0374	20
226.02475	19
229.04205	19
240.03952	19
243.04379	23
256.01779	23
257.03317	21
259.02878	24
272.02573	114
272.0354	65
285.04233	21
299.02045	41
300.02478	1000
300.06042	20
301.01483	19
301.03177	189
301.04431	80
301.98352	21
302.0372	68
302.04807	19

NAME: Naringin
PRECURSORMZ: 579.17192924783
PRECURSORTYPE: [M-H]-
INSTRUMENTTYPE: LC-ESI-QTOF
SMILES: CC1OC(OC2C(O)C(O)C(CO)OC2OC2=CC(O)=C3C(=O)CC(OC3=C2)C2=CC=C(O)C=C2)C(O)C(O)C1O
INCHIKEY: DFPMSGMNTNDNHN-UHFFFAOYNA-N
Ontology: Flavonoid-7-O-glycosides
COLLISIONENERGY: 30
FORMULA: C27H32O14
RETENTIONTIME: 4.378117
IONMODE: Negative
Comment: registered in RIKEN PlaSMA
Num Peaks: 37
89.02125	8
93.02903	10
101.02097	6
119.05103	14
125.02288	21
145.0255	21
151.00206	443
152.00652	33
165.02252	6
175.00464	21
175.01425	7
177.0173	21
177.02434	16
193.01489	26
194.01558	5
205.01848	6
235.02361	65
270.05539	7
271.0596	1000
272.06351	138
273.06491	19
295.0528	10
297.04944	5
313.06967	50
314.07315	13
337.0751	5
339.07037	27
340.0838	5
363.06754	5
373.08881	5
415.10968	10
417.11624	13
433.1355	10
459.116	203
460.11505	40
460.13763	8
579.17413	109

NAME: Ginsenoside Rb1
PRECURSORMZ: 1107.59566254783
PRECURSORTYPE: [M-H]-
INSTRUMENTTYPE: LC-ESI-QTOF
SMILES: CC(C)=CCCC(C)(OC1OC(COC2OC(CO)C(O)C(O)C2O)C(O)C(O)C1O)C1CCC2(C)C1C(O)CC1C3(C)CCC(OC4OC(CO)C(O)C(O)C4OC4OC(CO)C(O)C(O)C4O)C(C)(C)C3CCC21C
INCHIKEY: GZYPWOGIYAIIPV-UHFFFAOYNA-N
Ontology: Triterpene saponins
COLLISIONENERGY: 30
FORMULA: C54H92O23
RETENTIONTIME: 5.88955
IONMODE: Negative
Comment: registered in RIKEN PlaSMA
Num Peaks: 5
179.05708	12
945.53839	6
945.56897	6
1107.59668	1000
1107.69263	8

NAME: Chikusetsusaponin IV
PRECURSORMZ: 925.48023904783
PRECURSORTYPE: [M-H]-
INSTRUMENTTYPE: LC-ESI-QTOF
SMILES: CC1(C)CCC2(CCC3(C)C(=CCC4C5(C)CCC(OC6OC(C(OC7OC(CO)C(O)C7O)C(O)C6O)C(O)=O)C(C)(C)C5CCC34C)C2C1)C(=O)OC1OC(CO)C(O)C(O)C1O
INCHIKEY: KQSFNXMDCOFFGW-UHFFFAOYNA-N
Ontology: Triterpene saponins
COLLISIONENERGY: 30
FORMULA: C47H74O18
RETENTIONTIME: 6.386483
IONMODE: Negative
Comment: registered in RIKEN PlaSMA
Num Peaks: 19
71.01109	7
89.0245	30
101.02451	9
113.02428	5
119.03725	8
131.02747	6
131.03424	14
149.04387	29
569.38745	211
570.38831	59
571.38647	6
571.41473	15
578.55768	6
613.35736	8
613.39185	18
614.38025	12
775.42163	25
776.46948	5
925.48322	1000

NAME: Delphinidin 3-galactoside
PRECURSORMZ: 463.08765101576
PRECURSORTYPE: [M-2H]-
INSTRUMENTTYPE: LC-ESI-QTOF
SMILES: OCC1OC(OC2=C([O+]=C3C=C(O)C=C(O)C3=C2)C2=CC(O)=C(O)C(O)=C2)C(O)C(O)C1O
INCHIKEY: XENHPQQLDPAYIJ-UHFFFAOYNA-O
Ontology: Anthocyanidin-3-O-glycosides
COLLISIONENERGY: 50
FORMULA: C21H21O12
RETENTIONTIME: 2.634633
IONMODE: Negative
Comment: registered in RIKEN PlaSMA
Num Peaks: 26
124.00654	122
125.02134	122
132.18848	128
145.02438	149
148.01468	149
149.03297	135
162.99951	128
171.04501	331
172.04524	122
181.03064	203
185.02209	196
186.02962	162
187.04021	250
187.05089	135
188.03758	122
190.98914	142
199.03433	169
211.04198	149
212.05597	122
226.0231	155
227.02597	291
239.03833	223
243.03571	122
271.02145	1000
272.0321	372
273.05164	182

NAME: Naringin
PRECURSORMZ: 579.17192924783
PRECURSORTYPE: [M-H]-
INSTRUMENTTYPE: LC-ESI-QTOF
SMILES: CC1OC(OC2C(O)C(O)C(CO)OC2OC2=CC(O)=C3C(=O)CC(OC3=C2)C2=CC=C(O)C=C2)C(O)C(O)C1O
INCHIKEY: DFPMSGMNTNDNHN-UHFFFAOYNA-N
Ontology: Flavonoid-7-O-glycosides
COLLISIONENERGY: 50
FORMULA: C27H32O14
RETENTIONTIME: 4.378117
IONMODE: Negative
Comment: registered in RIKEN PlaSMA
Num Peaks: 29
65.0023	11
83.01156	22
93.03213	13
107.01189	134
108.01786	6
119.049	310
120.04334	6
125.02081	42
136.0181	7
137.02161	6
145.02988	11
145.05214	5
148.01381	5
151.00218	1000
152.0052	54
161.05843	8
164.01122	53
165.01416	31
177.01814	43
185.06013	29
187.03999	25
189.01883	7
193.01311	6
227.07187	18
228.08327	5
229.04327	12
242.0607	5
271.05963	181
272.05911	17

NAME: Ginsenoside Rb1
PRECURSORMZ: 1107.59566254783
PRECURSORTYPE: [M-H]-
INSTRUMENTTYPE: LC-ESI-QTOF
SMILES: CC(C)=CCCC(C)(OC1OC(COC2OC(CO)C(O)C(O)C2O)C(O)C(O)C1O)C1CCC2(C)C1C(O)CC1C3(C)CCC(OC4OC(CO)C(O)C(O)C4OC4OC(CO)C(O)C(O)C4O)C(C)(C)C3CCC21C
INCHIKEY: GZYPWOGIYAIIPV-UHFFFAOYNA-N
Ontology: Triterpene saponins
COLLISIONENERGY: 50
FORMULA: C54H92O23
RETENTIONTIME: 5.88955
IONMODE: Negative
Comment: registered in RIKEN PlaSMA
Num Peaks: 89
59.01315	84
71.01298	166
87.00787	48
89.02274	437
91.0256	18
95.01118	18
97.0276	25
99.0412	22
101.02232	443
101.0274	146
101.03842	23
102.02765	21
104.26605	26
107.02996	19
107.03722	55
113.02518	133
119.03393	325
120.03529	23
120.04106	18
125.02509	81
129.01743	21
131.03386	127
131.03886	50
143.03406	289
146.0537	24
149.04277	23
159.02782	40
161.04366	453
161.84033	22
179.03812	23
179.05467	1000
180.05663	57
193.83484	20
197.66202	21
203.05505	25
221.06674	315
245.06848	20
263.07077	21
263.08017	24
264.06839	19
264.08154	39
281.08774	27
323.08728	53
324.09229	39
325.11142	18
331.33615	18
341.09863	20
363.21774	19
397.06961	18
459.37064	19
459.40454	18
474.73975	23
519.02887	27
533.01941	18
533.18951	18
551.34564	33
554.18481	18
559.37915	20
593.0368	31
621.41272	39
621.44885	90
622.42773	50
622.45795	18
626.22498	18
672.94366	32
711.27893	20
765.49036	18
766.45374	18
774.98529	21
783.39624	21
783.46289	152
783.50079	64
783.53882	46
784.47711	63
886.00891	18
945.47974	18
945.53467	124
945.56689	99
946.51666	18
946.54755	63
946.58386	49
947.56299	18
948.50183	23
950.578	21
955.00177	18
1107.50732	18
1107.56055	61
1107.58716	208
1107.62158	224

NAME: Chikusetsusaponin IV
PRECURSORMZ: 925.48023904783
PRECURSORTYPE: [M-H]-
INSTRUMENTTYPE: LC-ESI-QTOF
SMILES: CC1(C)CCC2(CCC3(C)C(=CCC4C5(C)CCC(OC6OC(C(OC7OC(CO)C(O)C7O)C(O)C6O)C(O)=O)C(C)(C)C5CCC34C)C2C1)C(=O)OC1OC(CO)C(O)C(O)C1O
INCHIKEY: KQSFNXMDCOFFGW-UHFFFAOYNA-N
Ontology: Triterpene saponins
COLLISIONENERGY: 50
FORMULA: C47H74O18
RETENTIONTIME: 6.386483
IONMODE: Negative
Comment: registered in RIKEN PlaSMA
Num Peaks: 41
59.01231	108
71.01103	51
75.00639	5
85.02725	14
86.03194	7
89.02262	475
90.02612	15
91.02907	10
101.02524	43
113.02224	48
119.0351	43
131.02519	14
131.03314	64
132.0379	9
149.04442	44
150.05019	5
231.3158	7
270.7782	5
454.11359	8
455.36279	8
456.34644	9
497.35229	18
497.4238	5
510.36084	9
523.38525	5
569.34082	21
569.38202	1000
570.3855	353
571.3894	79
572.38483	5
583.39136	5
583.41913	9
587.39783	9
613.36322	93
613.38922	25
614.36182	14
614.39246	20
631.3786	9
763.42877	7
793.42474	11
793.45618	6

NAME: Swertiamarin
PRECURSORMZ: 373.1140204
PRECURSORTYPE: [M-H]-
INSTRUMENTTYPE: LC-ESI-QTOF
SMILES: OCC1OC(OC2OC=C3C(=O)OCCC3(O)C2C=C)C(O)C(O)C1O
INCHIKEY: HEYZWPRKKUGDCR-UHFFFAOYNA-N
Ontology: O-glycosyl compounds
COLLISIONENERGY: 10
FORMULA: C16H22O10
RETENTIONTIME: 3.1978
IONMODE: Negative
Comment: registered in RIKEN PlaSMA
Num Peaks: 8
72.99255	187
89.02507	355
119.03434	280
141.0179	374
179.05508	1000
180.05714	280
193.05621	168
373.11218	224

NAME: Swertiamarin
PRECURSORMZ: 419.119499704
PRECURSORTYPE: [M+FA-H]-
INSTRUMENTTYPE: LC-ESI-QTOF
SMILES: OCC1OC(OC2OC=C3C(=O)OCCC3(O)C2C=C)C(O)C(O)C1O
INCHIKEY: HEYZWPRKKUGDCR-UHFFFAOYNA-N
Ontology: O-glycosyl compounds
COLLISIONENERGY: 10
FORMULA: C16H22O10
RETENTIONTIME: 3.1978
IONMODE: Negative
Comment: registered in RIKEN PlaSMA
Num Peaks: 20
71.0141	9
89.02368	33
101.02624	6
113.02547	14
119.03647	18
141.01746	47
143.03343	15
143.03961	8
149.03592	7
161.04463	55
179.05505	1000
180.05847	38
181.05792	18
211.0555	12
355.09845	21
356.10544	6
373.11099	23
373.12527	14
374.1189	10
419.12027	636

NAME: Icariin
PRECURSORMZ: 721.234923404
PRECURSORTYPE: [M+FA-H]-
INSTRUMENTTYPE: LC-ESI-QTOF
SMILES: COC1=CC=C(C=C1)C1=C(OC2OC(C)C(O)C(O)C2O)C(=O)C2=C(O1)C(CC=C(C)C)=C(OC1OC(CO)C(O)C(O)C1O)C=C2O
INCHIKEY: TZJALUIVHRYQQB-UHFFFAOYNA-N
Ontology: Flavonoid-7-O-glycosides
COLLISIONENERGY: 10
FORMULA: C33H40O15
RETENTIONTIME: 5.426533
IONMODE: Negative
Comment: registered in RIKEN PlaSMA
Num Peaks: 9
409.12726	6
434.13272	5
513.17688	530
514.1803	149
515.17084	7
529.16864	27
530.17426	6
555.20068	8
721.23669	1000

NAME: Swertiamarin
PRECURSORMZ: 373.1140204
PRECURSORTYPE: [M-H]-
INSTRUMENTTYPE: LC-ESI-QTOF
SMILES: OCC1OC(OC2OC=C3C(=O)OCCC3(O)C2C=C)C(O)C(O)C1O
INCHIKEY: HEYZWPRKKUGDCR-UHFFFAOYNA-N
Ontology: O-glycosyl compounds
COLLISIONENERGY: 30
FORMULA: C16H22O10
RETENTIONTIME: 3.1978
IONMODE: Negative
Comment: registered in RIKEN PlaSMA
Num Peaks: 4
59.01197	404
89.02313	1000
113.01939	538
142.0238	404

NAME: Swertiamarin
PRECURSORMZ: 419.119499704
PRECURSORTYPE: [M+FA-H]-
INSTRUMENTTYPE: LC-ESI-QTOF
SMILES: OCC1OC(OC2OC=C3C(=O)OCCC3(O)C2C=C)C(O)C(O)C1O
INCHIKEY: HEYZWPRKKUGDCR-UHFFFAOYNA-N
Ontology: O-glycosyl compounds
COLLISIONENERGY: 30
FORMULA: C16H22O10
RETENTIONTIME: 3.1978
IONMODE: Negative
Comment: registered in RIKEN PlaSMA
Num Peaks: 26
59.01317	252
71.01275	203
89.02306	899
93.03268	34
97.03435	25
100.05166	25
101.02358	473
101.31325	28
102.02921	29
103.0276	28
103.06442	25
105.06672	31
113.02269	331
115.03493	27
119.0332	201
135.04054	38
141.01805	1000
142.01714	59
146.06795	29
149.04111	28
149.04808	38
149.062	80
163.07578	27
173.0542	29
177.05617	32
179.05482	58

NAME: Icariin
PRECURSORMZ: 721.234923404
PRECURSORTYPE: [M+FA-H]-
INSTRUMENTTYPE: LC-ESI-QTOF
SMILES: COC1=CC=C(C=C1)C1=C(OC2OC(C)C(O)C(O)C2O)C(=O)C2=C(O1)C(CC=C(C)C)=C(OC1OC(CO)C(O)C(O)C1O)C=C2O
INCHIKEY: TZJALUIVHRYQQB-UHFFFAOYNA-N
Ontology: Flavonoid-7-O-glycosides
COLLISIONENERGY: 30
FORMULA: C33H40O15
RETENTIONTIME: 5.426533
IONMODE: Negative
Comment: registered in RIKEN PlaSMA
Num Peaks: 20
337.07803	5
366.10928	22
366.1232	12
367.11691	1000
368.12173	198
369.10815	9
369.13547	10
370.1264	7
409.12683	129
410.12109	8
410.13593	8
433.12393	5
513.1767	859
513.25	6
514.17999	247
515.17853	20
515.21497	8
516.18866	6
529.1767	40
530.17798	21

NAME: Swertiamarin
PRECURSORMZ: 419.119499704
PRECURSORTYPE: [M+FA-H]-
INSTRUMENTTYPE: LC-ESI-QTOF
SMILES: OCC1OC(OC2OC=C3C(=O)OCCC3(O)C2C=C)C(O)C(O)C1O
INCHIKEY: HEYZWPRKKUGDCR-UHFFFAOYNA-N
Ontology: O-glycosyl compounds
COLLISIONENERGY: 50
FORMULA: C16H22O10
RETENTIONTIME: 3.1978
IONMODE: Negative
Comment: registered in RIKEN PlaSMA
Num Peaks: 10
59.01231	538
71.0146	212
85.03405	183
89.02444	442
93.02829	317
113.02538	404
131.04265	192
134.03337	173
141.01617	1000
141.0226	587

NAME: Icariin
PRECURSORMZ: 721.234923404
PRECURSORTYPE: [M+FA-H]-
INSTRUMENTTYPE: LC-ESI-QTOF
SMILES: COC1=CC=C(C=C1)C1=C(OC2OC(C)C(O)C(O)C2O)C(=O)C2=C(O1)C(CC=C(C)C)=C(OC1OC(CO)C(O)C(O)C1O)C=C2O
INCHIKEY: TZJALUIVHRYQQB-UHFFFAOYNA-N
Ontology: Flavonoid-7-O-glycosides
COLLISIONENERGY: 50
FORMULA: C33H40O15
RETENTIONTIME: 5.426533
IONMODE: Negative
Comment: registered in RIKEN PlaSMA
Num Peaks: 38
175.00493	6
177.00313	7
189.09366	6
272.11557	6
297.03375	51
297.04926	10
298.04507	12
299.04623	5
305.07983	9
308.02335	8
309.0369	92
310.03503	9
310.04742	6
311.05807	30
312.05783	11
312.0719	18
323.05402	29
323.08411	15
323.10114	48
324.09991	8
337.10367	11
349.10294	6
351.08884	116
351.12387	6
352.0947	170
353.0929	18
353.10608	23
365.09238	6
366.10919	209
367.11829	1000
367.15674	10
367.18423	6
368.12167	189
369.11539	27
394.10446	6
394.11911	6
409.13049	9
513.18781	10

NAME: Swertiamarin
PRECURSORMZ: 373.1140204
PRECURSORTYPE: [M-H]-
INSTRUMENTTYPE: LC-ESI-QTOF
SMILES: OCC1OC(OC2OC=C3C(=O)OCCC3(O)C2C=C)C(O)C(O)C1O
INCHIKEY: HEYZWPRKKUGDCR-UHFFFAOYNA-N
Ontology: O-glycosyl compounds
COLLISIONENERGY: 10
FORMULA: C16H22O10
RETENTIONTIME: 3.1978
IONMODE: Negative
Comment: registered in RIKEN PlaSMA
Num Peaks: 6
71.01595	812
71.86624	396
117.06676	521
141.01775	896
149.05867	417
179.05637	1000

NAME: Icariin
PRECURSORMZ: 721.234923404
PRECURSORTYPE: [M+FA-H]-
INSTRUMENTTYPE: LC-ESI-QTOF
SMILES: COC1=CC=C(C=C1)C1=C(OC2OC(C)C(O)C(O)C2O)C(=O)C2=C(O1)C(CC=C(C)C)=C(OC1OC(CO)C(O)C(O)C1O)C=C2O
INCHIKEY: TZJALUIVHRYQQB-UHFFFAOYNA-N
Ontology: Flavonoid-7-O-glycosides
COLLISIONENERGY: 10
FORMULA: C33H40O15
RETENTIONTIME: 5.426533
IONMODE: Negative
Comment: registered in RIKEN PlaSMA
Num Peaks: 22
352.0925	10
366.10938	96
367.11722	584
368.12164	142
369.11887	13
369.13461	6
409.1265	67
410.12643	12
411.13242	5
513.1756	1000
513.21997	8
514.17615	272
515.17938	31
516.1759	7
529.16919	134
530.1698	27
530.19415	15
531.16956	6
555.19324	11
557.19714	5
675.22931	9
721.23267	318

NAME: Swertiamarin
PRECURSORMZ: 373.1140204
PRECURSORTYPE: [M-H]-
INSTRUMENTTYPE: LC-ESI-QTOF
SMILES: OCC1OC(OC2OC=C3C(=O)OCCC3(O)C2C=C)C(O)C(O)C1O
INCHIKEY: HEYZWPRKKUGDCR-UHFFFAOYNA-N
Ontology: O-glycosyl compounds
COLLISIONENERGY: 10
FORMULA: C16H22O10
RETENTIONTIME: 3.1978
IONMODE: Negative
Comment: registered in RIKEN PlaSMA
Num Peaks: 6
60.99228	102
113.02296	107
119.03525	136
179.05356	1000
193.05685	153
355.0939	107

NAME: Swertiamarin
PRECURSORMZ: 419.119499704
PRECURSORTYPE: [M+FA-H]-
INSTRUMENTTYPE: LC-ESI-QTOF
SMILES: OCC1OC(OC2OC=C3C(=O)OCCC3(O)C2C=C)C(O)C(O)C1O
INCHIKEY: HEYZWPRKKUGDCR-UHFFFAOYNA-N
Ontology: O-glycosyl compounds
COLLISIONENERGY: 10
FORMULA: C16H22O10
RETENTIONTIME: 3.1978
IONMODE: Negative
Comment: registered in RIKEN PlaSMA
Num Peaks: 18
71.01173	8
89.02441	12
101.0211	7
107.03513	5
119.03606	12
141.01479	11
141.0217	24
143.03444	46
144.03957	8
161.03398	7
161.04529	55
179.05466	1000
180.05824	60
211.06047	27
355.09698	29
373.11575	41
374.11765	14
419.11798	600

NAME: Icariin
PRECURSORMZ: 721.234923404
PRECURSORTYPE: [M+FA-H]-
INSTRUMENTTYPE: LC-ESI-QTOF
SMILES: COC1=CC=C(C=C1)C1=C(OC2OC(C)C(O)C(O)C2O)C(=O)C2=C(O1)C(CC=C(C)C)=C(OC1OC(CO)C(O)C(O)C1O)C=C2O
INCHIKEY: TZJALUIVHRYQQB-UHFFFAOYNA-N
Ontology: Flavonoid-7-O-glycosides
COLLISIONENERGY: 10
FORMULA: C33H40O15
RETENTIONTIME: 5.426533
IONMODE: Negative
Comment: registered in RIKEN PlaSMA
Num Peaks: 10
513.17651	465
514.17908	140
515.17438	11
529.16193	14
529.17877	17
530.1698	8
555.17877	12
597.19659	6
676.21655	6
721.23407	1000

NAME: Swertiamarin
PRECURSORMZ: 373.1140204
PRECURSORTYPE: [M-H]-
INSTRUMENTTYPE: LC-ESI-QTOF
SMILES: OCC1OC(OC2OC=C3C(=O)OCCC3(O)C2C=C)C(O)C(O)C1O
INCHIKEY: HEYZWPRKKUGDCR-UHFFFAOYNA-N
Ontology: O-glycosyl compounds
COLLISIONENERGY: 30
FORMULA: C16H22O10
RETENTIONTIME: 3.1978
IONMODE: Negative
Comment: registered in RIKEN PlaSMA
Num Peaks: 6
59.01134	921
95.00449	658
119.03998	632
141.01717	1000
141.02859	658
149.06189	474

NAME: Swertiamarin
PRECURSORMZ: 419.119499704
PRECURSORTYPE: [M+FA-H]-
INSTRUMENTTYPE: LC-ESI-QTOF
SMILES: OCC1OC(OC2OC=C3C(=O)OCCC3(O)C2C=C)C(O)C(O)C1O
INCHIKEY: HEYZWPRKKUGDCR-UHFFFAOYNA-N
Ontology: O-glycosyl compounds
COLLISIONENERGY: 30
FORMULA: C16H22O10
RETENTIONTIME: 3.1978
IONMODE: Negative
Comment: registered in RIKEN PlaSMA
Num Peaks: 26
55.01907	34
59.01077	64
71.01137	81
71.01681	71
89.0241	690
93.03226	24
95.01141	24
95.0164	23
97.02436	45
97.03117	52
101.02065	136
101.02749	115
102.02769	31
111.00845	36
113.02386	251
113.03323	28
114.02247	22
115.03104	22
119.03294	149
141.01875	1000
142.01953	22
145.06952	30
149.0424	29
149.05797	96
150.06297	24
162.04419	22

NAME: Icariin
PRECURSORMZ: 721.234923404
PRECURSORTYPE: [M+FA-H]-
INSTRUMENTTYPE: LC-ESI-QTOF
SMILES: COC1=CC=C(C=C1)C1=C(OC2OC(C)C(O)C(O)C2O)C(=O)C2=C(O1)C(CC=C(C)C)=C(OC1OC(CO)C(O)C(O)C1O)C=C2O
INCHIKEY: TZJALUIVHRYQQB-UHFFFAOYNA-N
Ontology: Flavonoid-7-O-glycosides
COLLISIONENERGY: 30
FORMULA: C33H40O15
RETENTIONTIME: 5.426533
IONMODE: Negative
Comment: registered in RIKEN PlaSMA
Num Peaks: 17
340.05923	5
366.10437	31
367.11887	1000
368.12152	166
368.13135	54
369.13031	15
389.1424	9
391.10181	6
409.12851	111
410.12192	9
410.14401	17
513.17706	911
514.1792	280
515.16046	5
515.18329	35
529.17017	54
530.17725	10

NAME: Swertiamarin
PRECURSORMZ: 373.1140204
PRECURSORTYPE: [M-H]-
INSTRUMENTTYPE: LC-ESI-QTOF
SMILES: OCC1OC(OC2OC=C3C(=O)OCCC3(O)C2C=C)C(O)C(O)C1O
INCHIKEY: HEYZWPRKKUGDCR-UHFFFAOYNA-N
Ontology: O-glycosyl compounds
COLLISIONENERGY: 50
FORMULA: C16H22O10
RETENTIONTIME: 3.1978
IONMODE: Negative
Comment: registered in RIKEN PlaSMA
Num Peaks: 2
93.03075	833
143.02019	1000

NAME: Swertiamarin
PRECURSORMZ: 419.119499704
PRECURSORTYPE: [M+FA-H]-
INSTRUMENTTYPE: LC-ESI-QTOF
SMILES: OCC1OC(OC2OC=C3C(=O)OCCC3(O)C2C=C)C(O)C(O)C1O
INCHIKEY: HEYZWPRKKUGDCR-UHFFFAOYNA-N
Ontology: O-glycosyl compounds
COLLISIONENERGY: 50
FORMULA: C16H22O10
RETENTIONTIME: 3.1978
IONMODE: Negative
Comment: registered in RIKEN PlaSMA
Num Peaks: 11
59.01064	143
59.01546	180
60.01725	150
61.26069	150
71.01289	1000
73.02907	180
89.02611	376
97.03004	158
101.01544	158
141.01756	586
141.02754	135

NAME: Icariin
PRECURSORMZ: 721.234923404
PRECURSORTYPE: [M+FA-H]-
INSTRUMENTTYPE: LC-ESI-QTOF
SMILES: COC1=CC=C(C=C1)C1=C(OC2OC(C)C(O)C(O)C2O)C(=O)C2=C(O1)C(CC=C(C)C)=C(OC1OC(CO)C(O)C(O)C1O)C=C2O
INCHIKEY: TZJALUIVHRYQQB-UHFFFAOYNA-N
Ontology: Flavonoid-7-O-glycosides
COLLISIONENERGY: 50
FORMULA: C33H40O15
RETENTIONTIME: 5.426533
IONMODE: Negative
Comment: registered in RIKEN PlaSMA
Num Peaks: 39
188.07899	6
217.04044	5
223.04413	6
241.04688	6
295.05536	6
297.03647	58
297.05148	10
298.03296	5
298.04337	20
305.07568	6
305.08704	6
309.03891	72
309.06412	6
309.11267	6
310.03799	13
311.05728	24
312.05624	8
312.07104	5
323.05615	41
323.08539	21
323.09573	23
324.09991	14
337.11285	9
338.11703	8
348.10501	6
351.07254	15
351.08942	115
352.09427	192
353.08377	12
353.09604	15
353.11603	5
365.09775	12
366.10956	219
367.11789	1000
368.12122	123
369.11932	34
394.11871	6
513.17389	22
513.19482	9

NAME: Swertiamarin
PRECURSORMZ: 373.1140204
PRECURSORTYPE: [M-H]-
INSTRUMENTTYPE: LC-ESI-QTOF
SMILES: OCC1OC(OC2OC=C3C(=O)OCCC3(O)C2C=C)C(O)C(O)C1O
INCHIKEY: HEYZWPRKKUGDCR-UHFFFAOYNA-N
Ontology: O-glycosyl compounds
COLLISIONENERGY: 10
FORMULA: C16H22O10
RETENTIONTIME: 3.1978
IONMODE: Negative
Comment: registered in RIKEN PlaSMA
Num Peaks: 5
71.0118	450
89.02522	1000
97.02814	625
141.0218	450
143.03336	450

NAME: Swertiamarin
PRECURSORMZ: 419.119499704
PRECURSORTYPE: [M+FA-H]-
INSTRUMENTTYPE: LC-ESI-QTOF
SMILES: OCC1OC(OC2OC=C3C(=O)OCCC3(O)C2C=C)C(O)C(O)C1O
INCHIKEY: HEYZWPRKKUGDCR-UHFFFAOYNA-N
Ontology: O-glycosyl compounds
COLLISIONENERGY: 10
FORMULA: C16H22O10
RETENTIONTIME: 3.1978
IONMODE: Negative
Comment: registered in RIKEN PlaSMA
Num Peaks: 45
59.01027	8
59.01654	12
71.01193	37
85.03016	8
87.01177	13
87.04407	8
89.02322	265
95.01278	7
97.0328	10
101.02398	33
101.03139	14
113.02336	68
119.03422	143
131.03336	13
141.01791	196
142.02155	15
143.03035	24
143.03682	19
143.04382	8
144.04256	12
147.04034	8
149.04037	18
149.05887	8
149.06474	7
154.27499	7
161.04494	80
161.05789	17
161.87761	9
163.04932	11
175.04346	9
179.05498	1000
180.05103	7
180.06145	8
181.05365	8
181.06171	10
211.0641	8
212.0713	8
235.06044	8
266.75742	10
355.10223	15
356.09641	7
373.10669	33
375.48792	8
418.94757	8
419.11749	245

NAME: Swertiamarin
PRECURSORMZ: 373.1140204
PRECURSORTYPE: [M-H]-
INSTRUMENTTYPE: LC-ESI-QTOF
SMILES: OCC1OC(OC2OC=C3C(=O)OCCC3(O)C2C=C)C(O)C(O)C1O
INCHIKEY: HEYZWPRKKUGDCR-UHFFFAOYNA-N
Ontology: O-glycosyl compounds
COLLISIONENERGY: 10
FORMULA: C16H22O10
RETENTIONTIME: 3.1978
IONMODE: Negative
Comment: registered in RIKEN PlaSMA
Num Peaks: 14
89.02168	329
101.02119	130
113.02428	137
119.03316	247
143.03476	158
149.0468	178
149.06415	240
150.06046	137
161.05634	151
179.05458	1000
193.04575	130
195.06033	151
211.06017	164
355.11392	171

NAME: Swertiamarin
PRECURSORMZ: 419.119499704
PRECURSORTYPE: [M+FA-H]-
INSTRUMENTTYPE: LC-ESI-QTOF
SMILES: OCC1OC(OC2OC=C3C(=O)OCCC3(O)C2C=C)C(O)C(O)C1O
INCHIKEY: HEYZWPRKKUGDCR-UHFFFAOYNA-N
Ontology: O-glycosyl compounds
COLLISIONENERGY: 10
FORMULA: C16H22O10
RETENTIONTIME: 3.1978
IONMODE: Negative
Comment: registered in RIKEN PlaSMA
Num Peaks: 22
89.0234	17
101.02224	6
113.02283	11
113.02971	8
119.03471	36
131.03064	10
141.01453	33
141.02385	20
142.01746	6
143.03706	6
150.04784	5
161.04459	45
179.05495	1000
180.05888	70
181.05389	8
211.05894	14
265.06604	6
266.07587	6
355.09305	8
355.10611	23
373.11386	33
419.11703	582

NAME: Icariin
PRECURSORMZ: 721.234923404
PRECURSORTYPE: [M+FA-H]-
INSTRUMENTTYPE: LC-ESI-QTOF
SMILES: COC1=CC=C(C=C1)C1=C(OC2OC(C)C(O)C(O)C2O)C(=O)C2=C(O1)C(CC=C(C)C)=C(OC1OC(CO)C(O)C(O)C1O)C=C2O
INCHIKEY: TZJALUIVHRYQQB-UHFFFAOYNA-N
Ontology: Flavonoid-7-O-glycosides
COLLISIONENERGY: 10
FORMULA: C33H40O15
RETENTIONTIME: 5.426533
IONMODE: Negative
Comment: registered in RIKEN PlaSMA
Num Peaks: 10
513.17603	557
514.1795	115
515.18463	39
516.19678	9
529.17297	34
530.16498	6
555.18243	10
597.19348	9
675.23346	10
721.23462	1000

NAME: Swertiamarin
PRECURSORMZ: 373.1140204
PRECURSORTYPE: [M-H]-
INSTRUMENTTYPE: LC-ESI-QTOF
SMILES: OCC1OC(OC2OC=C3C(=O)OCCC3(O)C2C=C)C(O)C(O)C1O
INCHIKEY: HEYZWPRKKUGDCR-UHFFFAOYNA-N
Ontology: O-glycosyl compounds
COLLISIONENERGY: 30
FORMULA: C16H22O10
RETENTIONTIME: 3.1978
IONMODE: Negative
Comment: registered in RIKEN PlaSMA
Num Peaks: 3
71.01019	556
92.05685	528
141.01753	1000

NAME: Swertiamarin
PRECURSORMZ: 419.119499704
PRECURSORTYPE: [M+FA-H]-
INSTRUMENTTYPE: LC-ESI-QTOF
SMILES: OCC1OC(OC2OC=C3C(=O)OCCC3(O)C2C=C)C(O)C(O)C1O
INCHIKEY: HEYZWPRKKUGDCR-UHFFFAOYNA-N
Ontology: O-glycosyl compounds
COLLISIONENERGY: 30
FORMULA: C16H22O10
RETENTIONTIME: 3.1978
IONMODE: Negative
Comment: registered in RIKEN PlaSMA
Num Peaks: 30
59.01113	78
59.01647	43
59.05335	28
68.99168	22
71.01325	274
83.01234	23
85.02964	72
85.5386	24
87.01015	23
89.0248	357
90.02225	26
95.01004	22
96.55024	24
97.02568	26
101.02323	256
101.02766	107
104.27876	30
113.01456	22
113.02355	118
115.0304	24
115.04089	26
119.03306	299
122.06563	28
132.0329	29
141.01785	1000
142.01904	26
149.05853	122
157.06818	22
165.05962	24
203.06419	23

NAME: Swertiamarin
PRECURSORMZ: 373.1140204
PRECURSORTYPE: [M-H]-
INSTRUMENTTYPE: LC-ESI-QTOF
SMILES: OCC1OC(OC2OC=C3C(=O)OCCC3(O)C2C=C)C(O)C(O)C1O
INCHIKEY: HEYZWPRKKUGDCR-UHFFFAOYNA-N
Ontology: O-glycosyl compounds
COLLISIONENERGY: 50
FORMULA: C16H22O10
RETENTIONTIME: 3.1978
IONMODE: Negative
Comment: registered in RIKEN PlaSMA
Num Peaks: 1
141.0179	1000

NAME: Swertiamarin
PRECURSORMZ: 419.119499704
PRECURSORTYPE: [M+FA-H]-
INSTRUMENTTYPE: LC-ESI-QTOF
SMILES: OCC1OC(OC2OC=C3C(=O)OCCC3(O)C2C=C)C(O)C(O)C1O
INCHIKEY: HEYZWPRKKUGDCR-UHFFFAOYNA-N
Ontology: O-glycosyl compounds
COLLISIONENERGY: 50
FORMULA: C16H22O10
RETENTIONTIME: 3.1978
IONMODE: Negative
Comment: registered in RIKEN PlaSMA
Num Peaks: 18
59.01097	437
59.01655	165
68.99577	175
69.00146	194
69.02909	252
71.00654	272
71.01228	350
85.03031	175
89.02394	175
90.12961	194
93.03014	262
111.01351	204
119.03497	223
127.05965	184
141.01836	1000
141.02783	155
142.02251	184
191.02347	175

NAME: Icariin
PRECURSORMZ: 721.234923404
PRECURSORTYPE: [M+FA-H]-
INSTRUMENTTYPE: LC-ESI-QTOF
SMILES: COC1=CC=C(C=C1)C1=C(OC2OC(C)C(O)C(O)C2O)C(=O)C2=C(O1)C(CC=C(C)C)=C(OC1OC(CO)C(O)C(O)C1O)C=C2O
INCHIKEY: TZJALUIVHRYQQB-UHFFFAOYNA-N
Ontology: Flavonoid-7-O-glycosides
COLLISIONENERGY: 50
FORMULA: C33H40O15
RETENTIONTIME: 5.426533
IONMODE: Negative
Comment: registered in RIKEN PlaSMA
Num Peaks: 38
187.06857	6
187.07826	7
217.04573	7
231.07571	7
265.05032	9
268.03787	6
279.0986	8
293.11859	6
296.02997	6
296.06052	8
297.04187	58
299.03561	6
305.07965	23
309.03741	82
310.04684	15
311.05545	27
312.05276	7
312.06729	16
323.05746	37
323.09106	39
323.11386	7
324.08105	6
324.10153	17
338.11166	12
340.05817	6
351.08575	150
352.09406	164
353.09372	39
353.10464	18
354.10162	6
365.11508	6
366.112	228
367.07141	6
367.11795	1000
368.12042	212
369.12698	18
394.09491	5
513.18787	8

NAME: Cyanidin 3-(2G-glucosylrutinoside)
PRECURSORMZ: 755.20346861576
PRECURSORTYPE: [M-2H]-
INSTRUMENTTYPE: LC-ESI-QTOF
SMILES: CC1OC(OCC2OC(OC3=C([O+]=C4C=C(O)C=C(O)C4=C3)C3=CC(O)=C(O)C=C3)C(OC3OC(CO)C(O)C(O)C3O)C(O)C2O)C(O)C(O)C1O
INCHIKEY: MSUVUDCULKNUJL-UHFFFAOYNA-O
Ontology: Anthocyanidin-3-O-glycosides
COLLISIONENERGY: 10
FORMULA: C33H41O20
RETENTIONTIME: 2.745867
IONMODE: Negative
Comment: registered in RIKEN PlaSMA
Num Peaks: 38
140.15346	6
142.40849	5
205.53935	7
212.04907	8
214.05489	6
221.0686	5
231.7888	6
239.03697	5
240.04449	7
257.04425	8
258.04669	6
283.0296	8
284.03046	276
285.03995	39
286.04657	5
287.04254	6
295.05786	7
309.03659	8
311.06857	7
313.03799	5
339.04892	107
340.0463	18
340.06531	5
340.07565	5
341.05609	7
351.0535	17
370.65903	5
400.66327	6
467.12891	7
468.29819	9
484.57697	8
508.24808	12
535.25653	6
573.33917	6
604.37598	6
619.16821	5
755.15741	6
755.20306	1000

NAME: Corosolic acid
PRECURSORMZ: 471.34798354783
PRECURSORTYPE: [M-H]-
INSTRUMENTTYPE: LC-ESI-QTOF
SMILES: CC1CCC2(CCC3(C)C(=CCC4C5(C)CC(O)C(O)C(C)(C)C5CCC34C)C2C1C)C(O)=O
INCHIKEY: HFGSQOYIOKBQOW-UHFFFAOYNA-N
Ontology: Triterpenoids
COLLISIONENERGY: 10
FORMULA: C30H48O4
RETENTIONTIME: 9.8846
IONMODE: Negative
Comment: registered in RIKEN PlaSMA
Num Peaks: 5
196.13573	5
407.32126	6
471.30518	6
471.34604	1000
471.40079	6

NAME: Cyanidin 3-(2G-glucosylrutinoside)
PRECURSORMZ: 755.20346861576
PRECURSORTYPE: [M-2H]-
INSTRUMENTTYPE: LC-ESI-QTOF
SMILES: CC1OC(OCC2OC(OC3=C([O+]=C4C=C(O)C=C(O)C4=C3)C3=CC(O)=C(O)C=C3)C(OC3OC(CO)C(O)C(O)C3O)C(O)C2O)C(O)C(O)C1O
INCHIKEY: MSUVUDCULKNUJL-UHFFFAOYNA-O
Ontology: Anthocyanidin-3-O-glycosides
COLLISIONENERGY: 10
FORMULA: C33H41O20
RETENTIONTIME: 2.745867
IONMODE: Negative
Comment: registered in RIKEN PlaSMA
Num Peaks: 2
576.12665	5
755.20428	1000

NAME: Cyanidin 3-(2G-glucosylrutinoside)
PRECURSORMZ: 755.20346861576
PRECURSORTYPE: [M-2H]-
INSTRUMENTTYPE: LC-ESI-QTOF
SMILES: CC1OC(OCC2OC(OC3=C([O+]=C4C=C(O)C=C(O)C4=C3)C3=CC(O)=C(O)C=C3)C(OC3OC(CO)C(O)C(O)C3O)C(O)C2O)C(O)C(O)C1O
INCHIKEY: MSUVUDCULKNUJL-UHFFFAOYNA-O
Ontology: Anthocyanidin-3-O-glycosides
COLLISIONENERGY: 30
FORMULA: C33H41O20
RETENTIONTIME: 2.745867
IONMODE: Negative
Comment: registered in RIKEN PlaSMA
Num Peaks: 38
125.02245	15
146.0873	14
164.00838	14
202.02797	12
215.72784	18
283.02167	41
284.03162	827
285.03757	261
286.03885	40
295.03995	11
309.02591	15
309.0434	46
309.46344	11
310.05447	11
311.48328	12
322.0556	11
322.07013	12
327.04141	15
330.75824	11
339.05032	538
340.05695	49
341.06329	14
351.04575	22
352.06702	12
411.06125	11
411.08093	14
489.0943	11
489.1098	15
490.11276	12
541.66174	14
575.13593	11
575.16888	15
594.14526	12
595.19373	12
604.04791	11
671.065	11
754.76111	12
755.20209	1000

NAME: Corosolic acid
PRECURSORMZ: 471.34798354783
PRECURSORTYPE: [M-H]-
INSTRUMENTTYPE: LC-ESI-QTOF
SMILES: CC1CCC2(CCC3(C)C(=CCC4C5(C)CC(O)C(O)C(C)(C)C5CCC34C)C2C1C)C(O)=O
INCHIKEY: HFGSQOYIOKBQOW-UHFFFAOYNA-N
Ontology: Triterpenoids
COLLISIONENERGY: 30
FORMULA: C30H48O4
RETENTIONTIME: 9.8846
IONMODE: Negative
Comment: registered in RIKEN PlaSMA
Num Peaks: 4
135.55386	7
273.38339	6
423.33862	12
471.34506	1000

NAME: Cyanidin 3-(2G-glucosylrutinoside)
PRECURSORMZ: 755.20346861576
PRECURSORTYPE: [M-2H]-
INSTRUMENTTYPE: LC-ESI-QTOF
SMILES: CC1OC(OCC2OC(OC3=C([O+]=C4C=C(O)C=C(O)C4=C3)C3=CC(O)=C(O)C=C3)C(OC3OC(CO)C(O)C(O)C3O)C(O)C2O)C(O)C(O)C1O
INCHIKEY: MSUVUDCULKNUJL-UHFFFAOYNA-O
Ontology: Anthocyanidin-3-O-glycosides
COLLISIONENERGY: 50
FORMULA: C33H41O20
RETENTIONTIME: 2.745867
IONMODE: Negative
Comment: registered in RIKEN PlaSMA
Num Peaks: 63
108.01663	16
121.02416	6
125.0222	7
126.02434	8
147.01047	16
148.01222	7
149.04445	10
156.3956	6
163.00681	6
181.0632	8
184.05107	6
189.01572	13
190.02156	7
190.03119	6
197.05089	8
211.03424	6
212.04446	17
212.05893	6
213.03828	7
215.02798	7
217.04541	7
218.01686	7
222.02873	6
227.02553	6
227.03833	18
228.0424	6
228.04985	6
230.01149	6
239.00038	6
239.02727	12
240.04225	22
240.05232	7
241.01141	6
242.01654	6
254.06435	6
255.02686	19
255.03813	7
256.02393	8
256.03766	22
257.0498	6
262.05841	6
265.04468	6
267.03015	19
277.61661	16
283.02383	95
283.05515	6
284.0322	1000
285.01004	6
285.03198	96
285.04248	93
286.03049	22
286.04474	6
288.02817	7
308.03577	9
309.03726	6
309.05161	6
311.05792	46
312.04581	10
334.78195	7
339.04269	10
339.05698	27
340.04968	6
351.07657	6

NAME: Corosolic acid
PRECURSORMZ: 471.34798354783
PRECURSORTYPE: [M-H]-
INSTRUMENTTYPE: LC-ESI-QTOF
SMILES: CC1CCC2(CCC3(C)C(=CCC4C5(C)CC(O)C(O)C(C)(C)C5CCC34C)C2C1C)C(O)=O
INCHIKEY: HFGSQOYIOKBQOW-UHFFFAOYNA-N
Ontology: Triterpenoids
COLLISIONENERGY: 50
FORMULA: C30H48O4
RETENTIONTIME: 9.8846
IONMODE: Negative
Comment: registered in RIKEN PlaSMA
Num Peaks: 6
100.0536	397
341.22665	286
377.28543	286
393.33685	317
471.34052	286
471.35828	1000

NAME: Corosolic acid
PRECURSORMZ: 517.35346285183
PRECURSORTYPE: [M+FA-H]-
INSTRUMENTTYPE: LC-ESI-QTOF
SMILES: CC1CCC2(CCC3(C)C(=CCC4C5(C)CC(O)C(O)C(C)(C)C5CCC34C)C2C1C)C(O)=O
INCHIKEY: HFGSQOYIOKBQOW-UHFFFAOYNA-N
Ontology: Triterpenoids
COLLISIONENERGY: 50
FORMULA: C30H48O4
RETENTIONTIME: 9.8846
IONMODE: Negative
Comment: registered in RIKEN PlaSMA
Num Peaks: 2
407.30127	152
471.34991	1000

NAME: Cyanidin 3-(2G-glucosylrutinoside)
PRECURSORMZ: 755.20346861576
PRECURSORTYPE: [M-2H]-
INSTRUMENTTYPE: LC-ESI-QTOF
SMILES: CC1OC(OCC2OC(OC3=C([O+]=C4C=C(O)C=C(O)C4=C3)C3=CC(O)=C(O)C=C3)C(OC3OC(CO)C(O)C(O)C3O)C(O)C2O)C(O)C(O)C1O
INCHIKEY: MSUVUDCULKNUJL-UHFFFAOYNA-O
Ontology: Anthocyanidin-3-O-glycosides
COLLISIONENERGY: 10
FORMULA: C33H41O20
RETENTIONTIME: 2.745867
IONMODE: Negative
Comment: registered in RIKEN PlaSMA
Num Peaks: 24
67.92555	5
214.28369	5
240.03137	5
283.00391	7
283.03241	6
284.01935	57
284.02957	206
285.03696	65
286.02957	6
286.05243	5
288.04773	7
309.03391	12
310.04736	11
310.05923	5
328.05182	5
339.04843	52
340.05667	26
340.07663	5
341.03448	5
406.56586	7
457.45224	6
661.172	7
754.14026	6
755.20221	1000

NAME: Corosolic acid
PRECURSORMZ: 471.34798354783
PRECURSORTYPE: [M-H]-
INSTRUMENTTYPE: LC-ESI-QTOF
SMILES: CC1CCC2(CCC3(C)C(=CCC4C5(C)CC(O)C(O)C(C)(C)C5CCC34C)C2C1C)C(O)=O
INCHIKEY: HFGSQOYIOKBQOW-UHFFFAOYNA-N
Ontology: Triterpenoids
COLLISIONENERGY: 10
FORMULA: C30H48O4
RETENTIONTIME: 9.8846
IONMODE: Negative
Comment: registered in RIKEN PlaSMA
Num Peaks: 5
354.3522	6
376.18988	6
393.31384	5
463.87491	7
471.34775	1000

NAME: Cyanidin 3-(2G-glucosylrutinoside)
PRECURSORMZ: 755.20346861576
PRECURSORTYPE: [M-2H]-
INSTRUMENTTYPE: LC-ESI-QTOF
SMILES: CC1OC(OCC2OC(OC3=C([O+]=C4C=C(O)C=C(O)C4=C3)C3=CC(O)=C(O)C=C3)C(OC3OC(CO)C(O)C(O)C3O)C(O)C2O)C(O)C(O)C1O
INCHIKEY: MSUVUDCULKNUJL-UHFFFAOYNA-O
Ontology: Anthocyanidin-3-O-glycosides
COLLISIONENERGY: 30
FORMULA: C33H41O20
RETENTIONTIME: 2.745867
IONMODE: Negative
Comment: registered in RIKEN PlaSMA
Num Peaks: 46
109.03012	11
111.08427	11
111.22849	13
147.9933	11
149.02655	11
163.00247	10
212.04202	10
217.04549	11
219.11447	11
269.04352	11
283.01505	12
283.03131	32
283.93854	13
284.03262	1000
285.04095	191
295.0239	16
297.03537	10
309.03119	38
309.04456	76
310.04257	12
311.05679	42
312.05954	11
326.48981	12
339.04996	673
340.04694	36
340.06073	73
341.06171	16
351.05411	13
352.05881	11
370.70847	11
447.08716	11
467.21579	20
469.16638	13
472.80905	12
489.09637	11
489.11276	11
491.11575	12
518.14856	13
527.0722	10
575.11969	13
575.14087	21
576.12329	15
576.15326	13
645.17365	12
660.02258	10
755.20392	841

NAME: Corosolic acid
PRECURSORMZ: 471.34798354783
PRECURSORTYPE: [M-H]-
INSTRUMENTTYPE: LC-ESI-QTOF
SMILES: CC1CCC2(CCC3(C)C(=CCC4C5(C)CC(O)C(O)C(C)(C)C5CCC34C)C2C1C)C(O)=O
INCHIKEY: HFGSQOYIOKBQOW-UHFFFAOYNA-N
Ontology: Triterpenoids
COLLISIONENERGY: 30
FORMULA: C30H48O4
RETENTIONTIME: 9.8846
IONMODE: Negative
Comment: registered in RIKEN PlaSMA
Num Peaks: 8
258.0116	8
419.32632	6
423.31583	6
426.3429	5
471.30872	5
471.34647	1000
471.38751	11
471.4241	7

NAME: Cyanidin 3-(2G-glucosylrutinoside)
PRECURSORMZ: 755.20346861576
PRECURSORTYPE: [M-2H]-
INSTRUMENTTYPE: LC-ESI-QTOF
SMILES: CC1OC(OCC2OC(OC3=C([O+]=C4C=C(O)C=C(O)C4=C3)C3=CC(O)=C(O)C=C3)C(OC3OC(CO)C(O)C(O)C3O)C(O)C2O)C(O)C(O)C1O
INCHIKEY: MSUVUDCULKNUJL-UHFFFAOYNA-O
Ontology: Anthocyanidin-3-O-glycosides
COLLISIONENERGY: 50
FORMULA: C33H41O20
RETENTIONTIME: 2.745867
IONMODE: Negative
Comment: registered in RIKEN PlaSMA
Num Peaks: 80
66.43137	5
89.02268	10
108.0193	13
121.0307	7
125.02225	12
127.92245	7
147.00146	7
147.01143	6
148.01706	32
149.01561	5
150.01819	7
164.00441	5
166.02261	6
170.03679	5
173.0161	5
177.01419	5
177.07785	9
180.61951	6
184.03847	6
186.06407	7
187.04478	6
189.02052	7
199.03946	16
200.00464	7
200.01306	7
200.05049	6
211.03908	6
214.03186	5
216.0511	6
224.03571	10
227.02541	5
228.03166	6
228.04477	11
230.03058	10
231.0271	7
238.0177	5
239.03397	6
240.03784	33
241.01834	5
241.05809	7
249.06059	6
253.05106	7
254.01671	6
255.02281	33
255.03679	24
255.9724	6
256.0354	42
256.05313	13
256.25131	5
257.04077	12
257.54895	5
258.03958	12
263.07278	5
265.05417	6
267.02859	6
267.07474	5
275.0285	5
281.04572	6
281.16156	5
283.02396	84
283.03915	11
283.89664	7
284.03156	1000
285.03513	203
286.02591	7
286.04297	9
286.05222	13
287.03571	7
293.05231	7
297.04956	6
299.05853	6
305.06064	6
309.05203	13
310.03836	5
311.04272	12
311.05612	24
323.05115	6
334.02298	5
339.03845	7
339.05499	15

NAME: Corosolic acid
PRECURSORMZ: 471.34798354783
PRECURSORTYPE: [M-H]-
INSTRUMENTTYPE: LC-ESI-QTOF
SMILES: CC1CCC2(CCC3(C)C(=CCC4C5(C)CC(O)C(O)C(C)(C)C5CCC34C)C2C1C)C(O)=O
INCHIKEY: HFGSQOYIOKBQOW-UHFFFAOYNA-N
Ontology: Triterpenoids
COLLISIONENERGY: 50
FORMULA: C30H48O4
RETENTIONTIME: 9.8846
IONMODE: Negative
Comment: registered in RIKEN PlaSMA
Num Peaks: 5
73.03016	293
197.12997	240
377.28018	267
382.3028	293
471.35834	1000

NAME: Cyanidin 3-(2G-glucosylrutinoside)
PRECURSORMZ: 755.20346861576
PRECURSORTYPE: [M-2H]-
INSTRUMENTTYPE: LC-ESI-QTOF
SMILES: CC1OC(OCC2OC(OC3=C([O+]=C4C=C(O)C=C(O)C4=C3)C3=CC(O)=C(O)C=C3)C(OC3OC(CO)C(O)C(O)C3O)C(O)C2O)C(O)C(O)C1O
INCHIKEY: MSUVUDCULKNUJL-UHFFFAOYNA-O
Ontology: Anthocyanidin-3-O-glycosides
COLLISIONENERGY: 10
FORMULA: C33H41O20
RETENTIONTIME: 2.745867
IONMODE: Negative
Comment: registered in RIKEN PlaSMA
Num Peaks: 24
217.02058	5
230.02167	7
240.04196	6
275.06204	5
280.04251	5
283.02798	12
284.03159	313
284.06128	5
285.00726	5
285.03253	38
285.04181	15
286.02625	7
286.03818	21
309.03369	7
309.0564	8
310.05029	6
325.03363	5
325.05078	6
339.04022	30
339.04996	78
407.84521	5
489.1163	6
591.4007	7
755.20178	1000

NAME: Corosolic acid
PRECURSORMZ: 471.34798354783
PRECURSORTYPE: [M-H]-
INSTRUMENTTYPE: LC-ESI-QTOF
SMILES: CC1CCC2(CCC3(C)C(=CCC4C5(C)CC(O)C(O)C(C)(C)C5CCC34C)C2C1C)C(O)=O
INCHIKEY: HFGSQOYIOKBQOW-UHFFFAOYNA-N
Ontology: Triterpenoids
COLLISIONENERGY: 10
FORMULA: C30H48O4
RETENTIONTIME: 9.8846
IONMODE: Negative
Comment: registered in RIKEN PlaSMA
Num Peaks: 4
307.53467	5
319.46692	5
393.32779	5
471.34833	1000

NAME: Cyanidin 3-(2G-glucosylrutinoside)
PRECURSORMZ: 755.20346861576
PRECURSORTYPE: [M-2H]-
INSTRUMENTTYPE: LC-ESI-QTOF
SMILES: CC1OC(OCC2OC(OC3=C([O+]=C4C=C(O)C=C(O)C4=C3)C3=CC(O)=C(O)C=C3)C(OC3OC(CO)C(O)C(O)C3O)C(O)C2O)C(O)C(O)C1O
INCHIKEY: MSUVUDCULKNUJL-UHFFFAOYNA-O
Ontology: Anthocyanidin-3-O-glycosides
COLLISIONENERGY: 10
FORMULA: C33H41O20
RETENTIONTIME: 2.745867
IONMODE: Negative
Comment: registered in RIKEN PlaSMA
Num Peaks: 3
549.83862	6
615.90881	5
755.20575	1000

NAME: Corosolic acid
PRECURSORMZ: 471.34798354783
PRECURSORTYPE: [M-H]-
INSTRUMENTTYPE: LC-ESI-QTOF
SMILES: CC1CCC2(CCC3(C)C(=CCC4C5(C)CC(O)C(O)C(C)(C)C5CCC34C)C2C1C)C(O)=O
INCHIKEY: HFGSQOYIOKBQOW-UHFFFAOYNA-N
Ontology: Triterpenoids
COLLISIONENERGY: 10
FORMULA: C30H48O4
RETENTIONTIME: 9.8846
IONMODE: Negative
Comment: registered in RIKEN PlaSMA
Num Peaks: 2
266.67633	5
471.34586	1000

NAME: Corosolic acid
PRECURSORMZ: 517.35346285183
PRECURSORTYPE: [M+FA-H]-
INSTRUMENTTYPE: LC-ESI-QTOF
SMILES: CC1CCC2(CCC3(C)C(=CCC4C5(C)CC(O)C(O)C(C)(C)C5CCC34C)C2C1C)C(O)=O
INCHIKEY: HFGSQOYIOKBQOW-UHFFFAOYNA-N
Ontology: Triterpenoids
COLLISIONENERGY: 10
FORMULA: C30H48O4
RETENTIONTIME: 9.8846
IONMODE: Negative
Comment: registered in RIKEN PlaSMA
Num Peaks: 5
471.34753	1000
472.3212	35
472.35678	263
473.34567	35
517.34601	33

NAME: Cyanidin 3-(2G-glucosylrutinoside)
PRECURSORMZ: 755.20346861576
PRECURSORTYPE: [M-2H]-
INSTRUMENTTYPE: LC-ESI-QTOF
SMILES: CC1OC(OCC2OC(OC3=C([O+]=C4C=C(O)C=C(O)C4=C3)C3=CC(O)=C(O)C=C3)C(OC3OC(CO)C(O)C(O)C3O)C(O)C2O)C(O)C(O)C1O
INCHIKEY: MSUVUDCULKNUJL-UHFFFAOYNA-O
Ontology: Anthocyanidin-3-O-glycosides
COLLISIONENERGY: 30
FORMULA: C33H41O20
RETENTIONTIME: 2.745867
IONMODE: Negative
Comment: registered in RIKEN PlaSMA
Num Peaks: 34
120.18526	11
183.01573	20
283.02286	22
284.03122	747
285.04187	156
286.0416	57
287.03116	10
300.056	12
303.88132	11
308.02283	12
309.04367	164
311.05573	11
311.07211	15
339.00204	23
339.05127	456
340.03998	32
340.05948	63
341.05151	11
392.83804	11
456.64285	17
489.09125	22
489.1134	10
496.00662	10
496.83511	13
557.13226	10
576.133	13
593.17029	11
594.14398	11
595.17902	12
633.15369	11
693.00104	10
754.41736	10
755.20721	1000
755.25336	18

NAME: Corosolic acid
PRECURSORMZ: 471.34798354783
PRECURSORTYPE: [M-H]-
INSTRUMENTTYPE: LC-ESI-QTOF
SMILES: CC1CCC2(CCC3(C)C(=CCC4C5(C)CC(O)C(O)C(C)(C)C5CCC34C)C2C1C)C(O)=O
INCHIKEY: HFGSQOYIOKBQOW-UHFFFAOYNA-N
Ontology: Triterpenoids
COLLISIONENERGY: 30
FORMULA: C30H48O4
RETENTIONTIME: 9.8846
IONMODE: Negative
Comment: registered in RIKEN PlaSMA
Num Peaks: 5
86.45727	6
252.26793	7
394.32227	6
471.34827	1000
471.38535	8

NAME: Cyanidin 3-(2G-glucosylrutinoside)
PRECURSORMZ: 755.20346861576
PRECURSORTYPE: [M-2H]-
INSTRUMENTTYPE: LC-ESI-QTOF
SMILES: CC1OC(OCC2OC(OC3=C([O+]=C4C=C(O)C=C(O)C4=C3)C3=CC(O)=C(O)C=C3)C(OC3OC(CO)C(O)C(O)C3O)C(O)C2O)C(O)C(O)C1O
INCHIKEY: MSUVUDCULKNUJL-UHFFFAOYNA-O
Ontology: Anthocyanidin-3-O-glycosides
COLLISIONENERGY: 50
FORMULA: C33H41O20
RETENTIONTIME: 2.745867
IONMODE: Negative
Comment: registered in RIKEN PlaSMA
Num Peaks: 67
75.72031	7
104.02817	9
109.02796	6
129.03491	6
136.01773	6
146.03659	6
147.00865	7
148.01826	10
157.02232	7
158.03928	7
179.04274	6
187.03876	7
188.04582	7
189.02301	15
200.01254	10
211.03554	7
211.05034	14
212.04097	7
212.28758	10
214.03275	12
214.98985	6
216.03419	8
219.99667	8
227.02571	7
228.03313	8
229.0011	7
229.0246	10
229.03389	6
230.02858	6
239.03593	6
240.01566	8
240.04503	26
241.05548	7
242.01639	7
243.03435	9
255.01796	27
255.03003	32
255.04076	8
256.0307	14
256.04419	7
257.04132	6
267.04755	6
272.06931	6
278.1405	6
283.02927	118
284.03149	1000
284.08304	6
284.80579	8
285.03806	151
285.05399	15
286.03741	21
293.05325	6
296.03329	7
297.0289	6
309.03458	19
309.05084	7
310.04599	7
311.03568	5
311.04556	11
311.06744	20
312.05963	13
325.02319	7
337.05801	8
351.05127	6
352.05682	6
355.04279	6
477.9086	6

NAME: Corosolic acid
PRECURSORMZ: 471.34798354783
PRECURSORTYPE: [M-H]-
INSTRUMENTTYPE: LC-ESI-QTOF
SMILES: CC1CCC2(CCC3(C)C(=CCC4C5(C)CC(O)C(O)C(C)(C)C5CCC34C)C2C1C)C(O)=O
INCHIKEY: HFGSQOYIOKBQOW-UHFFFAOYNA-N
Ontology: Triterpenoids
COLLISIONENERGY: 50
FORMULA: C30H48O4
RETENTIONTIME: 9.8846
IONMODE: Negative
Comment: registered in RIKEN PlaSMA
Num Peaks: 5
221.15819	241
363.27701	217
405.30627	349
425.33374	289
471.34967	1000

NAME: Corosolic acid
PRECURSORMZ: 517.35346285183
PRECURSORTYPE: [M+FA-H]-
INSTRUMENTTYPE: LC-ESI-QTOF
SMILES: CC1CCC2(CCC3(C)C(=CCC4C5(C)CC(O)C(O)C(C)(C)C5CCC34C)C2C1C)C(O)=O
INCHIKEY: HFGSQOYIOKBQOW-UHFFFAOYNA-N
Ontology: Triterpenoids
COLLISIONENERGY: 50
FORMULA: C30H48O4
RETENTIONTIME: 9.8846
IONMODE: Negative
Comment: registered in RIKEN PlaSMA
Num Peaks: 4
470.91406	306
471.3479	1000
471.38058	290
472.36368	355

NAME: Ginkgolide B
PRECURSORMZ: 423.12967054783
PRECURSORTYPE: [M-H]-
INSTRUMENTTYPE: LC-ESI-QTOF
SMILES: CC1C(=O)OC2C(O)C34C5CC(C(C)(C)C)C33C(O)C(=O)OC3OC4(C(=O)O5)C12O
INCHIKEY: SQOJOAFXDQDRGF-UHFFFAOYNA-N
Ontology: Ginkgolides and bilobalides
COLLISIONENERGY: 10
FORMULA: C20H24O10
RETENTIONTIME: 5.343283
IONMODE: Negative
Comment: registered in RIKEN PlaSMA
Num Peaks: 51
69.03618	6
72.98952	18
73.03197	6
113.02342	159
125.02368	242
126.02319	15
126.03035	12
141.01132	5
141.01976	21
147.0403	9
149.05586	13
160.05087	6
179.1033	6
186.96085	6
187.11119	10
204.11366	11
207.09961	6
208.11269	6
209.14563	5
215.14827	17
217.1572	6
219.09296	9
231.13031	11
232.10051	5
232.12125	15
233.15884	6
243.13521	22
243.14995	9
245.12526	6
251.26715	5
254.11021	7
260.099	11
261.15079	30
262.14404	10
263.12555	12
282.09872	6
287.11642	11
288.87024	6
293.14804	5
305.14206	19
307.11713	10
323.16318	7
349.12155	15
349.13812	30
367.13882	1000
368.14105	244
369.1499	27
395.1254	23
395.14719	10
396.1423	6
423.12857	372

NAME: Ginsenoside Ro
PRECURSORMZ: 955.49080374783
PRECURSORTYPE: [M-H]-
INSTRUMENTTYPE: LC-ESI-QTOF
SMILES: CC1(C)CCC2(CCC3(C)C(=CCC4C5(C)CCC(OC6OC(C(O)C(O)C6OC6OC(CO)C(O)C(O)C6O)C(O)=O)C(C)(C)C5CCC34C)C2C1)C(=O)OC1OC(CO)C(O)C(O)C1O
INCHIKEY: NFZYDZXHKFHPGA-UHFFFAOYNA-N
Ontology: Triterpene saponins
COLLISIONENERGY: 10
FORMULA: C48H76O19
RETENTIONTIME: 6.188283
IONMODE: Negative
Comment: registered in RIKEN PlaSMA
Num Peaks: 8
161.04553	5
523.37073	11
731.44727	6
793.43848	34
794.44012	19
795.43848	8
955.48938	1000
955.5578	8

NAME: Saikosaponin a
PRECURSORMZ: 779.45871584783
PRECURSORTYPE: [M-H]-
INSTRUMENTTYPE: LC-ESI-QTOF
SMILES: CC1OC(OC2CCC3(C)C(CCC4(C)C3C=CC35OCC6(CCC(C)(C)CC36)C(O)CC45C)C2(C)CO)C(O)C(OC2OC(CO)C(O)C(O)C2O)C1O
INCHIKEY: KYWSCMDFVARMPN-UHFFFAOYNA-N
Ontology: Triterpene saponins
COLLISIONENERGY: 10
FORMULA: C42H68O13
RETENTIONTIME: 7.132916
IONMODE: Negative
Comment: registered in RIKEN PlaSMA
Num Peaks: 8
101.02531	76
127.03754	34
159.02754	34
161.04645	36
617.40735	118
618.39996	66
665.22308	36
779.4632	1000

NAME: Saikosaponin a
PRECURSORMZ: 825.46419515183
PRECURSORTYPE: [M+FA-H]-
INSTRUMENTTYPE: LC-ESI-QTOF
SMILES: CC1OC(OC2CCC3(C)C(CCC4(C)C3C=CC35OCC6(CCC(C)(C)CC36)C(O)CC45C)C2(C)CO)C(O)C(OC2OC(CO)C(O)C(O)C2O)C1O
INCHIKEY: KYWSCMDFVARMPN-UHFFFAOYNA-N
Ontology: Triterpene saponins
COLLISIONENERGY: 10
FORMULA: C42H68O13
RETENTIONTIME: 7.132916
IONMODE: Negative
Comment: registered in RIKEN PlaSMA
Num Peaks: 13
101.02304	11
143.03696	6
145.04974	14
161.04253	6
617.40552	183
618.41132	42
618.42621	19
779.4563	1000
780.46136	444
781.46222	111
781.53381	6
782.4765	12
825.46283	291

NAME: Maslinic acid
PRECURSORMZ: 471.34798354783
PRECURSORTYPE: [M-H]-
INSTRUMENTTYPE: LC-ESI-QTOF
SMILES: CC1(C)CCC2(CCC3(C)C(=CCC4C5(C)CC(O)C(O)C(C)(C)C5CCC34C)C2C1)C(O)=O
INCHIKEY: MDZKJHQSJHYOHJ-UHFFFAOYNA-N
Ontology: Triterpenoids
COLLISIONENERGY: 10
FORMULA: C30H48O4
RETENTIONTIME: 9.748883
IONMODE: Negative
Comment: registered in RIKEN PlaSMA
Num Peaks: 2
239.43553	6
471.34686	1000

NAME: Ginkgolide B
PRECURSORMZ: 423.12967054783
PRECURSORTYPE: [M-H]-
INSTRUMENTTYPE: LC-ESI-QTOF
SMILES: CC1C(=O)OC2C(O)C34C5CC(C(C)(C)C)C33C(O)C(=O)OC3OC4(C(=O)O5)C12O
INCHIKEY: SQOJOAFXDQDRGF-UHFFFAOYNA-N
Ontology: Ginkgolides and bilobalides
COLLISIONENERGY: 10
FORMULA: C20H24O10
RETENTIONTIME: 5.343283
IONMODE: Negative
Comment: registered in RIKEN PlaSMA
Num Peaks: 10
72.99185	7
207.09875	5
305.12579	6
367.13782	1000
368.14395	167
368.55991	7
369.14877	18
395.13535	123
396.13345	24
423.12808	869

NAME: Ginsenoside Ro
PRECURSORMZ: 955.49080374783
PRECURSORTYPE: [M-H]-
INSTRUMENTTYPE: LC-ESI-QTOF
SMILES: CC1(C)CCC2(CCC3(C)C(=CCC4C5(C)CCC(OC6OC(C(O)C(O)C6OC6OC(CO)C(O)C(O)C6O)C(O)=O)C(C)(C)C5CCC34C)C2C1)C(=O)OC1OC(CO)C(O)C(O)C1O
INCHIKEY: NFZYDZXHKFHPGA-UHFFFAOYNA-N
Ontology: Triterpene saponins
COLLISIONENERGY: 10
FORMULA: C48H76O19
RETENTIONTIME: 6.188283
IONMODE: Negative
Comment: registered in RIKEN PlaSMA
Num Peaks: 3
938.72351	5
955.48907	1000
955.56	11

NAME: Saikosaponin a
PRECURSORMZ: 779.45871584783
PRECURSORTYPE: [M-H]-
INSTRUMENTTYPE: LC-ESI-QTOF
SMILES: CC1OC(OC2CCC3(C)C(CCC4(C)C3C=CC35OCC6(CCC(C)(C)CC36)C(O)CC45C)C2(C)CO)C(O)C(OC2OC(CO)C(O)C(O)C2O)C1O
INCHIKEY: KYWSCMDFVARMPN-UHFFFAOYNA-N
Ontology: Triterpene saponins
COLLISIONENERGY: 10
FORMULA: C42H68O13
RETENTIONTIME: 7.132916
IONMODE: Negative
Comment: registered in RIKEN PlaSMA
Num Peaks: 2
779.4566	1000
779.4892	235

NAME: Saikosaponin a
PRECURSORMZ: 825.46419515183
PRECURSORTYPE: [M+FA-H]-
INSTRUMENTTYPE: LC-ESI-QTOF
SMILES: CC1OC(OC2CCC3(C)C(CCC4(C)C3C=CC35OCC6(CCC(C)(C)CC36)C(O)CC45C)C2(C)CO)C(O)C(OC2OC(CO)C(O)C(O)C2O)C1O
INCHIKEY: KYWSCMDFVARMPN-UHFFFAOYNA-N
Ontology: Triterpene saponins
COLLISIONENERGY: 10
FORMULA: C42H68O13
RETENTIONTIME: 7.132916
IONMODE: Negative
Comment: registered in RIKEN PlaSMA
Num Peaks: 5
779.45654	406
780.45941	200
781.45618	32
825.46167	1000
825.52075	5

NAME: Ginkgolide B
PRECURSORMZ: 423.12967054783
PRECURSORTYPE: [M-H]-
INSTRUMENTTYPE: LC-ESI-QTOF
SMILES: CC1C(=O)OC2C(O)C34C5CC(C(C)(C)C)C33C(O)C(=O)OC3OC4(C(=O)O5)C12O
INCHIKEY: SQOJOAFXDQDRGF-UHFFFAOYNA-N
Ontology: Ginkgolides and bilobalides
COLLISIONENERGY: 30
FORMULA: C20H24O10
RETENTIONTIME: 5.343283
IONMODE: Negative
Comment: registered in RIKEN PlaSMA
Num Peaks: 122
69.03284	6
70.03247	8
72.99234	68
73.02605	24
73.99622	7
87.04287	7
87.04688	7
95.04686	8
97.02912	31
113.02354	684
114.02195	6
114.03145	25
115.02005	13
115.02612	6
122.03338	6
125.02325	1000
126.02261	7
126.02996	26
126.04324	9
127.02882	6
127.04463	20
134.04205	12
135.03821	7
135.11331	7
138.05872	7
139.00389	8
140.9951	8
141.01501	31
141.02193	32
143.0294	14
144.02856	7
147.12282	7
148.05467	7
149.06001	10
151.03653	7
151.11914	6
158.07233	7
161.09453	15
165.05479	42
165.12575	8
174.03325	57
175.03671	43
175.04623	8
175.11382	14
177.05754	10
177.08301	6
177.12025	7
179.10495	7
179.11215	28
180.11003	7
181.12401	18
186.06168	8
188.10834	8
190.13582	6
191.1053	7
193.12543	7
194.12469	7
195.1474	7
198.01805	7
200.11609	8
202.0594	11
203.10583	8
204.11987	27
205.12016	6
205.14949	6
207.11317	7
209.04863	7
209.11055	7
210.12509	7
212.35417	8
215.13826	35
215.1488	19
217.13472	15
219.10814	6
220.09769	7
221.1252	8
225.1105	14
225.12901	7
230.06117	7
231.09296	8
231.10458	23
232.09325	7
232.10928	23
232.14635	6
233.11609	37
233.15016	8
235.15732	9
244.13678	20
246.12381	11
247.13315	7
248.15276	9
249.10951	15
253.10135	9
259.13376	25
259.14865	6
260.14218	14
261.10278	7
261.11765	6
261.13181	6
261.14496	32
261.15494	28
263.12903	6
275.12537	14
275.14093	7
276.1178	6
277.15213	7
287.13232	49
287.15872	6
288.12317	7
288.13461	23
293.13501	14
305.13763	37
306.14026	7
323.15225	6
349.12064	9
349.1326	7
349.14886	7
350.12845	13
367.13229	29
367.15454	7
368.1265	7
368.13593	16

NAME: Ginsenoside Ro
PRECURSORMZ: 955.49080374783
PRECURSORTYPE: [M-H]-
INSTRUMENTTYPE: LC-ESI-QTOF
SMILES: CC1(C)CCC2(CCC3(C)C(=CCC4C5(C)CCC(OC6OC(C(O)C(O)C6OC6OC(CO)C(O)C(O)C6O)C(O)=O)C(C)(C)C5CCC34C)C2C1)C(=O)OC1OC(CO)C(O)C(O)C1O
INCHIKEY: NFZYDZXHKFHPGA-UHFFFAOYNA-N
Ontology: Triterpene saponins
COLLISIONENERGY: 30
FORMULA: C48H76O19
RETENTIONTIME: 6.188283
IONMODE: Negative
Comment: registered in RIKEN PlaSMA
Num Peaks: 5
569.38507	5
775.44525	5
793.44049	43
794.43549	21
955.49152	1000

NAME: Saikosaponin a
PRECURSORMZ: 779.45871584783
PRECURSORTYPE: [M-H]-
INSTRUMENTTYPE: LC-ESI-QTOF
SMILES: CC1OC(OC2CCC3(C)C(CCC4(C)C3C=CC35OCC6(CCC(C)(C)CC36)C(O)CC45C)C2(C)CO)C(O)C(OC2OC(CO)C(O)C(O)C2O)C1O
INCHIKEY: KYWSCMDFVARMPN-UHFFFAOYNA-N
Ontology: Triterpene saponins
COLLISIONENERGY: 30
FORMULA: C42H68O13
RETENTIONTIME: 7.132916
IONMODE: Negative
Comment: registered in RIKEN PlaSMA
Num Peaks: 11
71.01312	53
161.03732	56
161.0452	59
617.39191	439
617.41229	264
617.43518	62
618.40063	315
618.43158	53
619.39105	56
779.41461	122
779.46637	1000

NAME: Saikosaponin a
PRECURSORMZ: 825.46419515183
PRECURSORTYPE: [M+FA-H]-
INSTRUMENTTYPE: LC-ESI-QTOF
SMILES: CC1OC(OC2CCC3(C)C(CCC4(C)C3C=CC35OCC6(CCC(C)(C)CC36)C(O)CC45C)C2(C)CO)C(O)C(OC2OC(CO)C(O)C(O)C2O)C1O
INCHIKEY: KYWSCMDFVARMPN-UHFFFAOYNA-N
Ontology: Triterpene saponins
COLLISIONENERGY: 30
FORMULA: C42H68O13
RETENTIONTIME: 7.132916
IONMODE: Negative
Comment: registered in RIKEN PlaSMA
Num Peaks: 10
101.02543	10
145.05699	6
179.05504	5
617.40948	107
618.40869	41
779.45862	1000
779.53387	5
780.46271	470
781.46283	113
782.46234	23

NAME: Ginkgolide B
PRECURSORMZ: 423.12967054783
PRECURSORTYPE: [M-H]-
INSTRUMENTTYPE: LC-ESI-QTOF
SMILES: CC1C(=O)OC2C(O)C34C5CC(C(C)(C)C)C33C(O)C(=O)OC3OC4(C(=O)O5)C12O
INCHIKEY: SQOJOAFXDQDRGF-UHFFFAOYNA-N
Ontology: Ginkgolides and bilobalides
COLLISIONENERGY: 50
FORMULA: C20H24O10
RETENTIONTIME: 5.343283
IONMODE: Negative
Comment: registered in RIKEN PlaSMA
Num Peaks: 67
57.0304	34
69.0315	266
71.04991	64
72.99287	152
73.02625	36
85.02241	26
85.02843	47
93.03452	26
93.06976	29
95.05029	29
97.02817	305
106.04369	50
107.04636	36
109.02754	54
113.0223	1000
114.02874	32
121.03204	36
121.05671	28
121.06541	72
122.03912	32
124.02261	44
125.02358	561
126.02974	89
127.03072	66
132.05235	26
132.06235	48
133.06236	57
135.03906	35
141.019	29
142.02689	41
143.03299	29
145.02548	34
147.03734	41
147.04504	64
149.01909	28
149.05864	66
151.10677	29
151.11699	63
153.13388	35
159.08562	29
161.06523	26
174.06454	32
175.03218	64
175.04227	57
175.07214	29
184.06038	50
185.0571	29
186.06517	26
186.09608	34
188.08299	29
188.15063	31
191.03795	26
191.11	32
191.14076	31
198.02664	39
201.12863	28
202.06111	35
203.10173	35
204.10945	26
207.09839	29
212.06279	29
216.10562	29
218.0894	26
229.1254	35
233.14417	28
247.12926	39
259.12888	42

NAME: Ginsenoside Ro
PRECURSORMZ: 955.49080374783
PRECURSORTYPE: [M-H]-
INSTRUMENTTYPE: LC-ESI-QTOF
SMILES: CC1(C)CCC2(CCC3(C)C(=CCC4C5(C)CCC(OC6OC(C(O)C(O)C6OC6OC(CO)C(O)C(O)C6O)C(O)=O)C(C)(C)C5CCC34C)C2C1)C(=O)OC1OC(CO)C(O)C(O)C1O
INCHIKEY: NFZYDZXHKFHPGA-UHFFFAOYNA-N
Ontology: Triterpene saponins
COLLISIONENERGY: 50
FORMULA: C48H76O19
RETENTIONTIME: 6.188283
IONMODE: Negative
Comment: registered in RIKEN PlaSMA
Num Peaks: 108
59.01279	80
71.01192	71
73.02962	14
75.00813	135
84.01555	13
85.02657	14
85.03102	13
89.0243	168
95.00795	13
99.00702	90
99.01263	46
100.00822	36
101.02471	232
111.01201	14
113.02487	119
119.03399	270
129.02037	14
131.03709	30
139	39
143.03693	13
144.04303	14
150.04628	14
157.01642	103
159.01442	13
161.04822	39
179.04974	26
179.06073	26
201.92508	13
319.07504	14
348.07913	16
378.98926	13
385.20822	14
453.3392	28
455.35202	138
456.35025	16
456.36328	52
462.60065	14
475.67731	20
481.35678	17
494.25681	18
495.35184	13
497.34122	13
518.82721	13
523.37634	480
524.37988	51
524.40302	14
525.37738	48
531.72467	18
537.35474	15
537.41058	29
538.40747	13
540.40601	14
548.3869	13
551.35541	28
551.37543	47
551.3963	18
551.41498	13
552.35968	17
567.38654	14
569.38013	482
569.41455	75
570.38477	133
571.40747	41
574.19873	13
584.41748	13
587.38519	34
587.41718	31
588.10468	18
588.41705	27
589.08191	13
589.40118	13
613.35529	102
613.38159	208
614.34534	16
614.38074	75
615.40814	15
631.36859	14
631.40033	16
631.66187	13
659.43469	13
661.41675	24
676.41864	13
691.3205	30
731.44495	197
732.40094	14
732.44958	190
733.48047	26
734.31195	16
749.32672	15
750.25043	13
750.45648	15
775.41504	39
775.4541	14
775.51532	13
776.41992	13
776.44202	14
793.44043	1000
794.44855	284
795.18146	13
795.40924	16
795.44464	63
795.47791	13
862.75464	13
884.63208	18
891.08112	13
909.75616	16
955.4967	579
955.55975	35

NAME: Saikosaponin a
PRECURSORMZ: 779.45871584783
PRECURSORTYPE: [M-H]-
INSTRUMENTTYPE: LC-ESI-QTOF
SMILES: CC1OC(OC2CCC3(C)C(CCC4(C)C3C=CC35OCC6(CCC(C)(C)CC36)C(O)CC45C)C2(C)CO)C(O)C(OC2OC(CO)C(O)C(O)C2O)C1O
INCHIKEY: KYWSCMDFVARMPN-UHFFFAOYNA-N
Ontology: Triterpene saponins
COLLISIONENERGY: 50
FORMULA: C42H68O13
RETENTIONTIME: 7.132916
IONMODE: Negative
Comment: registered in RIKEN PlaSMA
Num Peaks: 15
59.01353	271
71.01189	125
89.02477	1000
97.0274	139
101.02253	132
109.02683	194
113.01998	438
115.0378	125
119.03535	125
143.03354	146
145.05498	153
469.34152	125
617.40289	146
617.42474	132
619.43311	188

NAME: Saikosaponin a
PRECURSORMZ: 825.46419515183
PRECURSORTYPE: [M+FA-H]-
INSTRUMENTTYPE: LC-ESI-QTOF
SMILES: CC1OC(OC2CCC3(C)C(CCC4(C)C3C=CC35OCC6(CCC(C)(C)CC36)C(O)CC45C)C2(C)CO)C(O)C(OC2OC(CO)C(O)C(O)C2O)C1O
INCHIKEY: KYWSCMDFVARMPN-UHFFFAOYNA-N
Ontology: Triterpene saponins
COLLISIONENERGY: 50
FORMULA: C42H68O13
RETENTIONTIME: 7.132916
IONMODE: Negative
Comment: registered in RIKEN PlaSMA
Num Peaks: 76
55.01598	10
59.01204	111
59.0151	43
71.0135	115
73.02395	9
73.02935	21
74.03779	18
81.03543	10
83.01258	18
83.04418	13
85.02643	112
85.99929	10
86.03642	11
89.0229	55
89.02751	22
95.01191	9
97.02554	16
99.00808	33
99.04201	20
100.04227	10
101.02283	533
102.02219	9
103.03416	8
103.03916	26
103.04566	9
107.10578	14
109.02026	9
109.02567	28
109.03239	45
111.04373	11
113.02216	100
114.025	29
115.03729	10
115.04373	20
116.0433	12
116.04986	10
119.03378	76
121.02303	11
127.03368	16
127.03954	40
143.03084	59
145.05051	493
146.05676	22
147.05426	10
155.03142	18
159.02829	20
161.04501	99
163.04712	15
163.06357	11
179.05225	28
180.04668	10
193.53343	9
196.03918	11
219.90666	9
220.79539	11
308.24338	9
322.33304	9
355.26273	9
418.79742	10
424.33191	10
439.32175	31
442.33401	11
451.32898	10
459.23981	10
471.34903	23
471.37292	10
541.34167	63
541.37897	9
617.40363	1000
618.4043	252
619.40192	19
619.43683	19
620.43744	13
779.45117	14
779.47992	10
780.45001	31

NAME: Maslinic acid
PRECURSORMZ: 471.34798354783
PRECURSORTYPE: [M-H]-
INSTRUMENTTYPE: LC-ESI-QTOF
SMILES: CC1(C)CCC2(CCC3(C)C(=CCC4C5(C)CC(O)C(O)C(C)(C)C5CCC34C)C2C1)C(O)=O
INCHIKEY: MDZKJHQSJHYOHJ-UHFFFAOYNA-N
Ontology: Triterpenoids
COLLISIONENERGY: 50
FORMULA: C30H48O4
RETENTIONTIME: 9.748883
IONMODE: Negative
Comment: registered in RIKEN PlaSMA
Num Peaks: 9
135.08801	357
187.14723	321
375.29083	357
376.29431	375
389.29068	321
393.30502	321
393.32407	429
405.31519	482
471.3436	1000

NAME: Ginkgolide B
PRECURSORMZ: 423.12967054783
PRECURSORTYPE: [M-H]-
INSTRUMENTTYPE: LC-ESI-QTOF
SMILES: CC1C(=O)OC2C(O)C34C5CC(C(C)(C)C)C33C(O)C(=O)OC3OC4(C(=O)O5)C12O
INCHIKEY: SQOJOAFXDQDRGF-UHFFFAOYNA-N
Ontology: Ginkgolides and bilobalides
COLLISIONENERGY: 10
FORMULA: C20H24O10
RETENTIONTIME: 5.343283
IONMODE: Negative
Comment: registered in RIKEN PlaSMA
Num Peaks: 55
72.99157	15
74.99403	5
85.03028	10
97.02708	10
100.98534	6
113.02333	131
115.02658	5
125.02422	172
126.02853	6
141.01813	28
143.0338	9
149.0598	7
163.27589	6
177.53044	7
179.10718	10
182.1299	6
185.05449	7
202.064	5
203.08151	5
209.05455	5
212.04959	5
215.14987	7
225.11339	6
227.34897	6
231.09564	6
231.10579	5
232.11652	14
243.13261	8
247.14003	6
251.14838	6
261.14542	30
261.16354	5
275.12628	15
282.4509	5
287.11823	6
287.13126	20
295.48682	5
307.12372	5
335.11517	5
349.12228	9
349.1384	22
350.13199	15
367.13907	1000
367.34158	5
368.12704	7
368.14444	117
369.14667	29
369.16049	8
377.12091	6
390.27377	7
395.12622	12
395.13983	45
396.14423	14
423.12714	295
423.15906	5

NAME: Ginsenoside Ro
PRECURSORMZ: 955.49080374783
PRECURSORTYPE: [M-H]-
INSTRUMENTTYPE: LC-ESI-QTOF
SMILES: CC1(C)CCC2(CCC3(C)C(=CCC4C5(C)CCC(OC6OC(C(O)C(O)C6OC6OC(CO)C(O)C(O)C6O)C(O)=O)C(C)(C)C5CCC34C)C2C1)C(=O)OC1OC(CO)C(O)C(O)C1O
INCHIKEY: NFZYDZXHKFHPGA-UHFFFAOYNA-N
Ontology: Triterpene saponins
COLLISIONENERGY: 10
FORMULA: C48H76O19
RETENTIONTIME: 6.188283
IONMODE: Negative
Comment: registered in RIKEN PlaSMA
Num Peaks: 6
523.37921	7
731.43494	6
793.44714	34
793.48938	6
794.45056	19
955.49042	1000

NAME: Saikosaponin a
PRECURSORMZ: 779.45871584783
PRECURSORTYPE: [M-H]-
INSTRUMENTTYPE: LC-ESI-QTOF
SMILES: CC1OC(OC2CCC3(C)C(CCC4(C)C3C=CC35OCC6(CCC(C)(C)CC36)C(O)CC45C)C2(C)CO)C(O)C(OC2OC(CO)C(O)C(O)C2O)C1O
INCHIKEY: KYWSCMDFVARMPN-UHFFFAOYNA-N
Ontology: Triterpene saponins
COLLISIONENERGY: 10
FORMULA: C42H68O13
RETENTIONTIME: 7.132916
IONMODE: Negative
Comment: registered in RIKEN PlaSMA
Num Peaks: 7
101.02479	83
163.05653	51
471.35107	38
617.39935	125
617.4209	133
618.41473	42
779.45374	1000

NAME: Saikosaponin a
PRECURSORMZ: 825.46419515183
PRECURSORTYPE: [M+FA-H]-
INSTRUMENTTYPE: LC-ESI-QTOF
SMILES: CC1OC(OC2CCC3(C)C(CCC4(C)C3C=CC35OCC6(CCC(C)(C)CC36)C(O)CC45C)C2(C)CO)C(O)C(OC2OC(CO)C(O)C(O)C2O)C1O
INCHIKEY: KYWSCMDFVARMPN-UHFFFAOYNA-N
Ontology: Triterpene saponins
COLLISIONENERGY: 10
FORMULA: C42H68O13
RETENTIONTIME: 7.132916
IONMODE: Negative
Comment: registered in RIKEN PlaSMA
Num Peaks: 13
101.02168	5
145.04849	8
169.75854	7
617.40582	154
618.41162	51
619.39679	6
779.45795	1000
779.52124	6
780.46277	486
781.4635	116
782.43628	6
782.47766	5
825.46747	258

NAME: Maslinic acid
PRECURSORMZ: 471.34798354783
PRECURSORTYPE: [M-H]-
INSTRUMENTTYPE: LC-ESI-QTOF
SMILES: CC1(C)CCC2(CCC3(C)C(=CCC4C5(C)CC(O)C(O)C(C)(C)C5CCC34C)C2C1)C(O)=O
INCHIKEY: MDZKJHQSJHYOHJ-UHFFFAOYNA-N
Ontology: Triterpenoids
COLLISIONENERGY: 10
FORMULA: C30H48O4
RETENTIONTIME: 9.748883
IONMODE: Negative
Comment: registered in RIKEN PlaSMA
Num Peaks: 3
185.18881	7
423.32147	13
471.34708	1000

NAME: Ginkgolide B
PRECURSORMZ: 423.12967054783
PRECURSORTYPE: [M-H]-
INSTRUMENTTYPE: LC-ESI-QTOF
SMILES: CC1C(=O)OC2C(O)C34C5CC(C(C)(C)C)C33C(O)C(=O)OC3OC4(C(=O)O5)C12O
INCHIKEY: SQOJOAFXDQDRGF-UHFFFAOYNA-N
Ontology: Ginkgolides and bilobalides
COLLISIONENERGY: 10
FORMULA: C20H24O10
RETENTIONTIME: 5.343283
IONMODE: Negative
Comment: registered in RIKEN PlaSMA
Num Peaks: 8
125.03043	5
307.12692	8
367.14005	1000
368.14157	204
369.14191	14
395.1369	148
396.12955	24
423.12891	928

NAME: Saikosaponin a
PRECURSORMZ: 779.45871584783
PRECURSORTYPE: [M-H]-
INSTRUMENTTYPE: LC-ESI-QTOF
SMILES: CC1OC(OC2CCC3(C)C(CCC4(C)C3C=CC35OCC6(CCC(C)(C)CC36)C(O)CC45C)C2(C)CO)C(O)C(OC2OC(CO)C(O)C(O)C2O)C1O
INCHIKEY: KYWSCMDFVARMPN-UHFFFAOYNA-N
Ontology: Triterpene saponins
COLLISIONENERGY: 10
FORMULA: C42H68O13
RETENTIONTIME: 7.132916
IONMODE: Negative
Comment: registered in RIKEN PlaSMA
Num Peaks: 2
757.83612	28
779.45764	1000

NAME: Saikosaponin a
PRECURSORMZ: 825.46419515183
PRECURSORTYPE: [M+FA-H]-
INSTRUMENTTYPE: LC-ESI-QTOF
SMILES: CC1OC(OC2CCC3(C)C(CCC4(C)C3C=CC35OCC6(CCC(C)(C)CC36)C(O)CC45C)C2(C)CO)C(O)C(OC2OC(CO)C(O)C(O)C2O)C1O
INCHIKEY: KYWSCMDFVARMPN-UHFFFAOYNA-N
Ontology: Triterpene saponins
COLLISIONENERGY: 10
FORMULA: C42H68O13
RETENTIONTIME: 7.132916
IONMODE: Negative
Comment: registered in RIKEN PlaSMA
Num Peaks: 5
779.45984	442
780.46191	164
781.46442	38
782.4574	9
825.46381	1000

NAME: Maslinic acid
PRECURSORMZ: 471.34798354783
PRECURSORTYPE: [M-H]-
INSTRUMENTTYPE: LC-ESI-QTOF
SMILES: CC1(C)CCC2(CCC3(C)C(=CCC4C5(C)CC(O)C(O)C(C)(C)C5CCC34C)C2C1)C(O)=O
INCHIKEY: MDZKJHQSJHYOHJ-UHFFFAOYNA-N
Ontology: Triterpenoids
COLLISIONENERGY: 10
FORMULA: C30H48O4
RETENTIONTIME: 9.748883
IONMODE: Negative
Comment: registered in RIKEN PlaSMA
Num Peaks: 2
471.3096	8
471.34854	1000

NAME: Ginkgolide B
PRECURSORMZ: 423.12967054783
PRECURSORTYPE: [M-H]-
INSTRUMENTTYPE: LC-ESI-QTOF
SMILES: CC1C(=O)OC2C(O)C34C5CC(C(C)(C)C)C33C(O)C(=O)OC3OC4(C(=O)O5)C12O
INCHIKEY: SQOJOAFXDQDRGF-UHFFFAOYNA-N
Ontology: Ginkgolides and bilobalides
COLLISIONENERGY: 30
FORMULA: C20H24O10
RETENTIONTIME: 5.343283
IONMODE: Negative
Comment: registered in RIKEN PlaSMA
Num Peaks: 117
69.0349	15
72.99184	29
72.99657	11
73.02935	7
85.02855	18
87.045	7
88.00904	7
93.08789	7
97.03059	39
98.03159	7
99.04113	7
99.67413	9
113.02345	843
114.02709	15
114.03425	10
115.03149	16
125.02306	1000
125.07874	7
126.02499	8
126.03015	7
137.05707	9
141.0195	97
142.02924	19
143.02971	15
143.03706	21
144.03358	7
144.08992	7
148.12071	7
149.06215	7
163.11336	7
164.03993	13
164.12006	7
165.05357	7
165.06088	7
166.12997	9
174.03195	8
174.07249	8
175.03378	7
175.04428	24
175.10835	7
179.10355	16
179.11273	13
180.11232	22
181.1283	13
185.06526	11
186.06863	32
187.11548	8
187.14418	7
192.04501	7
193.12848	10
195.12622	9
197.11313	7
203.07416	10
203.09946	7
204.03978	7
204.10913	8
205.16653	7
207.10275	11
209.04739	31
209.09978	7
209.12241	18
215.14221	43
216.03474	7
217.13046	8
219.10315	7
221.15758	8
223.12889	7
225.10986	7
231.09976	28
231.11038	12
231.13722	8
232.07263	9
232.1059	49
232.14073	7
233.12267	24
233.15387	18
234.15446	7
235.1367	9
243.13541	7
243.14539	21
247.12895	8
248.1443	7
249.11406	16
249.64937	7
250.12193	10
253.10483	9
256.112	8
259.13245	25
259.14883	7
260.09396	7
260.14322	10
261.14871	45
261.16589	7
262.15564	9
262.16663	7
264.12534	7
271.14655	11
275.12991	7
276.10941	7
276.13651	7
277.14624	7
279.14871	7
287.12833	66
288.13342	9
291.12619	8
297.57812	8
305.1319	19
305.14157	20
307.12399	14
321.13782	7
349.12311	18
349.13583	16
350.13272	7
367.14136	102
368.12354	8
368.1427	7
368.1582	8

NAME: Ginsenoside Ro
PRECURSORMZ: 955.49080374783
PRECURSORTYPE: [M-H]-
INSTRUMENTTYPE: LC-ESI-QTOF
SMILES: CC1(C)CCC2(CCC3(C)C(=CCC4C5(C)CCC(OC6OC(C(O)C(O)C6OC6OC(CO)C(O)C(O)C6O)C(O)=O)C(C)(C)C5CCC34C)C2C1)C(=O)OC1OC(CO)C(O)C(O)C1O
INCHIKEY: NFZYDZXHKFHPGA-UHFFFAOYNA-N
Ontology: Triterpene saponins
COLLISIONENERGY: 30
FORMULA: C48H76O19
RETENTIONTIME: 6.188283
IONMODE: Negative
Comment: registered in RIKEN PlaSMA
Num Peaks: 3
793.44183	41
794.44415	15
955.49139	1000

NAME: Saikosaponin a
PRECURSORMZ: 779.45871584783
PRECURSORTYPE: [M-H]-
INSTRUMENTTYPE: LC-ESI-QTOF
SMILES: CC1OC(OC2CCC3(C)C(CCC4(C)C3C=CC35OCC6(CCC(C)(C)CC36)C(O)CC45C)C2(C)CO)C(O)C(OC2OC(CO)C(O)C(O)C2O)C1O
INCHIKEY: KYWSCMDFVARMPN-UHFFFAOYNA-N
Ontology: Triterpene saponins
COLLISIONENERGY: 30
FORMULA: C42H68O13
RETENTIONTIME: 7.132916
IONMODE: Negative
Comment: registered in RIKEN PlaSMA
Num Peaks: 15
85.02676	51
99.04603	44
120.04076	42
145.05287	49
161.0376	42
411.36404	40
617.38232	93
617.41125	306
617.42896	124
618.40912	126
619.41772	51
623.1123	55
737.16693	47
779.39941	47
779.45654	1000

NAME: Saikosaponin a
PRECURSORMZ: 825.46419515183
PRECURSORTYPE: [M+FA-H]-
INSTRUMENTTYPE: LC-ESI-QTOF
SMILES: CC1OC(OC2CCC3(C)C(CCC4(C)C3C=CC35OCC6(CCC(C)(C)CC36)C(O)CC45C)C2(C)CO)C(O)C(OC2OC(CO)C(O)C(O)C2O)C1O
INCHIKEY: KYWSCMDFVARMPN-UHFFFAOYNA-N
Ontology: Triterpene saponins
COLLISIONENERGY: 30
FORMULA: C42H68O13
RETENTIONTIME: 7.132916
IONMODE: Negative
Comment: registered in RIKEN PlaSMA
Num Peaks: 8
161.0437	6
617.40662	113
618.40771	42
779.45831	1000
779.51294	5
780.46167	453
781.46582	82
782.46521	16

NAME: Maslinic acid
PRECURSORMZ: 471.34798354783
PRECURSORTYPE: [M-H]-
INSTRUMENTTYPE: LC-ESI-QTOF
SMILES: CC1(C)CCC2(CCC3(C)C(=CCC4C5(C)CC(O)C(O)C(C)(C)C5CCC34C)C2C1)C(O)=O
INCHIKEY: MDZKJHQSJHYOHJ-UHFFFAOYNA-N
Ontology: Triterpenoids
COLLISIONENERGY: 30
FORMULA: C30H48O4
RETENTIONTIME: 9.748883
IONMODE: Negative
Comment: registered in RIKEN PlaSMA
Num Peaks: 3
423.31616	15
471.34647	1000
471.38422	10

NAME: Ginkgolide B
PRECURSORMZ: 423.12967054783
PRECURSORTYPE: [M-H]-
INSTRUMENTTYPE: LC-ESI-QTOF
SMILES: CC1C(=O)OC2C(O)C34C5CC(C(C)(C)C)C33C(O)C(=O)OC3OC4(C(=O)O5)C12O
INCHIKEY: SQOJOAFXDQDRGF-UHFFFAOYNA-N
Ontology: Ginkgolides and bilobalides
COLLISIONENERGY: 50
FORMULA: C20H24O10
RETENTIONTIME: 5.343283
IONMODE: Negative
Comment: registered in RIKEN PlaSMA
Num Peaks: 64
57.03437	103
65.42921	38
69.03247	327
69.03826	97
70.04045	42
85.02631	44
85.03181	75
93.02941	36
94.03282	36
95.0559	40
97.02945	423
98.03664	50
99.04316	50
100.98107	52
105.03015	36
106.04133	36
109.02506	52
113.02419	1000
114.02289	40
118.03903	36
121.06202	40
122.03703	87
125.02486	806
125.0391	32
126.02193	42
126.03251	77
129.03236	48
131.01825	36
141.01265	44
143.02896	44
146.03291	75
147.05014	44
151.04596	46
151.10924	40
159.04913	40
159.08008	40
162.10712	42
166.02936	40
173.06178	36
175.03812	83
175.07303	42
175.1059	40
176.07993	40
177.08191	46
178.09163	40
179.10654	36
181.12251	40
185.06071	40
188.08345	36
189.05312	71
191.10619	101
195.09758	36
201.01514	50
204.11176	71
205.05223	36
207.10522	60
212.04594	48
216.11339	36
219.1337	42
232.14854	40
237.03778	40
245.11697	36
258.11655	50
279.15753	40

NAME: Ginsenoside Ro
PRECURSORMZ: 955.49080374783
PRECURSORTYPE: [M-H]-
INSTRUMENTTYPE: LC-ESI-QTOF
SMILES: CC1(C)CCC2(CCC3(C)C(=CCC4C5(C)CCC(OC6OC(C(O)C(O)C6OC6OC(CO)C(O)C(O)C6O)C(O)=O)C(C)(C)C5CCC34C)C2C1)C(=O)OC1OC(CO)C(O)C(O)C1O
INCHIKEY: NFZYDZXHKFHPGA-UHFFFAOYNA-N
Ontology: Triterpene saponins
COLLISIONENERGY: 50
FORMULA: C48H76O19
RETENTIONTIME: 6.188283
IONMODE: Negative
Comment: registered in RIKEN PlaSMA
Num Peaks: 124
59.01348	51
68.9958	17
71.01199	125
71.68559	14
72.9957	14
73.02771	21
75.00706	133
77.02981	14
83.00993	16
85.0322	16
89.02393	388
90.0312	14
95.01281	14
99.00542	77
99.01069	38
101.02425	318
102.02914	14
107.02613	17
107.03957	14
113.02293	164
113.03323	17
119.02962	30
119.03591	164
120.03307	32
120.03795	38
139.00104	22
140.58041	16
143.0323	26
157.00647	67
157.01366	131
159.03329	14
161.03453	20
161.04504	18
179.0526	16
253.50102	16
274.40024	14
279.0769	18
392.12274	18
402.36029	14
452.5748	14
453.31808	14
453.33807	55
453.43237	24
454.32938	17
455.34537	42
455.36264	27
456.14804	19
456.34802	52
456.37061	30
469.35986	19
490.4989	16
496.35983	14
497.35782	39
497.38416	15
510.36392	26
523.35394	43
523.38214	393
523.41742	15
524.38318	17
524.41089	16
525.39136	34
537.37006	29
537.3941	87
538.33936	14
538.35938	20
539.38495	14
551.37665	53
556.36798	16
559.07562	17
569.3833	567
570.39606	240
571.38397	67
577.38257	22
583.38995	16
587.36975	44
587.3916	59
588.38562	21
588.4165	33
589.39148	40
607.39661	14
613.32886	16
613.37488	312
614.37653	126
615.35699	16
631.41815	15
632.40503	14
650.78522	17
659.40253	16
660.401	14
674.70233	22
677.05261	24
715.3905	17
731.42731	131
731.45233	226
732.42993	142
732.46082	30
733.42767	14
733.46802	14
734.43811	30
749.44104	16
749.47308	38
750.45599	32
765.33093	19
775.43353	14
776.42926	22
778.24365	17
793.32367	14
793.44147	1000
794.44501	251
794.52814	16
795.41943	43
795.43732	86
795.46228	105
799.91858	14
835.41724	16
835.43982	14
836.44836	22
877.24274	16
877.4848	15
877.50732	14
889.151	14
895.48846	15
955.47644	280
955.50769	297

NAME: Saikosaponin a
PRECURSORMZ: 779.45871584783
PRECURSORTYPE: [M-H]-
INSTRUMENTTYPE: LC-ESI-QTOF
SMILES: CC1OC(OC2CCC3(C)C(CCC4(C)C3C=CC35OCC6(CCC(C)(C)CC36)C(O)CC45C)C2(C)CO)C(O)C(OC2OC(CO)C(O)C(O)C2O)C1O
INCHIKEY: KYWSCMDFVARMPN-UHFFFAOYNA-N
Ontology: Triterpene saponins
COLLISIONENERGY: 50
FORMULA: C42H68O13
RETENTIONTIME: 7.132916
IONMODE: Negative
Comment: registered in RIKEN PlaSMA
Num Peaks: 13
59.01675	167
71.01437	533
85.02654	217
101.02358	1000
103.03364	158
113.01979	300
119.02834	417
127.04044	158
145.05234	208
161.04146	208
274.99481	200
439.31342	150
471.35535	150

NAME: Saikosaponin a
PRECURSORMZ: 825.46419515183
PRECURSORTYPE: [M+FA-H]-
INSTRUMENTTYPE: LC-ESI-QTOF
SMILES: CC1OC(OC2CCC3(C)C(CCC4(C)C3C=CC35OCC6(CCC(C)(C)CC36)C(O)CC45C)C2(C)CO)C(O)C(OC2OC(CO)C(O)C(O)C2O)C1O
INCHIKEY: KYWSCMDFVARMPN-UHFFFAOYNA-N
Ontology: Triterpene saponins
COLLISIONENERGY: 50
FORMULA: C42H68O13
RETENTIONTIME: 7.132916
IONMODE: Negative
Comment: registered in RIKEN PlaSMA
Num Peaks: 86
55.4075	10
59.01212	135
71.01283	58
73.0273	8
73.03481	10
75.00682	9
80.81511	9
82.45758	9
83.01305	19
83.0527	11
85.02753	161
86.02865	9
86.68109	8
87.00587	15
87.01319	8
89.02462	113
95.00773	8
99.01286	28
99.04148	13
99.04807	22
100.04816	13
101.02373	342
101.04716	10
102.02632	19
103.03587	24
103.04205	49
109.02328	17
109.02876	30
113.02439	137
114.02753	11
114.11636	9
115.03693	9
115.04396	19
116.041	10
119.03385	73
119.04367	9
125.02995	8
127.03754	71
127.04322	34
129.02455	10
131.03561	9
145.04912	385
146.04472	11
146.05724	30
147.05307	19
159.03229	46
161.04825	94
163.05066	10
163.06117	25
179.05969	9
229.07634	8
258.30231	8
259.19604	9
281.02939	8
304.24792	15
355.30078	10
358.92853	24
375.29697	8
377.52792	8
389.3168	9
403.30008	8
418.26776	8
434.33017	8
440.32993	23
452.32346	9
471.33395	11
471.35468	28
472.35461	8
473.36917	10
497.35681	9
513.34186	9
541.36591	8
557.38739	10
617.4079	1000
617.47217	9
618.40753	277
618.44623	19
619.39923	36
619.43036	35
620.38794	11
622.83417	9
723.7926	10
779.45337	20
779.4704	9
780.48627	23
790.65747	10

NAME: Maslinic acid
PRECURSORMZ: 471.34798354783
PRECURSORTYPE: [M-H]-
INSTRUMENTTYPE: LC-ESI-QTOF
SMILES: CC1(C)CCC2(CCC3(C)C(=CCC4C5(C)CC(O)C(O)C(C)(C)C5CCC34C)C2C1)C(O)=O
INCHIKEY: MDZKJHQSJHYOHJ-UHFFFAOYNA-N
Ontology: Triterpenoids
COLLISIONENERGY: 50
FORMULA: C30H48O4
RETENTIONTIME: 9.748883
IONMODE: Negative
Comment: registered in RIKEN PlaSMA
Num Peaks: 10
99.92517	163
175.11412	163
340.22095	146
375.29095	171
393.31638	171
394.31497	146
405.33606	163
407.32373	163
409.31628	309
471.34103	1000

NAME: Ginkgolide B
PRECURSORMZ: 423.12967054783
PRECURSORTYPE: [M-H]-
INSTRUMENTTYPE: LC-ESI-QTOF
SMILES: CC1C(=O)OC2C(O)C34C5CC(C(C)(C)C)C33C(O)C(=O)OC3OC4(C(=O)O5)C12O
INCHIKEY: SQOJOAFXDQDRGF-UHFFFAOYNA-N
Ontology: Ginkgolides and bilobalides
COLLISIONENERGY: 10
FORMULA: C20H24O10
RETENTIONTIME: 5.343283
IONMODE: Negative
Comment: registered in RIKEN PlaSMA
Num Peaks: 43
72.99178	24
73.0312	6
97.0299	13
113.02391	173
125.0227	210
126.02895	9
141.01816	34
142.01947	9
143.03383	15
154.02522	5
160.05348	11
174.02722	8
175.04088	7
177.0929	10
179.10474	25
180.10103	5
204.07318	10
205.12148	15
207.17892	6
209.05849	5
231.09804	8
231.10725	6
231.13541	8
232.10451	19
233.15894	7
243.14291	17
261.14819	19
265.14087	6
277.14032	9
287.12909	6
287.1409	11
288.13202	9
305.1431	9
306.15268	5
349.1286	54
351.13278	6
367.13931	1000
368.14041	118
368.15768	23
369.13977	14
395.14053	62
396.13135	18
423.12769	284

NAME: Ginsenoside Ro
PRECURSORMZ: 955.49080374783
PRECURSORTYPE: [M-H]-
INSTRUMENTTYPE: LC-ESI-QTOF
SMILES: CC1(C)CCC2(CCC3(C)C(=CCC4C5(C)CCC(OC6OC(C(O)C(O)C6OC6OC(CO)C(O)C(O)C6O)C(O)=O)C(C)(C)C5CCC34C)C2C1)C(=O)OC1OC(CO)C(O)C(O)C1O
INCHIKEY: NFZYDZXHKFHPGA-UHFFFAOYNA-N
Ontology: Triterpene saponins
COLLISIONENERGY: 10
FORMULA: C48H76O19
RETENTIONTIME: 6.188283
IONMODE: Negative
Comment: registered in RIKEN PlaSMA
Num Peaks: 4
775.41077	5
793.4397	52
794.44995	21
955.48877	1000

NAME: Saikosaponin a
PRECURSORMZ: 779.45871584783
PRECURSORTYPE: [M-H]-
INSTRUMENTTYPE: LC-ESI-QTOF
SMILES: CC1OC(OC2CCC3(C)C(CCC4(C)C3C=CC35OCC6(CCC(C)(C)CC36)C(O)CC45C)C2(C)CO)C(O)C(OC2OC(CO)C(O)C(O)C2O)C1O
INCHIKEY: KYWSCMDFVARMPN-UHFFFAOYNA-N
Ontology: Triterpene saponins
COLLISIONENERGY: 10
FORMULA: C42H68O13
RETENTIONTIME: 7.132916
IONMODE: Negative
Comment: registered in RIKEN PlaSMA
Num Peaks: 8
103.03799	34
105.44356	36
391.53256	40
617.38037	104
618.36536	36
619.38275	70
779.46405	1000
779.53149	34

NAME: Saikosaponin a
PRECURSORMZ: 825.46419515183
PRECURSORTYPE: [M+FA-H]-
INSTRUMENTTYPE: LC-ESI-QTOF
SMILES: CC1OC(OC2CCC3(C)C(CCC4(C)C3C=CC35OCC6(CCC(C)(C)CC36)C(O)CC45C)C2(C)CO)C(O)C(OC2OC(CO)C(O)C(O)C2O)C1O
INCHIKEY: KYWSCMDFVARMPN-UHFFFAOYNA-N
Ontology: Triterpene saponins
COLLISIONENERGY: 10
FORMULA: C42H68O13
RETENTIONTIME: 7.132916
IONMODE: Negative
Comment: registered in RIKEN PlaSMA
Num Peaks: 12
71.01168	9
101.02394	6
145.05028	7
617.40765	144
618.39661	15
618.41534	47
619.41705	16
779.45972	1000
780.46454	473
781.46948	106
782.47272	10
825.46735	271

NAME: Ginkgolide B
PRECURSORMZ: 423.12967054783
PRECURSORTYPE: [M-H]-
INSTRUMENTTYPE: LC-ESI-QTOF
SMILES: CC1C(=O)OC2C(O)C34C5CC(C(C)(C)C)C33C(O)C(=O)OC3OC4(C(=O)O5)C12O
INCHIKEY: SQOJOAFXDQDRGF-UHFFFAOYNA-N
Ontology: Ginkgolides and bilobalides
COLLISIONENERGY: 10
FORMULA: C20H24O10
RETENTIONTIME: 5.343283
IONMODE: Negative
Comment: registered in RIKEN PlaSMA
Num Peaks: 11
72.99142	11
125.02796	5
261.14853	6
349.13455	5
367.13828	1000
368.14066	149
369.14447	18
395.13385	129
396.13477	18
397.13391	6
423.1275	845

NAME: Saikosaponin a
PRECURSORMZ: 779.45871584783
PRECURSORTYPE: [M-H]-
INSTRUMENTTYPE: LC-ESI-QTOF
SMILES: CC1OC(OC2CCC3(C)C(CCC4(C)C3C=CC35OCC6(CCC(C)(C)CC36)C(O)CC45C)C2(C)CO)C(O)C(OC2OC(CO)C(O)C(O)C2O)C1O
INCHIKEY: KYWSCMDFVARMPN-UHFFFAOYNA-N
Ontology: Triterpene saponins
COLLISIONENERGY: 10
FORMULA: C42H68O13
RETENTIONTIME: 7.132916
IONMODE: Negative
Comment: registered in RIKEN PlaSMA
Num Peaks: 2
153.09935	24
779.4624	1000

NAME: Saikosaponin a
PRECURSORMZ: 825.46419515183
PRECURSORTYPE: [M+FA-H]-
INSTRUMENTTYPE: LC-ESI-QTOF
SMILES: CC1OC(OC2CCC3(C)C(CCC4(C)C3C=CC35OCC6(CCC(C)(C)CC36)C(O)CC45C)C2(C)CO)C(O)C(OC2OC(CO)C(O)C(O)C2O)C1O
INCHIKEY: KYWSCMDFVARMPN-UHFFFAOYNA-N
Ontology: Triterpene saponins
COLLISIONENERGY: 10
FORMULA: C42H68O13
RETENTIONTIME: 7.132916
IONMODE: Negative
Comment: registered in RIKEN PlaSMA
Num Peaks: 5
779.45819	453
780.46619	143
781.46509	40
825.41486	7
825.46344	1000

NAME: Ginkgolide B
PRECURSORMZ: 423.12967054783
PRECURSORTYPE: [M-H]-
INSTRUMENTTYPE: LC-ESI-QTOF
SMILES: CC1C(=O)OC2C(O)C34C5CC(C(C)(C)C)C33C(O)C(=O)OC3OC4(C(=O)O5)C12O
INCHIKEY: SQOJOAFXDQDRGF-UHFFFAOYNA-N
Ontology: Ginkgolides and bilobalides
COLLISIONENERGY: 30
FORMULA: C20H24O10
RETENTIONTIME: 5.343283
IONMODE: Negative
Comment: registered in RIKEN PlaSMA
Num Peaks: 124
56.99568	12
69.03493	33
72.9924	31
73.03041	8
73.0365	8
74.99695	8
87.04121	8
87.047	7
95.57095	7
97.02841	53
97.21131	7
97.48215	7
99.04258	14
101.02316	7
106.03746	7
111.04214	7
113.02331	840
114.02712	16
115.02467	10
115.03346	7
121.06293	8
121.07143	7
122.03812	7
123.03619	11
125.02352	1000
126.02083	12
126.02768	42
127.03483	7
127.37559	7
132.94122	8
134.03828	15
141.01575	82
141.02531	25
141.05478	7
142.02513	14
143.02925	9
146.04088	10
146.172	8
149.02084	9
150.02928	8
150.05977	7
151.12009	7
160.08838	7
163.10553	7
165.01808	8
165.05405	23
165.12532	8
166.08127	13
167.10608	8
173.14064	7
174.02576	17
175.03291	8
175.04175	35
177.08975	10
179.10452	7
180.11299	8
181.12383	18
181.1311	35
186.06943	29
192.11559	8
193.06018	7
193.12639	7
195.16765	8
201.02217	7
204.07367	8
204.11267	34
205.11427	17
205.15298	13
205.16667	8
206.08224	7
207.11269	7
215.06232	10
215.13124	7
215.14401	7
216.0477	8
217.12401	16
219.03052	8
220.14131	7
231.08221	7
231.10085	39
232.11118	53
233.1145	17
234.11703	7
241.12914	8
243.13501	15
243.14854	20
247.12486	8
247.14345	7
249.1008	10
249.11353	44
249.1221	13
251.15193	8
251.17598	8
253.10406	7
259.13339	8
261.14938	35
262.14871	15
262.1601	7
263.13202	8
269.11905	14
271.13428	14
272.10629	8
274.04456	8
275.12802	23
276.10608	8
277.13876	20
277.15134	33
281.0889	8
287.12512	52
290.38971	9
305.11942	8
305.14459	28
306.13687	9
307.12241	7
307.13715	14
323.138	7
324.15634	8
331.11139	7
349.12521	8
349.13873	24
367.13107	46
367.14996	57
368.13397	7
368.15009	18

NAME: Ginsenoside Ro
PRECURSORMZ: 955.49080374783
PRECURSORTYPE: [M-H]-
INSTRUMENTTYPE: LC-ESI-QTOF
SMILES: CC1(C)CCC2(CCC3(C)C(=CCC4C5(C)CCC(OC6OC(C(O)C(O)C6OC6OC(CO)C(O)C(O)C6O)C(O)=O)C(C)(C)C5CCC34C)C2C1)C(=O)OC1OC(CO)C(O)C(O)C1O
INCHIKEY: NFZYDZXHKFHPGA-UHFFFAOYNA-N
Ontology: Triterpene saponins
COLLISIONENERGY: 30
FORMULA: C48H76O19
RETENTIONTIME: 6.188283
IONMODE: Negative
Comment: registered in RIKEN PlaSMA
Num Peaks: 8
757.43115	5
793.42682	14
793.44873	33
794.42432	6
794.45056	9
795.44348	6
795.46808	6
955.49335	1000

NAME: Saikosaponin a
PRECURSORMZ: 779.45871584783
PRECURSORTYPE: [M-H]-
INSTRUMENTTYPE: LC-ESI-QTOF
SMILES: CC1OC(OC2CCC3(C)C(CCC4(C)C3C=CC35OCC6(CCC(C)(C)CC36)C(O)CC45C)C2(C)CO)C(O)C(OC2OC(CO)C(O)C(O)C2O)C1O
INCHIKEY: KYWSCMDFVARMPN-UHFFFAOYNA-N
Ontology: Triterpene saponins
COLLISIONENERGY: 30
FORMULA: C42H68O13
RETENTIONTIME: 7.132916
IONMODE: Negative
Comment: registered in RIKEN PlaSMA
Num Peaks: 11
161.04301	163
285.56873	43
393.73245	47
558.05688	69
617.39075	201
617.4068	414
618.4071	54
619.42578	59
620.40216	43
660.40765	47
779.46002	1000

NAME: Saikosaponin a
PRECURSORMZ: 825.46419515183
PRECURSORTYPE: [M+FA-H]-
INSTRUMENTTYPE: LC-ESI-QTOF
SMILES: CC1OC(OC2CCC3(C)C(CCC4(C)C3C=CC35OCC6(CCC(C)(C)CC36)C(O)CC45C)C2(C)CO)C(O)C(OC2OC(CO)C(O)C(O)C2O)C1O
INCHIKEY: KYWSCMDFVARMPN-UHFFFAOYNA-N
Ontology: Triterpene saponins
COLLISIONENERGY: 30
FORMULA: C42H68O13
RETENTIONTIME: 7.132916
IONMODE: Negative
Comment: registered in RIKEN PlaSMA
Num Peaks: 8
161.04208	7
617.40326	158
618.40656	38
779.45551	1000
780.45966	485
781.46405	123
782.47382	11
783.46155	6

NAME: Ginkgolide B
PRECURSORMZ: 423.12967054783
PRECURSORTYPE: [M-H]-
INSTRUMENTTYPE: LC-ESI-QTOF
SMILES: CC1C(=O)OC2C(O)C34C5CC(C(C)(C)C)C33C(O)C(=O)OC3OC4(C(=O)O5)C12O
INCHIKEY: SQOJOAFXDQDRGF-UHFFFAOYNA-N
Ontology: Ginkgolides and bilobalides
COLLISIONENERGY: 50
FORMULA: C20H24O10
RETENTIONTIME: 5.343283
IONMODE: Negative
Comment: registered in RIKEN PlaSMA
Num Peaks: 55
69.03218	273
70.04067	32
71.04594	31
73.02837	75
79.32269	32
81.03566	34
85.02548	144
86.02954	31
96.02029	31
96.05026	46
97.02786	312
97.48544	31
109.0303	68
113.02264	1000
120.04784	46
121.02512	46
121.03363	39
122.03453	31
125.02316	732
126.02671	31
137.02242	32
137.0542	36
139.03363	31
145.02466	32
146.03709	31
147.04607	217
148.04057	31
149.02902	31
149.06299	39
151.10687	31
157.06514	31
163.11307	42
164.05392	61
165.12077	34
171.12166	37
174.04164	42
177.00893	34
178.08771	31
181.11691	37
185.06216	44
186.06479	36
190.06976	36
201.05214	32
203.14255	34
204.12126	36
207.09607	34
209.12143	44
212.04251	90
221.15247	31
230.0535	59
231.13589	42
247.12393	39
308.10846	48
319.13757	37
386.60907	31

NAME: Ginsenoside Ro
PRECURSORMZ: 955.49080374783
PRECURSORTYPE: [M-H]-
INSTRUMENTTYPE: LC-ESI-QTOF
SMILES: CC1(C)CCC2(CCC3(C)C(=CCC4C5(C)CCC(OC6OC(C(O)C(O)C6OC6OC(CO)C(O)C(O)C6O)C(O)=O)C(C)(C)C5CCC34C)C2C1)C(=O)OC1OC(CO)C(O)C(O)C1O
INCHIKEY: NFZYDZXHKFHPGA-UHFFFAOYNA-N
Ontology: Triterpene saponins
COLLISIONENERGY: 50
FORMULA: C48H76O19
RETENTIONTIME: 6.188283
IONMODE: Negative
Comment: registered in RIKEN PlaSMA
Num Peaks: 127
71.0117	96
72.99055	17
73.02921	18
75.00897	85
85.02953	13
87.00593	14
89.02284	252
89.03112	18
90.02528	30
91.02344	13
95.00808	14
95.01481	65
99.00478	50
99.01088	118
101.02245	329
101.03456	15
101.11185	15
103.91206	13
113.02464	214
115.00584	28
119.03605	146
121.78767	15
129.01552	13
131.03627	28
149.03987	15
157.01266	178
158.02243	14
161.0517	37
161.87723	14
161.93602	18
173.0459	15
175.03476	15
257.07571	15
334.34628	31
360.64786	13
393.29016	15
446.11343	15
453.32471	15
453.34351	13
455.33438	42
455.34686	86
455.36703	22
456.35629	28
467.33331	13
469.37411	15
477.46313	20
481.34961	15
482.34216	13
497.36014	24
498.35941	13
503.65189	15
512.39917	15
513.12805	13
518.4693	15
523.37366	335
524.37469	60
524.39294	91
525.38104	34
526.38177	15
530.68561	15
537.34619	17
537.38824	15
537.40649	13
538.35754	15
538.38757	13
551.35657	26
552.34918	28
552.37653	29
553.48126	15
565.04144	15
569.38318	648
569.42151	32
570.36688	33
570.39136	144
571.39874	15
584.69812	17
587.36395	43
587.40216	100
588.39655	15
588.40942	37
612.68732	17
613.36896	261
613.39026	109
613.4295	13
614.37909	122
614.40271	28
614.71918	13
615.39398	16
628.38318	14
630.3822	17
637.37134	13
654.65704	18
659.42249	44
661.41766	26
665.68439	15
675.3764	14
713.40082	13
731.41919	140
731.4472	179
731.50208	16
732.4209	44
732.46045	43
733.42474	23
733.4494	50
734.45776	14
734.50781	14
736.71735	13
740.76642	13
749.50421	13
769.85443	13
775.43146	42
776.44257	15
781.07678	13
782.23126	15
783.21271	18
793.43726	1000
793.51532	15
794.43701	291
795.41962	13
795.4649	61
795.51233	13
796.4397	13
798.03296	13
835.41388	31
955.3609	14
955.49829	320
955.53625	25

NAME: Saikosaponin a
PRECURSORMZ: 779.45871584783
PRECURSORTYPE: [M-H]-
INSTRUMENTTYPE: LC-ESI-QTOF
SMILES: CC1OC(OC2CCC3(C)C(CCC4(C)C3C=CC35OCC6(CCC(C)(C)CC36)C(O)CC45C)C2(C)CO)C(O)C(OC2OC(CO)C(O)C(O)C2O)C1O
INCHIKEY: KYWSCMDFVARMPN-UHFFFAOYNA-N
Ontology: Triterpene saponins
COLLISIONENERGY: 50
FORMULA: C42H68O13
RETENTIONTIME: 7.132916
IONMODE: Negative
Comment: registered in RIKEN PlaSMA
Num Peaks: 14
60.01749	259
71.01165	167
72.01406	167
83.01205	204
85.02571	167
101.02435	1000
109.02734	185
113.02152	361
119.02763	176
119.03252	269
127.04912	231
129.01723	222
145.04968	343
617.38196	278

NAME: Saikosaponin a
PRECURSORMZ: 825.46419515183
PRECURSORTYPE: [M+FA-H]-
INSTRUMENTTYPE: LC-ESI-QTOF
SMILES: CC1OC(OC2CCC3(C)C(CCC4(C)C3C=CC35OCC6(CCC(C)(C)CC36)C(O)CC45C)C2(C)CO)C(O)C(OC2OC(CO)C(O)C(O)C2O)C1O
INCHIKEY: KYWSCMDFVARMPN-UHFFFAOYNA-N
Ontology: Triterpene saponins
COLLISIONENERGY: 50
FORMULA: C42H68O13
RETENTIONTIME: 7.132916
IONMODE: Negative
Comment: registered in RIKEN PlaSMA
Num Peaks: 91
59.01211	103
69.03274	8
71.00766	10
71.01382	70
73.03255	22
81.02998	9
81.0358	26
83.0173	18
83.05347	13
85.02937	127
86.03799	9
86.15517	8
87.02545	8
87.04839	8
89.02333	91
89.76672	8
90.01149	8
95.0085	9
95.01598	11
97.02879	10
99.01462	9
99.04285	58
101.02325	351
102.02679	18
103.03835	58
104.03746	11
109.02585	19
109.03371	9
113.02353	119
113.03317	9
113.06345	15
114.02393	10
115.0368	9
119.03168	34
119.03872	9
120.03255	9
125.02505	8
127.03677	25
127.04218	13
127.80309	9
128.0417	10
131.03285	9
139.03455	9
142.87875	13
143.03194	9
143.04285	9
145.04924	435
146.05077	25
147.05974	10
159.02631	27
161.03497	16
161.045	102
163.05746	17
179.0524	9
179.06316	9
187.06046	8
271.07764	8
375.29199	9
375.98434	9
400.96878	19
435.08569	11
439.30649	9
439.32074	20
440.31396	10
440.332	18
441.32132	9
451.3338	8
456.35516	11
471.35812	36
472.33231	9
513.34265	10
523.33844	9
541.32812	9
541.35077	10
559.45374	12
588.08588	10
617.40045	1000
618.39935	182
618.41931	157
618.44885	12
619.39398	9
619.41705	46
678.17249	8
779.4541	78
779.50098	8
780.4353	17
780.46008	26
780.487	9
781.48621	10
815.44196	18
825.46283	205

NAME: Maslinic acid
PRECURSORMZ: 517.35346285183
PRECURSORTYPE: [M+FA-H]-
INSTRUMENTTYPE: LC-ESI-QTOF
SMILES: CC1(C)CCC2(CCC3(C)C(=CCC4C5(C)CC(O)C(O)C(C)(C)C5CCC34C)C2C1)C(O)=O
INCHIKEY: MDZKJHQSJHYOHJ-UHFFFAOYNA-N
Ontology: Triterpenoids
COLLISIONENERGY: 50
FORMULA: C30H48O4
RETENTIONTIME: 9.748883
IONMODE: Negative
Comment: registered in RIKEN PlaSMA
Num Peaks: 4
405.30487	134
471.34018	1000
471.36621	255
472.34314	127

NAME: Petunidin 3-galactoside
PRECURSORMZ: 477.10330111576
PRECURSORTYPE: [M-2H]-
INSTRUMENTTYPE: LC-ESI-QTOF
SMILES: COC1=CC(=CC(O)=C1O)C1=C(OC2OC(CO)C(O)C(O)C2O)C=C2C(O)=CC(O)=CC2=[O+]1
INCHIKEY: CCQDWIRWKWIUKK-UHFFFAOYNA-O
Ontology: Anthocyanidin-3-O-glycosides
COLLISIONENERGY: 10
FORMULA: C22H23O12
RETENTIONTIME: 2.9038
IONMODE: Negative
Comment: registered in RIKEN PlaSMA
Num Peaks: 30
125.02437	34
126.02388	30
149.026	30
160.40617	27
188.04471	30
243.02319	30
244.03833	30
255.035	27
257.01462	27
258.49518	28
271.02621	30
271.03976	30
272.02295	61
282.0011	30
299.00986	99
299.0289	27
313.99646	27
314.01965	22
314.03452	148
314.04858	236
315.03345	88
315.04654	123
315.06018	67
316.04172	27
317.05328	30
318.04648	28
329.07022	28
453.09161	27
477.10336	1000
477.12131	242

NAME: Asiaticoside
PRECURSORMZ: 1003.51193315183
PRECURSORTYPE: [M+FA-H]-
INSTRUMENTTYPE: LC-ESI-QTOF
SMILES: CC1CCC2(CCC3(C)C(=CCC4C5(C)CC(O)C(O)C(C)(CO)C5CCC34C)C2C1C)C(=O)OC1OC(COC2OC(CO)C(OC3OC(C)C(O)C(O)C3O)C(O)C2O)C(O)C(O)C1O
INCHIKEY: WYQVAPGDARQUBT-UHFFFAOYNA-N
Ontology: Triterpene saponins
COLLISIONENERGY: 10
FORMULA: C48H78O19
RETENTIONTIME: 5.205133
IONMODE: Negative
Comment: registered in RIKEN PlaSMA
Num Peaks: 31
101.02322	30
113.02464	6
125.02327	11
141.01915	6
143.03351	8
161.02217	8
161.04546	84
163.04913	6
163.06122	28
167.03528	9
221.06509	5
247.08099	83
248.08594	11
265.09525	22
267.09756	5
323.09528	43
367.12564	56
368.12372	10
409.13986	7
469.15588	572
470.15826	102
471.15515	22
487.34238	225
488.34534	71
489.34454	5
957.50446	824
958.51031	434
959.46313	5
959.51831	115
960.50043	23
1003.51245	1000

NAME: Asiaticoside
PRECURSORMZ: 957.50645384783
PRECURSORTYPE: [M-H]-
INSTRUMENTTYPE: LC-ESI-QTOF
SMILES: CC1CCC2(CCC3(C)C(=CCC4C5(C)CC(O)C(O)C(C)(CO)C5CCC34C)C2C1C)C(=O)OC1OC(COC2OC(CO)C(OC3OC(C)C(O)C(O)C3O)C(O)C2O)C(O)C(O)C1O
INCHIKEY: WYQVAPGDARQUBT-UHFFFAOYNA-N
Ontology: Triterpene saponins
COLLISIONENERGY: 10
FORMULA: C48H78O19
RETENTIONTIME: 5.205133
IONMODE: Negative
Comment: registered in RIKEN PlaSMA
Num Peaks: 7
161.04065	175
205.07703	158
469.14893	325
469.16696	175
471.14618	175
488.33661	175
957.49469	1000

NAME: Saikosaponin b2
PRECURSORMZ: 779.45871584783
PRECURSORTYPE: [M-H]-
INSTRUMENTTYPE: LC-ESI-QTOF
SMILES: CC1OC(OC2CCC3(C)C(CCC4(C)C3C=CC3=C5CC(C)(C)CCC5(CO)C(O)CC43C)C2(C)CO)C(O)C(OC2OC(CO)C(O)C(O)C2O)C1O
INCHIKEY: WRYJYFCCMSVEPQ-UHFFFAOYNA-N
Ontology: Triterpene saponins
COLLISIONENERGY: 10
FORMULA: C42H68O13
RETENTIONTIME: 7.109433
IONMODE: Negative
Comment: registered in RIKEN PlaSMA
Num Peaks: 7
71.01431	46
97.02753	41
101.02457	64
145.05153	41
617.41058	192
618.38531	94
779.46112	1000

NAME: Saikosaponin b2
PRECURSORMZ: 825.46419515183
PRECURSORTYPE: [M+FA-H]-
INSTRUMENTTYPE: LC-ESI-QTOF
SMILES: CC1OC(OC2CCC3(C)C(CCC4(C)C3C=CC3=C5CC(C)(C)CCC5(CO)C(O)CC43C)C2(C)CO)C(O)C(OC2OC(CO)C(O)C(O)C2O)C1O
INCHIKEY: WRYJYFCCMSVEPQ-UHFFFAOYNA-N
Ontology: Triterpene saponins
COLLISIONENERGY: 10
FORMULA: C42H68O13
RETENTIONTIME: 7.109433
IONMODE: Negative
Comment: registered in RIKEN PlaSMA
Num Peaks: 14
59.01194	5
89.02514	6
101.02153	9
145.05345	15
161.04527	10
617.4082	142
618.40143	32
618.42297	16
619.4231	6
779.46033	1000
780.46216	469
781.46429	99
782.45776	13
825.4657	280

NAME: Petunidin 3-galactoside
PRECURSORMZ: 477.10330111576
PRECURSORTYPE: [M-2H]-
INSTRUMENTTYPE: LC-ESI-QTOF
SMILES: COC1=CC(=CC(O)=C1O)C1=C(OC2OC(CO)C(O)C(O)C2O)C=C2C(O)=CC(O)=CC2=[O+]1
INCHIKEY: CCQDWIRWKWIUKK-UHFFFAOYNA-O
Ontology: Anthocyanidin-3-O-glycosides
COLLISIONENERGY: 10
FORMULA: C22H23O12
RETENTIONTIME: 2.9038
IONMODE: Negative
Comment: registered in RIKEN PlaSMA
Num Peaks: 7
168.25574	9
313.04956	10
314.04529	50
476.99811	10
477.06348	17
477.1037	1000
477.14722	18

NAME: Asiaticoside
PRECURSORMZ: 1003.51193315183
PRECURSORTYPE: [M+FA-H]-
INSTRUMENTTYPE: LC-ESI-QTOF
SMILES: CC1CCC2(CCC3(C)C(=CCC4C5(C)CC(O)C(O)C(C)(CO)C5CCC34C)C2C1C)C(=O)OC1OC(COC2OC(CO)C(OC3OC(C)C(O)C(O)C3O)C(O)C2O)C(O)C(O)C1O
INCHIKEY: WYQVAPGDARQUBT-UHFFFAOYNA-N
Ontology: Triterpene saponins
COLLISIONENERGY: 10
FORMULA: C48H78O19
RETENTIONTIME: 5.205133
IONMODE: Negative
Comment: registered in RIKEN PlaSMA
Num Peaks: 6
957.50317	103
958.48865	32
958.51556	15
959.50763	10
1003.50928	1000
1003.56903	7

NAME: Asiaticoside
PRECURSORMZ: 957.50645384783
PRECURSORTYPE: [M-H]-
INSTRUMENTTYPE: LC-ESI-QTOF
SMILES: CC1CCC2(CCC3(C)C(=CCC4C5(C)CC(O)C(O)C(C)(CO)C5CCC34C)C2C1C)C(=O)OC1OC(COC2OC(CO)C(OC3OC(C)C(O)C(O)C3O)C(O)C2O)C(O)C(O)C1O
INCHIKEY: WYQVAPGDARQUBT-UHFFFAOYNA-N
Ontology: Triterpene saponins
COLLISIONENERGY: 10
FORMULA: C48H78O19
RETENTIONTIME: 5.205133
IONMODE: Negative
Comment: registered in RIKEN PlaSMA
Num Peaks: 3
129.05164	57
957.50519	1000
957.57111	63

NAME: Saikosaponin b2
PRECURSORMZ: 779.45871584783
PRECURSORTYPE: [M-H]-
INSTRUMENTTYPE: LC-ESI-QTOF
SMILES: CC1OC(OC2CCC3(C)C(CCC4(C)C3C=CC3=C5CC(C)(C)CCC5(CO)C(O)CC43C)C2(C)CO)C(O)C(OC2OC(CO)C(O)C(O)C2O)C1O
INCHIKEY: WRYJYFCCMSVEPQ-UHFFFAOYNA-N
Ontology: Triterpene saponins
COLLISIONENERGY: 10
FORMULA: C42H68O13
RETENTIONTIME: 7.109433
IONMODE: Negative
Comment: registered in RIKEN PlaSMA
Num Peaks: 2
130.23521	27
779.45868	1000

NAME: Saikosaponin b2
PRECURSORMZ: 825.46419515183
PRECURSORTYPE: [M+FA-H]-
INSTRUMENTTYPE: LC-ESI-QTOF
SMILES: CC1OC(OC2CCC3(C)C(CCC4(C)C3C=CC3=C5CC(C)(C)CCC5(CO)C(O)CC43C)C2(C)CO)C(O)C(OC2OC(CO)C(O)C(O)C2O)C1O
INCHIKEY: WRYJYFCCMSVEPQ-UHFFFAOYNA-N
Ontology: Triterpene saponins
COLLISIONENERGY: 10
FORMULA: C42H68O13
RETENTIONTIME: 7.109433
IONMODE: Negative
Comment: registered in RIKEN PlaSMA
Num Peaks: 5
779.45929	443
780.45929	118
781.4671	27
783.46222	5
825.46399	1000

NAME: Petunidin 3-galactoside
PRECURSORMZ: 477.10330111576
PRECURSORTYPE: [M-2H]-
INSTRUMENTTYPE: LC-ESI-QTOF
SMILES: COC1=CC(=CC(O)=C1O)C1=C(OC2OC(CO)C(O)C(O)C2O)C=C2C(O)=CC(O)=CC2=[O+]1
INCHIKEY: CCQDWIRWKWIUKK-UHFFFAOYNA-O
Ontology: Anthocyanidin-3-O-glycosides
COLLISIONENERGY: 30
FORMULA: C22H23O12
RETENTIONTIME: 2.9038
IONMODE: Negative
Comment: registered in RIKEN PlaSMA
Num Peaks: 29
125.01592	19
125.02512	96
147.00786	19
149.02452	33
189.02472	19
190.02522	25
203.8299	19
217.05139	19
230.03082	19
261.08588	21
271.01764	41
274.04379	19
281.00504	19
290.05164	27
298.00491	22
299.01611	245
299.03464	55
300.01068	22
300.02426	69
300.04199	19
301.02759	42
302.02045	19
313.02698	41
314.01965	19
314.0441	1000
315.03616	96
315.05029	316
316.05289	69
329.06866	40

NAME: Asiaticoside
PRECURSORMZ: 1003.51193315183
PRECURSORTYPE: [M+FA-H]-
INSTRUMENTTYPE: LC-ESI-QTOF
SMILES: CC1CCC2(CCC3(C)C(=CCC4C5(C)CC(O)C(O)C(C)(CO)C5CCC34C)C2C1C)C(=O)OC1OC(COC2OC(CO)C(OC3OC(C)C(O)C(O)C3O)C(O)C2O)C(O)C(O)C1O
INCHIKEY: WYQVAPGDARQUBT-UHFFFAOYNA-N
Ontology: Triterpene saponins
COLLISIONENERGY: 30
FORMULA: C48H78O19
RETENTIONTIME: 5.205133
IONMODE: Negative
Comment: registered in RIKEN PlaSMA
Num Peaks: 28
101.02293	7
125.01891	5
125.02649	14
161.04411	83
162.04475	6
163.05775	10
163.06541	9
205.07446	6
247.08177	76
248.07874	6
265.08475	19
265.09521	21
323.09384	36
325.10455	7
325.11752	15
367.12296	54
409.12451	12
409.13953	7
451.15485	6
469.1554	1000
470.16086	214
471.16013	34
487.3428	141
488.34439	41
957.50671	585
958.51062	349
959.508	85
960.5163	25

NAME: Asiaticoside
PRECURSORMZ: 957.50645384783
PRECURSORTYPE: [M-H]-
INSTRUMENTTYPE: LC-ESI-QTOF
SMILES: CC1CCC2(CCC3(C)C(=CCC4C5(C)CC(O)C(O)C(C)(CO)C5CCC34C)C2C1C)C(=O)OC1OC(COC2OC(CO)C(OC3OC(C)C(O)C(O)C3O)C(O)C2O)C(O)C(O)C1O
INCHIKEY: WYQVAPGDARQUBT-UHFFFAOYNA-N
Ontology: Triterpene saponins
COLLISIONENERGY: 30
FORMULA: C48H78O19
RETENTIONTIME: 5.205133
IONMODE: Negative
Comment: registered in RIKEN PlaSMA
Num Peaks: 10
143.03397	165
161.03999	359
161.04865	169
247.08072	203
367.11667	100
469.1239	91
469.1572	1000
470.14966	108
837.4516	87
957.50751	165

NAME: Saikosaponin b2
PRECURSORMZ: 779.45871584783
PRECURSORTYPE: [M-H]-
INSTRUMENTTYPE: LC-ESI-QTOF
SMILES: CC1OC(OC2CCC3(C)C(CCC4(C)C3C=CC3=C5CC(C)(C)CCC5(CO)C(O)CC43C)C2(C)CO)C(O)C(OC2OC(CO)C(O)C(O)C2O)C1O
INCHIKEY: WRYJYFCCMSVEPQ-UHFFFAOYNA-N
Ontology: Triterpene saponins
COLLISIONENERGY: 30
FORMULA: C42H68O13
RETENTIONTIME: 7.109433
IONMODE: Negative
Comment: registered in RIKEN PlaSMA
Num Peaks: 8
101.01947	105
143.03212	57
145.0619	64
161.03889	100
617.40253	272
617.42493	136
618.41193	103
779.4538	1000

NAME: Saikosaponin b2
PRECURSORMZ: 825.46419515183
PRECURSORTYPE: [M+FA-H]-
INSTRUMENTTYPE: LC-ESI-QTOF
SMILES: CC1OC(OC2CCC3(C)C(CCC4(C)C3C=CC3=C5CC(C)(C)CCC5(CO)C(O)CC43C)C2(C)CO)C(O)C(OC2OC(CO)C(O)C(O)C2O)C1O
INCHIKEY: WRYJYFCCMSVEPQ-UHFFFAOYNA-N
Ontology: Triterpene saponins
COLLISIONENERGY: 30
FORMULA: C42H68O13
RETENTIONTIME: 7.109433
IONMODE: Negative
Comment: registered in RIKEN PlaSMA
Num Peaks: 11
113.01927	6
161.04895	7
617.40338	145
617.44757	6
618.41278	28
619.40576	10
779.45856	1000
780.46179	433
781.46417	120
782.46027	10
783.46405	7

NAME: Petunidin 3-galactoside
PRECURSORMZ: 477.10330111576
PRECURSORTYPE: [M-2H]-
INSTRUMENTTYPE: LC-ESI-QTOF
SMILES: COC1=CC(=CC(O)=C1O)C1=C(OC2OC(CO)C(O)C(O)C2O)C=C2C(O)=CC(O)=CC2=[O+]1
INCHIKEY: CCQDWIRWKWIUKK-UHFFFAOYNA-O
Ontology: Anthocyanidin-3-O-glycosides
COLLISIONENERGY: 50
FORMULA: C22H23O12
RETENTIONTIME: 2.9038
IONMODE: Negative
Comment: registered in RIKEN PlaSMA
Num Peaks: 32
115.05276	88
123.00945	79
125.01785	93
125.03046	119
126.02596	110
138.02242	110
153.03075	110
155.04474	115
161.0231	106
169.05994	79
177.01544	88
183.04184	79
187.04146	471
201.01779	445
203.03249	79
214.03447	97
215.03302	414
226.01605	79
227.03065	233
243.0305	1000
255.02597	123
255.03975	84
270.01205	159
271.01123	93
271.02533	467
272.02859	79
272.03714	79
281.0033	88
282.01398	93
295.02588	101
298.00458	97
300.03006	106

NAME: Asiaticoside
PRECURSORMZ: 1003.51193315183
PRECURSORTYPE: [M+FA-H]-
INSTRUMENTTYPE: LC-ESI-QTOF
SMILES: CC1CCC2(CCC3(C)C(=CCC4C5(C)CC(O)C(O)C(C)(CO)C5CCC34C)C2C1C)C(=O)OC1OC(COC2OC(CO)C(OC3OC(C)C(O)C(O)C3O)C(O)C2O)C(O)C(O)C1O
INCHIKEY: WYQVAPGDARQUBT-UHFFFAOYNA-N
Ontology: Triterpene saponins
COLLISIONENERGY: 50
FORMULA: C48H78O19
RETENTIONTIME: 5.205133
IONMODE: Negative
Comment: registered in RIKEN PlaSMA
Num Peaks: 41
59.01204	10
71.01242	7
73.02818	16
89.01942	5
89.02526	10
97.02756	16
101.02252	237
102.02497	10
103.03859	15
113.02286	17
115.04248	6
119.03549	16
125.02286	56
127.03123	5
131.03201	10
143.03423	56
145.04938	10
161.04437	113
163.05823	84
179.05443	8
205.06555	31
205.0748	31
221.06474	70
222.07019	6
245.06493	17
247.08002	131
248.08177	11
249.08289	7
263.07666	15
265.09232	6
323.09744	53
324.10196	6
349.11285	7
367.12027	34
391.1207	6
409.13165	33
410.13675	7
469.15259	47
487.34024	1000
488.34277	274
489.3479	51

NAME: Asiaticoside
PRECURSORMZ: 957.50645384783
PRECURSORTYPE: [M-H]-
INSTRUMENTTYPE: LC-ESI-QTOF
SMILES: CC1CCC2(CCC3(C)C(=CCC4C5(C)CC(O)C(O)C(C)(CO)C5CCC34C)C2C1C)C(=O)OC1OC(COC2OC(CO)C(OC3OC(C)C(O)C(O)C3O)C(O)C2O)C(O)C(O)C1O
INCHIKEY: WYQVAPGDARQUBT-UHFFFAOYNA-N
Ontology: Triterpene saponins
COLLISIONENERGY: 50
FORMULA: C48H78O19
RETENTIONTIME: 5.205133
IONMODE: Negative
Comment: registered in RIKEN PlaSMA
Num Peaks: 8
125.02399	116
163.0576	105
181.04974	122
205.06544	180
368.12436	134
487.33582	1000
488.3418	105
488.36188	238

NAME: Saikosaponin b2
PRECURSORMZ: 779.45871584783
PRECURSORTYPE: [M-H]-
INSTRUMENTTYPE: LC-ESI-QTOF
SMILES: CC1OC(OC2CCC3(C)C(CCC4(C)C3C=CC3=C5CC(C)(C)CCC5(CO)C(O)CC43C)C2(C)CO)C(O)C(OC2OC(CO)C(O)C(O)C2O)C1O
INCHIKEY: WRYJYFCCMSVEPQ-UHFFFAOYNA-N
Ontology: Triterpene saponins
COLLISIONENERGY: 50
FORMULA: C42H68O13
RETENTIONTIME: 7.109433
IONMODE: Negative
Comment: registered in RIKEN PlaSMA
Num Peaks: 9
59.01283	225
85.02991	262
89.02455	500
101.0236	1000
103.04133	250
119.03791	225
145.04996	225
424.32968	262
425.33087	275

NAME: Saikosaponin b2
PRECURSORMZ: 825.46419515183
PRECURSORTYPE: [M+FA-H]-
INSTRUMENTTYPE: LC-ESI-QTOF
SMILES: CC1OC(OC2CCC3(C)C(CCC4(C)C3C=CC3=C5CC(C)(C)CCC5(CO)C(O)CC43C)C2(C)CO)C(O)C(OC2OC(CO)C(O)C(O)C2O)C1O
INCHIKEY: WRYJYFCCMSVEPQ-UHFFFAOYNA-N
Ontology: Triterpene saponins
COLLISIONENERGY: 50
FORMULA: C42H68O13
RETENTIONTIME: 7.109433
IONMODE: Negative
Comment: registered in RIKEN PlaSMA
Num Peaks: 66
59.01038	35
59.0144	49
71.01389	133
73.02695	14
73.03446	16
75.72	14
81.03947	14
83.01347	23
83.04686	15
84.28778	16
85.0274	273
87.04372	15
89.02222	281
90.0254	35
99.03716	17
99.04707	58
101.02352	734
103.0253	14
103.04196	78
104.03994	16
107.0364	15
109.03125	75
113.02021	38
113.02529	90
115.00536	21
115.04198	18
119.03148	57
119.03796	32
121.03984	14
124.90565	14
127.0387	76
129.01532	14
143.03346	30
145.04951	658
146.04277	16
146.06013	21
147.0497	14
159.02884	14
161.0428	91
161.04982	25
163.05804	14
164.06859	15
169.77287	17
179.05138	14
284.70145	16
372.04404	16
391.29407	16
405.30783	15
423.32199	14
424.33072	14
425.8161	16
451.31686	16
453.33203	15
471.33572	18
471.35309	14
472.34241	14
473.34622	19
541.33466	14
543.38141	20
617.40417	1000
618.38196	32
618.41412	183
619.39789	14
779.46368	29
780.45135	34
780.47644	14

NAME: Petunidin 3-galactoside
PRECURSORMZ: 477.10330111576
PRECURSORTYPE: [M-2H]-
INSTRUMENTTYPE: LC-ESI-QTOF
SMILES: COC1=CC(=CC(O)=C1O)C1=C(OC2OC(CO)C(O)C(O)C2O)C=C2C(O)=CC(O)=CC2=[O+]1
INCHIKEY: CCQDWIRWKWIUKK-UHFFFAOYNA-O
Ontology: Anthocyanidin-3-O-glycosides
COLLISIONENERGY: 10
FORMULA: C22H23O12
RETENTIONTIME: 2.9038
IONMODE: Negative
Comment: registered in RIKEN PlaSMA
Num Peaks: 23
125.02226	74
147.00214	37
155.02823	43
227.02469	29
239.03247	50
243.02885	68
254.0132	28
271.00717	46
271.03369	33
274.00772	31
288.0079	43
299.01669	330
299.03616	28
314.03021	39
314.04739	333
315.04324	104
315.05804	127
316.06079	59
320.10416	45
329.05325	59
339.052	31
394.08411	28
477.10312	1000

NAME: Asiaticoside
PRECURSORMZ: 1003.51193315183
PRECURSORTYPE: [M+FA-H]-
INSTRUMENTTYPE: LC-ESI-QTOF
SMILES: CC1CCC2(CCC3(C)C(=CCC4C5(C)CC(O)C(O)C(C)(CO)C5CCC34C)C2C1C)C(=O)OC1OC(COC2OC(CO)C(OC3OC(C)C(O)C(O)C3O)C(O)C2O)C(O)C(O)C1O
INCHIKEY: WYQVAPGDARQUBT-UHFFFAOYNA-N
Ontology: Triterpene saponins
COLLISIONENERGY: 10
FORMULA: C48H78O19
RETENTIONTIME: 5.205133
IONMODE: Negative
Comment: registered in RIKEN PlaSMA
Num Peaks: 38
73.02718	6
101.02271	17
115.03928	5
125.01909	5
143.03734	8
161.04347	114
163.05881	38
164.05841	8
164.06964	7
167.03316	8
205.06996	16
221.06662	8
247.08044	121
248.08177	5
265.08865	32
267.09787	5
323.09897	35
324.10135	6
325.11179	5
367.12396	75
368.12411	10
409.12997	27
469.15402	588
470.15686	107
471.1499	8
471.16916	16
487.33987	277
488.34491	71
489.328	5
489.35254	8
957.50171	913
958.50702	459
959.5152	108
960.52295	34
961.47906	6
961.52271	11
1003.41248	5
1003.50787	1000

NAME: Asiaticoside
PRECURSORMZ: 957.50645384783
PRECURSORTYPE: [M-H]-
INSTRUMENTTYPE: LC-ESI-QTOF
SMILES: CC1CCC2(CCC3(C)C(=CCC4C5(C)CC(O)C(O)C(C)(CO)C5CCC34C)C2C1C)C(=O)OC1OC(COC2OC(CO)C(OC3OC(C)C(O)C(O)C3O)C(O)C2O)C(O)C(O)C1O
INCHIKEY: WYQVAPGDARQUBT-UHFFFAOYNA-N
Ontology: Triterpene saponins
COLLISIONENERGY: 10
FORMULA: C48H78O19
RETENTIONTIME: 5.205133
IONMODE: Negative
Comment: registered in RIKEN PlaSMA
Num Peaks: 9
163.05972	158
205.08807	167
323.09338	167
469.14835	158
469.16452	360
470.14688	193
487.34692	202
488.35867	211
957.5047	1000

NAME: Saikosaponin b2
PRECURSORMZ: 779.45871584783
PRECURSORTYPE: [M-H]-
INSTRUMENTTYPE: LC-ESI-QTOF
SMILES: CC1OC(OC2CCC3(C)C(CCC4(C)C3C=CC3=C5CC(C)(C)CCC5(CO)C(O)CC43C)C2(C)CO)C(O)C(OC2OC(CO)C(O)C(O)C2O)C1O
INCHIKEY: WRYJYFCCMSVEPQ-UHFFFAOYNA-N
Ontology: Triterpene saponins
COLLISIONENERGY: 10
FORMULA: C42H68O13
RETENTIONTIME: 7.109433
IONMODE: Negative
Comment: registered in RIKEN PlaSMA
Num Peaks: 7
119.03302	47
366.9389	35
388.70166	35
617.40027	114
617.41211	41
768.88153	37
779.45337	1000

NAME: Saikosaponin b2
PRECURSORMZ: 825.46419515183
PRECURSORTYPE: [M+FA-H]-
INSTRUMENTTYPE: LC-ESI-QTOF
SMILES: CC1OC(OC2CCC3(C)C(CCC4(C)C3C=CC3=C5CC(C)(C)CCC5(CO)C(O)CC43C)C2(C)CO)C(O)C(OC2OC(CO)C(O)C(O)C2O)C1O
INCHIKEY: WRYJYFCCMSVEPQ-UHFFFAOYNA-N
Ontology: Triterpene saponins
COLLISIONENERGY: 10
FORMULA: C42H68O13
RETENTIONTIME: 7.109433
IONMODE: Negative
Comment: registered in RIKEN PlaSMA
Num Peaks: 16
89.02136	9
127.04276	8
145.04628	5
145.05733	5
161.04761	7
617.40344	196
618.40179	48
619.40125	14
619.42328	6
779.4552	1000
779.51111	9
780.45929	496
781.4632	92
782.44147	13
782.4707	7
825.4624	354

NAME: Petunidin 3-galactoside
PRECURSORMZ: 477.10330111576
PRECURSORTYPE: [M-2H]-
INSTRUMENTTYPE: LC-ESI-QTOF
SMILES: COC1=CC(=CC(O)=C1O)C1=C(OC2OC(CO)C(O)C(O)C2O)C=C2C(O)=CC(O)=CC2=[O+]1
INCHIKEY: CCQDWIRWKWIUKK-UHFFFAOYNA-O
Ontology: Anthocyanidin-3-O-glycosides
COLLISIONENERGY: 10
FORMULA: C22H23O12
RETENTIONTIME: 2.9038
IONMODE: Negative
Comment: registered in RIKEN PlaSMA
Num Peaks: 7
253.85719	12
314.03232	12
325.75284	10
337.04642	9
390.57156	9
432.10498	16
477.10123	1000

NAME: Asiaticoside
PRECURSORMZ: 1003.51193315183
PRECURSORTYPE: [M+FA-H]-
INSTRUMENTTYPE: LC-ESI-QTOF
SMILES: CC1CCC2(CCC3(C)C(=CCC4C5(C)CC(O)C(O)C(C)(CO)C5CCC34C)C2C1C)C(=O)OC1OC(COC2OC(CO)C(OC3OC(C)C(O)C(O)C3O)C(O)C2O)C(O)C(O)C1O
INCHIKEY: WYQVAPGDARQUBT-UHFFFAOYNA-N
Ontology: Triterpene saponins
COLLISIONENERGY: 10
FORMULA: C48H78O19
RETENTIONTIME: 5.205133
IONMODE: Negative
Comment: registered in RIKEN PlaSMA
Num Peaks: 5
957.51068	102
958.49243	28
958.51691	42
959.50488	20
1003.51532	1000

NAME: Asiaticoside
PRECURSORMZ: 957.50645384783
PRECURSORTYPE: [M-H]-
INSTRUMENTTYPE: LC-ESI-QTOF
SMILES: CC1CCC2(CCC3(C)C(=CCC4C5(C)CC(O)C(O)C(C)(CO)C5CCC34C)C2C1C)C(=O)OC1OC(COC2OC(CO)C(OC3OC(C)C(O)C(O)C3O)C(O)C2O)C(O)C(O)C1O
INCHIKEY: WYQVAPGDARQUBT-UHFFFAOYNA-N
Ontology: Triterpene saponins
COLLISIONENERGY: 10
FORMULA: C48H78O19
RETENTIONTIME: 5.205133
IONMODE: Negative
Comment: registered in RIKEN PlaSMA
Num Peaks: 3
885.41034	123
957.44745	111
957.50439	1000

NAME: Saikosaponin b2
PRECURSORMZ: 779.45871584783
PRECURSORTYPE: [M-H]-
INSTRUMENTTYPE: LC-ESI-QTOF
SMILES: CC1OC(OC2CCC3(C)C(CCC4(C)C3C=CC3=C5CC(C)(C)CCC5(CO)C(O)CC43C)C2(C)CO)C(O)C(OC2OC(CO)C(O)C(O)C2O)C1O
INCHIKEY: WRYJYFCCMSVEPQ-UHFFFAOYNA-N
Ontology: Triterpene saponins
COLLISIONENERGY: 10
FORMULA: C42H68O13
RETENTIONTIME: 7.109433
IONMODE: Negative
Comment: registered in RIKEN PlaSMA
Num Peaks: 4
313.7598	24
318.021	24
415.35275	29
779.45709	1000

NAME: Petunidin 3-galactoside
PRECURSORMZ: 477.10330111576
PRECURSORTYPE: [M-2H]-
INSTRUMENTTYPE: LC-ESI-QTOF
SMILES: COC1=CC(=CC(O)=C1O)C1=C(OC2OC(CO)C(O)C(O)C2O)C=C2C(O)=CC(O)=CC2=[O+]1
INCHIKEY: CCQDWIRWKWIUKK-UHFFFAOYNA-O
Ontology: Anthocyanidin-3-O-glycosides
COLLISIONENERGY: 30
FORMULA: C22H23O12
RETENTIONTIME: 2.9038
IONMODE: Negative
Comment: registered in RIKEN PlaSMA
Num Peaks: 34
99.69479	23
123.00368	23
125.01495	24
125.02353	171
125.0682	34
203.03629	23
205.04248	25
207.0251	23
228.03893	25
231.02464	25
242.20525	26
247.0631	34
269.99844	30
271.01443	25
271.02722	40
272.04358	34
288.06064	24
297.02911	28
298.99564	26
299.00916	145
299.01987	482
300.01868	121
300.03226	53
300.04681	50
301.02249	31
301.0325	23
313.03873	25
314.04501	1000
315.03195	34
315.04694	214
315.05981	99
316.04852	49
318.02881	30
402.60181	24

NAME: Asiaticoside
PRECURSORMZ: 1003.51193315183
PRECURSORTYPE: [M+FA-H]-
INSTRUMENTTYPE: LC-ESI-QTOF
SMILES: CC1CCC2(CCC3(C)C(=CCC4C5(C)CC(O)C(O)C(C)(CO)C5CCC34C)C2C1C)C(=O)OC1OC(COC2OC(CO)C(OC3OC(C)C(O)C(O)C3O)C(O)C2O)C(O)C(O)C1O
INCHIKEY: WYQVAPGDARQUBT-UHFFFAOYNA-N
Ontology: Triterpene saponins
COLLISIONENERGY: 30
FORMULA: C48H78O19
RETENTIONTIME: 5.205133
IONMODE: Negative
Comment: registered in RIKEN PlaSMA
Num Peaks: 29
101.02213	15
125.01984	7
125.02613	10
143.03416	11
161.03737	15
161.04521	52
163.05673	12
205.06915	6
247.07858	57
265.08957	35
323.09274	45
325.10794	12
325.12024	9
367.12515	38
368.11908	8
409.12766	7
409.14496	7
451.14056	6
469.09872	5
469.1539	1000
470.15747	181
471.15906	26
487.34183	148
488.33481	14
488.35309	17
957.50488	631
958.50836	328
959.50946	81
960.52014	28

NAME: Asiaticoside
PRECURSORMZ: 957.50645384783
PRECURSORTYPE: [M-H]-
INSTRUMENTTYPE: LC-ESI-QTOF
SMILES: CC1CCC2(CCC3(C)C(=CCC4C5(C)CC(O)C(O)C(C)(CO)C5CCC34C)C2C1C)C(=O)OC1OC(COC2OC(CO)C(OC3OC(C)C(O)C(O)C3O)C(O)C2O)C(O)C(O)C1O
INCHIKEY: WYQVAPGDARQUBT-UHFFFAOYNA-N
Ontology: Triterpene saponins
COLLISIONENERGY: 30
FORMULA: C48H78O19
RETENTIONTIME: 5.205133
IONMODE: Negative
Comment: registered in RIKEN PlaSMA
Num Peaks: 17
101.02071	194
143.03409	185
155.04004	269
161.04295	250
163.06047	370
247.08438	167
266.08945	185
323.09436	194
367.13705	167
410.14001	167
469.14746	1000
469.16986	537
470.14825	380
470.16434	185
487.33514	370
488.32831	380
488.35419	204

NAME: Saikosaponin b2
PRECURSORMZ: 779.45871584783
PRECURSORTYPE: [M-H]-
INSTRUMENTTYPE: LC-ESI-QTOF
SMILES: CC1OC(OC2CCC3(C)C(CCC4(C)C3C=CC3=C5CC(C)(C)CCC5(CO)C(O)CC43C)C2(C)CO)C(O)C(OC2OC(CO)C(O)C(O)C2O)C1O
INCHIKEY: WRYJYFCCMSVEPQ-UHFFFAOYNA-N
Ontology: Triterpene saponins
COLLISIONENERGY: 30
FORMULA: C42H68O13
RETENTIONTIME: 7.109433
IONMODE: Negative
Comment: registered in RIKEN PlaSMA
Num Peaks: 11
73.02805	126
85.02527	59
89.02214	51
423.31357	53
478.86478	62
617.409	654
617.4361	53
618.41028	185
619.43286	67
637.18201	65
779.4657	1000

NAME: Saikosaponin b2
PRECURSORMZ: 825.46419515183
PRECURSORTYPE: [M+FA-H]-
INSTRUMENTTYPE: LC-ESI-QTOF
SMILES: CC1OC(OC2CCC3(C)C(CCC4(C)C3C=CC3=C5CC(C)(C)CCC5(CO)C(O)CC43C)C2(C)CO)C(O)C(OC2OC(CO)C(O)C(O)C2O)C1O
INCHIKEY: WRYJYFCCMSVEPQ-UHFFFAOYNA-N
Ontology: Triterpene saponins
COLLISIONENERGY: 30
FORMULA: C42H68O13
RETENTIONTIME: 7.109433
IONMODE: Negative
Comment: registered in RIKEN PlaSMA
Num Peaks: 11
101.0249	5
161.04407	12
617.40533	143
618.41022	51
779.45874	1000
779.53131	8
780.46167	457
781.466	81
782.43683	7
782.46979	25
782.50415	5

NAME: Petunidin 3-galactoside
PRECURSORMZ: 477.10330111576
PRECURSORTYPE: [M-2H]-
INSTRUMENTTYPE: LC-ESI-QTOF
SMILES: COC1=CC(=CC(O)=C1O)C1=C(OC2OC(CO)C(O)C(O)C2O)C=C2C(O)=CC(O)=CC2=[O+]1
INCHIKEY: CCQDWIRWKWIUKK-UHFFFAOYNA-O
Ontology: Anthocyanidin-3-O-glycosides
COLLISIONENERGY: 50
FORMULA: C22H23O12
RETENTIONTIME: 2.9038
IONMODE: Negative
Comment: registered in RIKEN PlaSMA
Num Peaks: 40
119.01616	106
124.01741	154
131.04906	96
145.0302	87
147.00983	91
150.03024	106
151.01036	101
156.04971	96
171.03474	96
175.04546	91
177.02383	96
182.03273	96
183.04201	87
187.03828	221
197.02153	101
198.03145	96
199.02986	183
199.0415	202
201.03691	111
203.02902	111
203.03763	91
207.04457	91
215.03107	312
227.02901	188
227.03934	197
232.03157	87
243.03134	1000
244.03596	101
253.00294	91
254.02036	188
255.03351	96
270.02164	96
271.01996	288
271.0365	130
272.01978	120
272.03824	96
281.00812	91
282.01279	87
282.0257	106
299.01385	279

NAME: Asiaticoside
PRECURSORMZ: 1003.51193315183
PRECURSORTYPE: [M+FA-H]-
INSTRUMENTTYPE: LC-ESI-QTOF
SMILES: CC1CCC2(CCC3(C)C(=CCC4C5(C)CC(O)C(O)C(C)(CO)C5CCC34C)C2C1C)C(=O)OC1OC(COC2OC(CO)C(OC3OC(C)C(O)C(O)C3O)C(O)C2O)C(O)C(O)C1O
INCHIKEY: WYQVAPGDARQUBT-UHFFFAOYNA-N
Ontology: Triterpene saponins
COLLISIONENERGY: 50
FORMULA: C48H78O19
RETENTIONTIME: 5.205133
IONMODE: Negative
Comment: registered in RIKEN PlaSMA
Num Peaks: 48
59.01266	9
73.02615	12
83.01424	5
89.02689	17
97.02736	14
101.02268	215
102.02802	7
103.03847	31
113.02225	15
115.0374	10
119.03363	25
125.02309	55
131.03384	12
141.01108	7
143.03378	97
145.04677	10
161.04424	146
162.05164	6
163.05855	112
164.0661	6
167.0334	6
179.05754	13
203.04967	5
205.07028	79
221.06664	35
221.07512	8
245.06647	17
247.08105	112
248.08151	12
263.07724	10
265.09122	6
323.091	21
323.10324	40
324.08823	6
349.11407	8
367.12265	57
368.13245	8
391.11703	8
409.1272	16
409.15466	5
469.15506	19
469.16928	12
470.14554	6
487.34113	1000
487.37253	5
488.3432	297
489.32553	8
489.35104	42

NAME: Asiaticoside
PRECURSORMZ: 957.50645384783
PRECURSORTYPE: [M-H]-
INSTRUMENTTYPE: LC-ESI-QTOF
SMILES: CC1CCC2(CCC3(C)C(=CCC4C5(C)CC(O)C(O)C(C)(CO)C5CCC34C)C2C1C)C(=O)OC1OC(COC2OC(CO)C(OC3OC(C)C(O)C(O)C3O)C(O)C2O)C(O)C(O)C1O
INCHIKEY: WYQVAPGDARQUBT-UHFFFAOYNA-N
Ontology: Triterpene saponins
COLLISIONENERGY: 50
FORMULA: C48H78O19
RETENTIONTIME: 5.205133
IONMODE: Negative
Comment: registered in RIKEN PlaSMA
Num Peaks: 11
73.02732	318
113.02401	288
125.02348	333
145.0442	333
205.06683	364
367.12039	364
391.13263	273
487.33463	909
487.35461	1000
488.33655	621
489.34827	273

NAME: Saikosaponin b2
PRECURSORMZ: 779.45871584783
PRECURSORTYPE: [M-H]-
INSTRUMENTTYPE: LC-ESI-QTOF
SMILES: CC1OC(OC2CCC3(C)C(CCC4(C)C3C=CC3=C5CC(C)(C)CCC5(CO)C(O)CC43C)C2(C)CO)C(O)C(OC2OC(CO)C(O)C(O)C2O)C1O
INCHIKEY: WRYJYFCCMSVEPQ-UHFFFAOYNA-N
Ontology: Triterpene saponins
COLLISIONENERGY: 50
FORMULA: C42H68O13
RETENTIONTIME: 7.109433
IONMODE: Negative
Comment: registered in RIKEN PlaSMA
Num Peaks: 14
59.01204	345
71.01353	173
71.01788	182
73.03007	382
85.02618	555
95.0117	182
101.02541	1000
113.02519	218
145.04951	573
161.04958	200
376.28665	191
423.3284	182
617.44196	227
618.4317	527

NAME: Saikosaponin b2
PRECURSORMZ: 825.46419515183
PRECURSORTYPE: [M+FA-H]-
INSTRUMENTTYPE: LC-ESI-QTOF
SMILES: CC1OC(OC2CCC3(C)C(CCC4(C)C3C=CC3=C5CC(C)(C)CCC5(CO)C(O)CC43C)C2(C)CO)C(O)C(OC2OC(CO)C(O)C(O)C2O)C1O
INCHIKEY: WRYJYFCCMSVEPQ-UHFFFAOYNA-N
Ontology: Triterpene saponins
COLLISIONENERGY: 50
FORMULA: C42H68O13
RETENTIONTIME: 7.109433
IONMODE: Negative
Comment: registered in RIKEN PlaSMA
Num Peaks: 80
59.01358	145
60.01427	13
71.01114	91
71.01611	40
72.01263	12
73.02847	42
81.03249	32
81.03581	12
81.42445	13
83.01884	17
83.04554	14
85.03011	171
86.02275	13
86.03548	15
87.0088	16
89.0239	228
95.01241	12
97.02702	12
97.03212	16
99.00655	38
99.03218	14
99.04658	17
101.02293	593
102.02682	39
103.04069	43
103.04597	47
107.0294	17
109.02831	90
111.04308	12
113.01985	48
113.02631	133
114.02586	16
115.0328	12
115.04131	26
116.04202	14
119.03523	83
125.02608	12
127.04115	50
127.04662	15
133.05489	15
145.04967	644
145.06203	37
146.05644	37
147.05034	14
159.02504	35
159.03624	50
161.04515	131
162.0457	13
163.06194	36
179.05206	26
249.09778	15
298.99261	12
375.31384	14
392.29163	12
402.33395	12
413.8537	12
423.31985	13
424.32227	12
424.3454	19
425.30182	12
439.30911	14
439.32819	12
452.3205	12
471.34204	29
471.36319	37
473.36691	14
541.36475	16
543.34985	14
569.39941	12
617.41034	1000
618.02069	12
618.37878	14
618.41089	286
618.45007	12
619.41272	51
620.42285	25
779.46643	44
780.4502	32
780.46899	12
781.49713	13

NAME: Petunidin 3-galactoside
PRECURSORMZ: 477.10330111576
PRECURSORTYPE: [M-2H]-
INSTRUMENTTYPE: LC-ESI-QTOF
SMILES: COC1=CC(=CC(O)=C1O)C1=C(OC2OC(CO)C(O)C(O)C2O)C=C2C(O)=CC(O)=CC2=[O+]1
INCHIKEY: CCQDWIRWKWIUKK-UHFFFAOYNA-O
Ontology: Anthocyanidin-3-O-glycosides
COLLISIONENERGY: 10
FORMULA: C22H23O12
RETENTIONTIME: 2.9038
IONMODE: Negative
Comment: registered in RIKEN PlaSMA
Num Peaks: 24
162.03531	30
201.01633	30
206.02223	35
214.96625	28
215.02797	28
244.02791	28
256.03351	46
271.02368	68
271.07394	35
275.93173	31
286.0119	31
299.01425	201
300.02249	61
311.01062	42
314.0408	453
314.07852	28
315.03909	101
315.05145	153
316.03357	30
329.0596	33
357.05728	30
358.05725	28
406.13754	28
477.09885	1000

NAME: Asiaticoside
PRECURSORMZ: 1003.51193315183
PRECURSORTYPE: [M+FA-H]-
INSTRUMENTTYPE: LC-ESI-QTOF
SMILES: CC1CCC2(CCC3(C)C(=CCC4C5(C)CC(O)C(O)C(C)(CO)C5CCC34C)C2C1C)C(=O)OC1OC(COC2OC(CO)C(OC3OC(C)C(O)C(O)C3O)C(O)C2O)C(O)C(O)C1O
INCHIKEY: WYQVAPGDARQUBT-UHFFFAOYNA-N
Ontology: Triterpene saponins
COLLISIONENERGY: 10
FORMULA: C48H78O19
RETENTIONTIME: 5.205133
IONMODE: Negative
Comment: registered in RIKEN PlaSMA
Num Peaks: 38
97.02821	6
101.0193	16
101.02557	26
119.03689	7
125.0182	10
125.02373	16
143.03394	13
161.04301	99
162.04861	13
163.05954	40
205.0652	11
221.06424	11
247.08197	121
247.10596	8
265.08307	16
265.09601	17
323.10132	70
324.10852	5
325.10583	8
367.12177	58
368.13791	5
409.1279	17
409.16107	6
469.15555	687
470.16006	164
471.16611	26
487.34097	315
488.34351	83
489.33734	8
489.36035	11
531.16022	6
701.75128	5
957.50543	960
958.51105	502
959.51324	136
960.47516	6
960.51276	20
1003.51312	1000

NAME: Asiaticoside
PRECURSORMZ: 957.50645384783
PRECURSORTYPE: [M-H]-
INSTRUMENTTYPE: LC-ESI-QTOF
SMILES: CC1CCC2(CCC3(C)C(=CCC4C5(C)CC(O)C(O)C(C)(CO)C5CCC34C)C2C1C)C(=O)OC1OC(COC2OC(CO)C(OC3OC(C)C(O)C(O)C3O)C(O)C2O)C(O)C(O)C1O
INCHIKEY: WYQVAPGDARQUBT-UHFFFAOYNA-N
Ontology: Triterpene saponins
COLLISIONENERGY: 10
FORMULA: C48H78O19
RETENTIONTIME: 5.205133
IONMODE: Negative
Comment: registered in RIKEN PlaSMA
Num Peaks: 7
161.04031	443
221.06122	216
247.08948	227
487.32889	273
532.04236	205
957.48688	1000
957.56775	227

NAME: Saikosaponin b2
PRECURSORMZ: 779.45871584783
PRECURSORTYPE: [M-H]-
INSTRUMENTTYPE: LC-ESI-QTOF
SMILES: CC1OC(OC2CCC3(C)C(CCC4(C)C3C=CC3=C5CC(C)(C)CCC5(CO)C(O)CC43C)C2(C)CO)C(O)C(OC2OC(CO)C(O)C(O)C2O)C1O
INCHIKEY: WRYJYFCCMSVEPQ-UHFFFAOYNA-N
Ontology: Triterpene saponins
COLLISIONENERGY: 10
FORMULA: C42H68O13
RETENTIONTIME: 7.109433
IONMODE: Negative
Comment: registered in RIKEN PlaSMA
Num Peaks: 7
101.02547	43
145.03618	63
464.13235	47
617.37091	41
617.40845	185
617.44781	51
779.46271	1000

NAME: Saikosaponin b2
PRECURSORMZ: 825.46419515183
PRECURSORTYPE: [M+FA-H]-
INSTRUMENTTYPE: LC-ESI-QTOF
SMILES: CC1OC(OC2CCC3(C)C(CCC4(C)C3C=CC3=C5CC(C)(C)CCC5(CO)C(O)CC43C)C2(C)CO)C(O)C(OC2OC(CO)C(O)C(O)C2O)C1O
INCHIKEY: WRYJYFCCMSVEPQ-UHFFFAOYNA-N
Ontology: Triterpene saponins
COLLISIONENERGY: 10
FORMULA: C42H68O13
RETENTIONTIME: 7.109433
IONMODE: Negative
Comment: registered in RIKEN PlaSMA
Num Peaks: 9
161.04222	16
617.40674	152
618.40564	46
619.39331	9
779.45557	1000
780.46045	495
781.46423	77
782.45251	8
825.46271	382

NAME: Petunidin 3-galactoside
PRECURSORMZ: 477.10330111576
PRECURSORTYPE: [M-2H]-
INSTRUMENTTYPE: LC-ESI-QTOF
SMILES: COC1=CC(=CC(O)=C1O)C1=C(OC2OC(CO)C(O)C(O)C2O)C=C2C(O)=CC(O)=CC2=[O+]1
INCHIKEY: CCQDWIRWKWIUKK-UHFFFAOYNA-O
Ontology: Anthocyanidin-3-O-glycosides
COLLISIONENERGY: 10
FORMULA: C22H23O12
RETENTIONTIME: 2.9038
IONMODE: Negative
Comment: registered in RIKEN PlaSMA
Num Peaks: 9
125.03248	10
246.81064	9
314.03302	10
314.04156	26
330.06989	9
420.78119	12
435.07333	12
477.10275	1000
477.15741	13

NAME: Asiaticoside
PRECURSORMZ: 1003.51193315183
PRECURSORTYPE: [M+FA-H]-
INSTRUMENTTYPE: LC-ESI-QTOF
SMILES: CC1CCC2(CCC3(C)C(=CCC4C5(C)CC(O)C(O)C(C)(CO)C5CCC34C)C2C1C)C(=O)OC1OC(COC2OC(CO)C(OC3OC(C)C(O)C(O)C3O)C(O)C2O)C(O)C(O)C1O
INCHIKEY: WYQVAPGDARQUBT-UHFFFAOYNA-N
Ontology: Triterpene saponins
COLLISIONENERGY: 10
FORMULA: C48H78O19
RETENTIONTIME: 5.205133
IONMODE: Negative
Comment: registered in RIKEN PlaSMA
Num Peaks: 3
957.50531	107
958.51758	60
1003.513	1000

NAME: Asiaticoside
PRECURSORMZ: 957.50645384783
PRECURSORTYPE: [M-H]-
INSTRUMENTTYPE: LC-ESI-QTOF
SMILES: CC1CCC2(CCC3(C)C(=CCC4C5(C)CC(O)C(O)C(C)(CO)C5CCC34C)C2C1C)C(=O)OC1OC(COC2OC(CO)C(OC3OC(C)C(O)C(O)C3O)C(O)C2O)C(O)C(O)C1O
INCHIKEY: WYQVAPGDARQUBT-UHFFFAOYNA-N
Ontology: Triterpene saponins
COLLISIONENERGY: 10
FORMULA: C48H78O19
RETENTIONTIME: 5.205133
IONMODE: Negative
Comment: registered in RIKEN PlaSMA
Num Peaks: 3
66.48682	112
126.31877	96
957.49805	1000

NAME: Saikosaponin b2
PRECURSORMZ: 779.45871584783
PRECURSORTYPE: [M-H]-
INSTRUMENTTYPE: LC-ESI-QTOF
SMILES: CC1OC(OC2CCC3(C)C(CCC4(C)C3C=CC3=C5CC(C)(C)CCC5(CO)C(O)CC43C)C2(C)CO)C(O)C(OC2OC(CO)C(O)C(O)C2O)C1O
INCHIKEY: WRYJYFCCMSVEPQ-UHFFFAOYNA-N
Ontology: Triterpene saponins
COLLISIONENERGY: 10
FORMULA: C42H68O13
RETENTIONTIME: 7.109433
IONMODE: Negative
Comment: registered in RIKEN PlaSMA
Num Peaks: 5
395.07819	40
400.21808	37
511.7973	29
611.58954	29
779.46436	1000

NAME: Saikosaponin b2
PRECURSORMZ: 825.46419515183
PRECURSORTYPE: [M+FA-H]-
INSTRUMENTTYPE: LC-ESI-QTOF
SMILES: CC1OC(OC2CCC3(C)C(CCC4(C)C3C=CC3=C5CC(C)(C)CCC5(CO)C(O)CC43C)C2(C)CO)C(O)C(OC2OC(CO)C(O)C(O)C2O)C1O
INCHIKEY: WRYJYFCCMSVEPQ-UHFFFAOYNA-N
Ontology: Triterpene saponins
COLLISIONENERGY: 10
FORMULA: C42H68O13
RETENTIONTIME: 7.109433
IONMODE: Negative
Comment: registered in RIKEN PlaSMA
Num Peaks: 7
779.38843	5
779.4585	442
780.46118	150
781.45349	39
782.45398	6
825.40308	5
825.46375	1000

NAME: Petunidin 3-galactoside
PRECURSORMZ: 477.10330111576
PRECURSORTYPE: [M-2H]-
INSTRUMENTTYPE: LC-ESI-QTOF
SMILES: COC1=CC(=CC(O)=C1O)C1=C(OC2OC(CO)C(O)C(O)C2O)C=C2C(O)=CC(O)=CC2=[O+]1
INCHIKEY: CCQDWIRWKWIUKK-UHFFFAOYNA-O
Ontology: Anthocyanidin-3-O-glycosides
COLLISIONENERGY: 30
FORMULA: C22H23O12
RETENTIONTIME: 2.9038
IONMODE: Negative
Comment: registered in RIKEN PlaSMA
Num Peaks: 29
125.02342	83
185.01901	24
189.03023	28
198.03735	29
229.01855	22
230.02029	24
245.05215	28
255.03593	31
256.03534	37
260.05908	22
271.04114	27
272.04337	31
283.02661	62
285.0408	31
288.0293	22
298.02579	24
299.01093	144
299.02396	443
300.02139	250
301.01334	28
301.02814	33
306.0563	24
314.0412	1000
314.91373	23
315.01767	31
315.04446	286
315.05734	132
317.05362	22
318.06207	29

NAME: Asiaticoside
PRECURSORMZ: 1003.51193315183
PRECURSORTYPE: [M+FA-H]-
INSTRUMENTTYPE: LC-ESI-QTOF
SMILES: CC1CCC2(CCC3(C)C(=CCC4C5(C)CC(O)C(O)C(C)(CO)C5CCC34C)C2C1C)C(=O)OC1OC(COC2OC(CO)C(OC3OC(C)C(O)C(O)C3O)C(O)C2O)C(O)C(O)C1O
INCHIKEY: WYQVAPGDARQUBT-UHFFFAOYNA-N
Ontology: Triterpene saponins
COLLISIONENERGY: 30
FORMULA: C48H78O19
RETENTIONTIME: 5.205133
IONMODE: Negative
Comment: registered in RIKEN PlaSMA
Num Peaks: 26
97.02592	5
101.02312	15
125.01887	12
125.02606	18
143.03409	18
161.04372	86
163.06041	17
205.07028	6
247.08073	78
265.09381	30
266.10077	5
319.24899	6
323.08783	17
323.1011	38
325.11304	15
367.12311	37
409.1322	20
469.15549	1000
470.15961	176
471.16241	27
487.34009	190
488.34149	39
957.50598	578
958.5083	346
959.50592	68
960.50897	17

NAME: Asiaticoside
PRECURSORMZ: 957.50645384783
PRECURSORTYPE: [M-H]-
INSTRUMENTTYPE: LC-ESI-QTOF
SMILES: CC1CCC2(CCC3(C)C(=CCC4C5(C)CC(O)C(O)C(C)(CO)C5CCC34C)C2C1C)C(=O)OC1OC(COC2OC(CO)C(OC3OC(C)C(O)C(O)C3O)C(O)C2O)C(O)C(O)C1O
INCHIKEY: WYQVAPGDARQUBT-UHFFFAOYNA-N
Ontology: Triterpene saponins
COLLISIONENERGY: 30
FORMULA: C48H78O19
RETENTIONTIME: 5.205133
IONMODE: Negative
Comment: registered in RIKEN PlaSMA
Num Peaks: 16
97.02839	151
161.04185	123
162.03259	123
163.06537	123
247.07608	137
265.08682	342
323.08673	130
323.10135	137
409.1344	144
469.12979	116
469.15594	1000
470.15134	123
487.33478	432
487.35831	123
488.35449	137
489.37369	164

NAME: Saikosaponin b2
PRECURSORMZ: 779.45871584783
PRECURSORTYPE: [M-H]-
INSTRUMENTTYPE: LC-ESI-QTOF
SMILES: CC1OC(OC2CCC3(C)C(CCC4(C)C3C=CC3=C5CC(C)(C)CCC5(CO)C(O)CC43C)C2(C)CO)C(O)C(OC2OC(CO)C(O)C(O)C2O)C1O
INCHIKEY: WRYJYFCCMSVEPQ-UHFFFAOYNA-N
Ontology: Triterpene saponins
COLLISIONENERGY: 30
FORMULA: C42H68O13
RETENTIONTIME: 7.109433
IONMODE: Negative
Comment: registered in RIKEN PlaSMA
Num Peaks: 18
71.01108	45
113.02718	54
145.04814	164
157.65503	47
159.02626	43
161.04219	45
249.07942	47
249.09967	41
396.45279	79
407.74054	41
617.3631	45
617.40179	360
618.38892	97
618.40588	47
618.44714	52
734.2334	41
779.45612	1000
779.52063	45

NAME: Saikosaponin b2
PRECURSORMZ: 825.46419515183
PRECURSORTYPE: [M+FA-H]-
INSTRUMENTTYPE: LC-ESI-QTOF
SMILES: CC1OC(OC2CCC3(C)C(CCC4(C)C3C=CC3=C5CC(C)(C)CCC5(CO)C(O)CC43C)C2(C)CO)C(O)C(OC2OC(CO)C(O)C(O)C2O)C1O
INCHIKEY: WRYJYFCCMSVEPQ-UHFFFAOYNA-N
Ontology: Triterpene saponins
COLLISIONENERGY: 30
FORMULA: C42H68O13
RETENTIONTIME: 7.109433
IONMODE: Negative
Comment: registered in RIKEN PlaSMA
Num Peaks: 11
145.0497	5
617.37146	12
617.40686	152
618.40808	57
618.43225	13
619.41089	6
779.45862	1000
780.46185	484
781.46283	114
782.44659	14
782.48254	6

NAME: Petunidin 3-galactoside
PRECURSORMZ: 477.10330111576
PRECURSORTYPE: [M-2H]-
INSTRUMENTTYPE: LC-ESI-QTOF
SMILES: COC1=CC(=CC(O)=C1O)C1=C(OC2OC(CO)C(O)C(O)C2O)C=C2C(O)=CC(O)=CC2=[O+]1
INCHIKEY: CCQDWIRWKWIUKK-UHFFFAOYNA-O
Ontology: Anthocyanidin-3-O-glycosides
COLLISIONENERGY: 50
FORMULA: C22H23O12
RETENTIONTIME: 2.9038
IONMODE: Negative
Comment: registered in RIKEN PlaSMA
Num Peaks: 36
95.01232	98
133.99826	98
171.0392	120
174.03464	174
176.04425	109
185.01993	424
187.04817	152
187.05518	114
189.0159	114
195.04384	98
198.03217	120
199.03821	337
202.01758	109
211.04221	103
214.02179	98
215.01488	114
215.03273	201
216.04025	98
225.01495	114
227.02568	120
228.04173	114
238.02934	98
243.02344	565
243.03371	168
244.02882	168
252.00653	109
253.01004	103
253.02126	98
258.00543	103
271.01044	98
271.02707	1000
271.45947	179
281.00296	109
295.01727	98
298.01364	98
299.01248	103

NAME: Asiaticoside
PRECURSORMZ: 1003.51193315183
PRECURSORTYPE: [M+FA-H]-
INSTRUMENTTYPE: LC-ESI-QTOF
SMILES: CC1CCC2(CCC3(C)C(=CCC4C5(C)CC(O)C(O)C(C)(CO)C5CCC34C)C2C1C)C(=O)OC1OC(COC2OC(CO)C(OC3OC(C)C(O)C(O)C3O)C(O)C2O)C(O)C(O)C1O
INCHIKEY: WYQVAPGDARQUBT-UHFFFAOYNA-N
Ontology: Triterpene saponins
COLLISIONENERGY: 50
FORMULA: C48H78O19
RETENTIONTIME: 5.205133
IONMODE: Negative
Comment: registered in RIKEN PlaSMA
Num Peaks: 48
59.01244	8
71.01231	10
73.02934	11
83.01192	8
89.02027	16
89.02544	15
97.02816	18
101.02341	212
102.02998	7
103.03981	26
113.02563	10
115.03918	11
119.03526	13
125.02284	76
126.02566	5
131.03705	16
133.05116	6
139.04143	6
143.03345	80
145.05116	9
161.04443	150
162.05052	6
163.06108	104
179.04774	8
179.05875	12
205.06958	75
221.06642	43
245.06517	5
247.07945	124
263.07083	5
265.08823	13
323.09641	61
324.10226	5
325.1123	7
367.12399	72
368.13275	8
391.12909	8
409.12997	12
409.14429	12
469.14056	9
469.15759	20
470.14487	7
470.17767	6
471.16364	7
487.34091	1000
488.34378	314
489.34946	49
490.34412	6

NAME: Asiaticoside
PRECURSORMZ: 957.50645384783
PRECURSORTYPE: [M-H]-
INSTRUMENTTYPE: LC-ESI-QTOF
SMILES: CC1CCC2(CCC3(C)C(=CCC4C5(C)CC(O)C(O)C(C)(CO)C5CCC34C)C2C1C)C(=O)OC1OC(COC2OC(CO)C(OC3OC(C)C(O)C(O)C3O)C(O)C2O)C(O)C(O)C1O
INCHIKEY: WYQVAPGDARQUBT-UHFFFAOYNA-N
Ontology: Triterpene saponins
COLLISIONENERGY: 50
FORMULA: C48H78O19
RETENTIONTIME: 5.205133
IONMODE: Negative
Comment: registered in RIKEN PlaSMA
Num Peaks: 16
83.00952	234
101.02355	636
125.02196	224
127.03046	206
131.03709	196
143.03253	168
145.04662	187
163.05536	187
205.06734	168
248.08157	196
263.07379	206
487.33008	1000
487.35037	374
488.34961	206
489.34787	168
571.38232	402

NAME: Saikosaponin b2
PRECURSORMZ: 779.45871584783
PRECURSORTYPE: [M-H]-
INSTRUMENTTYPE: LC-ESI-QTOF
SMILES: CC1OC(OC2CCC3(C)C(CCC4(C)C3C=CC3=C5CC(C)(C)CCC5(CO)C(O)CC43C)C2(C)CO)C(O)C(OC2OC(CO)C(O)C(O)C2O)C1O
INCHIKEY: WRYJYFCCMSVEPQ-UHFFFAOYNA-N
Ontology: Triterpene saponins
COLLISIONENERGY: 50
FORMULA: C42H68O13
RETENTIONTIME: 7.109433
IONMODE: Negative
Comment: registered in RIKEN PlaSMA
Num Peaks: 14
59.01311	445
84.0131	182
85.02615	182
85.03251	236
101.02011	409
101.02589	209
102.02297	300
113.02454	218
125.0191	191
127.07681	182
145.05006	1000
146.0475	191
617.36975	173
617.409	164

NAME: Saikosaponin b2
PRECURSORMZ: 825.46419515183
PRECURSORTYPE: [M+FA-H]-
INSTRUMENTTYPE: LC-ESI-QTOF
SMILES: CC1OC(OC2CCC3(C)C(CCC4(C)C3C=CC3=C5CC(C)(C)CCC5(CO)C(O)CC43C)C2(C)CO)C(O)C(OC2OC(CO)C(O)C(O)C2O)C1O
INCHIKEY: WRYJYFCCMSVEPQ-UHFFFAOYNA-N
Ontology: Triterpene saponins
COLLISIONENERGY: 50
FORMULA: C42H68O13
RETENTIONTIME: 7.109433
IONMODE: Negative
Comment: registered in RIKEN PlaSMA
Num Peaks: 66
59.01176	165
71.01134	224
71.01728	27
73.03297	39
81.03178	69
83.01102	29
83.04888	36
85.0266	93
85.03339	44
87.00452	18
87.04565	14
89.02404	209
91.02542	17
97.02773	41
97.03239	27
99.00595	15
99.01135	32
99.04427	32
101.02341	628
103.03954	106
109.03175	32
113.02377	307
115.0402	69
115.84557	13
119.03423	90
127.0385	100
127.54595	15
128.03885	15
129.01512	13
143.0282	15
143.037	61
145.04825	638
146.04819	20
146.05562	15
159.0278	84
159.03535	41
159.10521	15
161.04372	135
161.05443	14
163.06245	34
177.03613	15
179.05219	16
179.06133	38
249.09644	15
268.0239	16
375.24969	15
423.32312	15
425.33414	14
425.35077	14
439.32501	35
441.03812	13
471.3147	16
471.34366	15
472.34262	13
472.35931	14
503.2963	15
541.37201	15
617.40875	1000
618.39087	31
618.41766	201
619.40546	103
619.4375	15
779.43927	35
779.4715	41
780.46179	30
781.48151	17

NAME: Ginkgolide C
PRECURSORMZ: 439.12458514783
PRECURSORTYPE: [M-H]-
INSTRUMENTTYPE: LC-ESI-QTOF
SMILES: CC1C(=O)OC2C(O)C34C5OC(=O)C3(OC3OC(=O)C(O)C43C(C5O)C(C)(C)C)C12O
INCHIKEY: AMOGMTLMADGEOQ-UHFFFAOYNA-N
Ontology: Ginkgolides and bilobalides
COLLISIONENERGY: 10
FORMULA: C20H24O11
RETENTIONTIME: 4.331234
IONMODE: Negative
Comment: registered in RIKEN PlaSMA
Num Peaks: 115
72.99249	26
82.08027	6
83.04498	5
85.02264	6
85.03111	11
97.02884	5
99.69784	6
113.02515	99
114.03083	10
118.50366	6
121.02392	6
125.02313	274
126.0237	28
130.00711	7
131.04842	7
134.03342	5
135.04274	16
137.0571	5
141.0204	42
142.02414	13
143.03178	15
149.1012	5
159.07742	5
165.11612	8
166.04842	6
173.09111	8
174.05991	7
174.07051	16
175.1106	9
177.09113	12
185.0649	6
191.11363	6
192.03807	7
193.04501	5
193.11826	6
195.10435	6
200.06102	7
202.06808	11
203.07051	5
207.09897	14
210.11781	6
214.12842	5
219.11404	7
220.06688	6
220.10672	6
229.11557	5
230.09492	6
230.10742	6
231.13396	11
231.14484	16
232.13622	7
233.16002	6
235.13867	5
241.11983	6
242.10408	8
242.12299	6
247.09644	6
247.55472	5
248.09607	11
248.13567	6
249.15294	7
250.15381	6
257.12067	5
259.13565	47
260.12503	5
260.13684	12
265.15756	5
275.12933	13
276.14267	5
277.15021	27
277.75519	7
278.14587	11
279.11465	6
280.147	6
281.13074	11
285.11322	6
292.10504	6
297.09192	5
300.97845	7
303.1051	5
303.12854	10
307.1246	5
309.13925	6
319.11975	13
320.48529	6
321.12994	59
321.14371	14
322.12991	11
322.14447	11
323.14938	11
337.1315	11
339.15704	5
347.1113	6
355.14758	5
365.1149	13
365.12567	25
366.13358	7
377.11267	6
377.34	10
383.13153	1000
383.16919	6
384.13864	122
384.16919	5
385.00278	5
385.12738	6
385.13571	16
385.15781	5
386.7782	6
387.13635	6
395.12552	11
396.1391	7
411.12375	77
412.14322	10
413.11655	10
439.12198	328

NAME: Ginsenoside-Rg1
PRECURSORMZ: 845.490409804
PRECURSORTYPE: [M+FA-H]-
INSTRUMENTTYPE: LC-ESI-QTOF
SMILES: CC(C)=CCCC(C)(OC1OC(CO)C(O)C(O)C1O)C1CCC2(C)C1C(O)CC1C3(C)CCC(O)C(C)(C)C3C(CC21C)OC1OC(CO)C(O)C(O)C1O
INCHIKEY: YURJSTAIMNSZAE-UHFFFAOYNA-N
Ontology: Triterpene saponins
COLLISIONENERGY: 10
FORMULA: C42H72O14
RETENTIONTIME: 4.79915
IONMODE: Negative
Comment: registered in RIKEN PlaSMA
Num Peaks: 18
89.02377	23
101.02412	15
113.02497	8
119.03365	20
143.03036	6
149.04163	9
161.04456	41
179.05304	21
475.37985	20
476.38858	7
637.41815	36
637.43268	73
638.43762	33
799.48328	178
800.48303	80
801.48529	13
801.5069	6
845.48828	1000

NAME: Silychrystin
PRECURSORMZ: 481.11402044783
PRECURSORTYPE: [M-H]-
INSTRUMENTTYPE: LC-ESI-QTOF
SMILES: COC1=C(O)C=CC(=C1)C1OC2=C(C=C(C=C2O)C2OC3=CC(O)=CC(O)=C3C(=O)C2O)C1CO
INCHIKEY: BMLIIPOXVWESJG-UHFFFAOYNA-N
Ontology: 2-arylbenzofuran flavonoids
COLLISIONENERGY: 10
FORMULA: C25H22O10
RETENTIONTIME: 4.955217
IONMODE: Negative
Comment: registered in RIKEN PlaSMA
Num Peaks: 163
64.99705	5
93.03111	5
108.02294	6
109.03174	7
122.04039	5
125.02328	338
126.02119	7
126.02858	20
137.02222	20
138.99045	6
151.00322	34
152.01233	60
153.01056	5
153.01918	19
154.02139	6
155.79811	6
163.01003	9
163.03754	6
173.69008	6
175.04265	5
178.9726	5
178.9998	178
179.99516	22
180.00728	33
181.01137	13
181.02249	5
185.06023	5
189.04782	5
191.03503	6
195.02472	6
197.06104	7
200.04451	6
207.54221	5
209.05669	7
223.03194	5
225.0538	10
226.07291	8
227.02571	6
228.03593	6
228.04637	7
237.05215	7
237.0724	6
239.03749	5
241.06306	7
242.05121	18
242.0629	6
253.08498	6
255.06715	11
256.07623	8
257.71997	7
262.06754	6
265.05188	6
266.06265	6
267.05975	24
268.07178	16
272.06808	6
273.05716	7
273.0845	6
277.08099	6
279.0596	5
280.05096	5
280.15485	6
282.08582	5
283.06796	6
289.08749	7
290.02432	5
292.08124	8
292.10095	6
293.06796	7
293.0856	8
294.04413	6
294.0827	7
295.04156	7
295.05701	9
295.86432	7
296.07037	8
296.09186	6
299.09219	12
303.10117	8
305.0813	8
307.05078	6
307.06357	17
308.06845	5
309.08231	6
309.11929	5
310.048	7
310.06247	5
311.10751	6
316.06662	11
319.05927	6
321.06201	5
322.04489	24
322.07532	12
323.06012	8
323.0784	6
323.0932	16
324.09338	6
325.06888	178
326.07666	21
327.0777	21
327.254	6
330.0914	5
332.07382	13
333.07437	5
335.08978	6
335.10706	8
336.09912	6
337.04092	5
337.06531	26
338.06583	6
341.09665	7
342.05829	6
345.07022	5
346.07648	6
347.10034	8
349.09924	6
350.06677	6
351.0921	18
355.06949	34
355.08206	147
356.08728	17
357.08295	5
362.09756	8
363.10675	5
365.10187	18
366.12595	6
374.08411	11
376.08832	11
378.1084	7
379.10989	5
384.67398	5
389.09845	6
389.11594	11
396.11154	6
398.34006	5
402.07022	6
404.10321	12
407.10074	14
416.08102	9
416.1131	6
419.11276	27
419.13681	6
423.10498	44
424.11716	6
430.10275	6
433.09573	144
434.08591	13
434.10275	13
435.11227	44
436.10321	5
437.12622	12
445.07886	8
446.11029	5
451.10193	130
452.10638	28
453.09625	5
453.11829	30
455.125	5
463.07965	14
463.10437	83
464.09894	8
474.56018	6
481.11194	1000

NAME: Ginsenoside Rb2
PRECURSORMZ: 1077.58509854783
PRECURSORTYPE: [M-H]-
INSTRUMENTTYPE: LC-ESI-QTOF
SMILES: CC(C)=CCCC(C)(OC1OC(COC2OCC(O)C(O)C2O)C(O)C(O)C1O)C1CCC2(C)C1C(O)CC1C3(C)CCC(OC4OC(CO)C(O)C(O)C4OC4OC(CO)C(O)C(O)C4O)C(C)(C)C3CCC21C
INCHIKEY: NODILNFGTFIURN-UHFFFAOYNA-N
Ontology: Triterpene saponins
COLLISIONENERGY: 10
FORMULA: C53H90O22
RETENTIONTIME: 6.159667
IONMODE: Negative
Comment: registered in RIKEN PlaSMA
Num Peaks: 26
92.03791	11
101.02295	16
101.02939	7
109.02855	6
149.04303	29
293.08801	6
401.49088	7
438.99655	7
477.12897	6
496.2019	8
554.65479	7
753.80414	6
765.46094	7
772.84924	7
783.34753	12
783.51093	16
784.48535	7
785.50415	6
786.91211	8
798.4787	12
915.5661	7
916.56012	12
945.53363	27
945.57275	12
946.55292	6
1077.58862	1000

NAME: Ginsenoside Rb2
PRECURSORMZ: 1123.59057785183
PRECURSORTYPE: [M+FA-H]-
INSTRUMENTTYPE: LC-ESI-QTOF
SMILES: CC(C)=CCCC(C)(OC1OC(COC2OCC(O)C(O)C2O)C(O)C(O)C1O)C1CCC2(C)C1C(O)CC1C3(C)CCC(OC4OC(CO)C(O)C(O)C4OC4OC(CO)C(O)C(O)C4O)C(C)(C)C3CCC21C
INCHIKEY: NODILNFGTFIURN-UHFFFAOYNA-N
Ontology: Triterpene saponins
COLLISIONENERGY: 10
FORMULA: C53H90O22
RETENTIONTIME: 6.159667
IONMODE: Negative
Comment: registered in RIKEN PlaSMA
Num Peaks: 18
128.5005	6
142.52863	6
612.44214	5
658.84125	5
857.95886	5
945.54303	9
946.56775	5
947.55444	5
947.63593	5
1077.58691	1000
1078.09912	6
1078.5918	469
1079.5769	72
1079.61719	46
1080.08704	6
1080.58386	13
1123.58167	119
1123.63501	19

NAME: Ginkgolide C
PRECURSORMZ: 439.12458514783
PRECURSORTYPE: [M-H]-
INSTRUMENTTYPE: LC-ESI-QTOF
SMILES: CC1C(=O)OC2C(O)C34C5OC(=O)C3(OC3OC(=O)C(O)C43C(C5O)C(C)(C)C)C12O
INCHIKEY: AMOGMTLMADGEOQ-UHFFFAOYNA-N
Ontology: Ginkgolides and bilobalides
COLLISIONENERGY: 10
FORMULA: C20H24O11
RETENTIONTIME: 4.331234
IONMODE: Negative
Comment: registered in RIKEN PlaSMA
Num Peaks: 16
72.99147	17
125.01976	6
141.01549	6
241.12564	6
321.13037	29
337.12857	6
339.13858	9
365.13196	9
383.13351	981
384.13644	185
385.12946	8
385.14539	14
395.14243	13
411.12845	117
412.12869	9
439.12329	1000

NAME: Ginsenoside-Rg1
PRECURSORMZ: 845.490409804
PRECURSORTYPE: [M+FA-H]-
INSTRUMENTTYPE: LC-ESI-QTOF
SMILES: CC(C)=CCCC(C)(OC1OC(CO)C(O)C(O)C1O)C1CCC2(C)C1C(O)CC1C3(C)CCC(O)C(C)(C)C3C(CC21C)OC1OC(CO)C(O)C(O)C1O
INCHIKEY: YURJSTAIMNSZAE-UHFFFAOYNA-N
Ontology: Triterpene saponins
COLLISIONENERGY: 10
FORMULA: C42H72O14
RETENTIONTIME: 4.79915
IONMODE: Negative
Comment: registered in RIKEN PlaSMA
Num Peaks: 3
799.48175	10
845.48962	1000
845.56311	5

NAME: Silychrystin
PRECURSORMZ: 481.11402044783
PRECURSORTYPE: [M-H]-
INSTRUMENTTYPE: LC-ESI-QTOF
SMILES: COC1=C(O)C=CC(=C1)C1OC2=C(C=C(C=C2O)C2OC3=CC(O)=CC(O)=C3C(=O)C2O)C1CO
INCHIKEY: BMLIIPOXVWESJG-UHFFFAOYNA-N
Ontology: 2-arylbenzofuran flavonoids
COLLISIONENERGY: 10
FORMULA: C25H22O10
RETENTIONTIME: 4.955217
IONMODE: Negative
Comment: registered in RIKEN PlaSMA
Num Peaks: 11
178.99908	19
325.07343	6
355.08264	55
423.11249	6
433.09332	29
434.09619	5
451.10327	93
452.10828	22
463.10376	54
464.09879	11
481.11377	1000

NAME: Ginsenoside Rb2
PRECURSORMZ: 1077.58509854783
PRECURSORTYPE: [M-H]-
INSTRUMENTTYPE: LC-ESI-QTOF
SMILES: CC(C)=CCCC(C)(OC1OC(COC2OCC(O)C(O)C2O)C(O)C(O)C1O)C1CCC2(C)C1C(O)CC1C3(C)CCC(OC4OC(CO)C(O)C(O)C4OC4OC(CO)C(O)C(O)C4O)C(C)(C)C3CCC21C
INCHIKEY: NODILNFGTFIURN-UHFFFAOYNA-N
Ontology: Triterpene saponins
COLLISIONENERGY: 10
FORMULA: C53H90O22
RETENTIONTIME: 6.159667
IONMODE: Negative
Comment: registered in RIKEN PlaSMA
Num Peaks: 13
83.30021	8
104.66943	7
549.55945	8
578.94452	8
592.99261	7
634.63428	7
662.91382	10
684.66199	9
697.85071	7
772.48242	7
811.26276	12
1077.18152	8
1077.58643	1000

NAME: Ginsenoside Rb2
PRECURSORMZ: 1123.59057785183
PRECURSORTYPE: [M+FA-H]-
INSTRUMENTTYPE: LC-ESI-QTOF
SMILES: CC(C)=CCCC(C)(OC1OC(COC2OCC(O)C(O)C2O)C(O)C(O)C1O)C1CCC2(C)C1C(O)CC1C3(C)CCC(OC4OC(CO)C(O)C(O)C4OC4OC(CO)C(O)C(O)C4O)C(C)(C)C3CCC21C
INCHIKEY: NODILNFGTFIURN-UHFFFAOYNA-N
Ontology: Triterpene saponins
COLLISIONENERGY: 10
FORMULA: C53H90O22
RETENTIONTIME: 6.159667
IONMODE: Negative
Comment: registered in RIKEN PlaSMA
Num Peaks: 29
111.3115	12
208.35994	11
346.04761	13
430.63278	20
573.22308	11
587.06171	12
1077.06262	11
1077.58838	257
1078.05347	29
1078.09998	48
1078.53357	12
1078.59424	431
1078.65332	11
1079.05713	15
1079.10181	12
1079.5481	13
1079.60291	56
1082.61633	18
1092.73694	12
1093.88184	11
1100.6073	16
1101.07153	54
1101.57458	20
1102.32861	13
1103.11255	11
1105.54846	12
1106.04211	11
1123.49707	11
1123.59229	1000

NAME: Ginkgolide C
PRECURSORMZ: 439.12458514783
PRECURSORTYPE: [M-H]-
INSTRUMENTTYPE: LC-ESI-QTOF
SMILES: CC1C(=O)OC2C(O)C34C5OC(=O)C3(OC3OC(=O)C(O)C43C(C5O)C(C)(C)C)C12O
INCHIKEY: AMOGMTLMADGEOQ-UHFFFAOYNA-N
Ontology: Ginkgolides and bilobalides
COLLISIONENERGY: 30
FORMULA: C20H24O11
RETENTIONTIME: 4.331234
IONMODE: Negative
Comment: registered in RIKEN PlaSMA
Num Peaks: 122
72.98901	47
72.99324	30
73.02752	24
81.0322	9
81.34072	8
85.02799	9
87.04285	9
97.02944	44
99.04355	19
108.05692	9
109.02634	8
113.02281	268
114.02512	10
115.02202	12
116.64407	8
123.04829	9
125.02361	1000
126.02509	49
127.02697	8
127.03609	10
129.01976	28
129.08945	11
130.0219	18
137.01611	9
137.06168	21
139.05191	9
141.01768	45
143.03589	49
144.03297	9
147.04073	19
147.1131	8
149.06303	20
149.09253	8
150.03117	11
163.11162	9
164.04301	9
165.08696	8
167.06972	12
172.57254	9
174.0368	9
175.07037	9
176.11583	12
177.08131	8
177.09258	36
177.12363	10
178.06389	8
178.09178	10
179.10762	31
181.11726	10
182.13225	13
184.04471	18
185.06717	10
187.10698	10
188.04059	10
188.04947	18
189.04855	14
190.01694	8
190.02542	28
191.02693	11
191.03992	22
191.1064	9
192.14743	12
193.12004	8
195.09964	10
195.11131	11
200.04872	24
202.05667	37
202.06462	14
202.08954	9
205.09111	9
207.11285	9
210.0464	13
210.11978	12
213.12781	12
215.01199	9
215.14877	9
216.1404	8
216.14957	11
217.11804	9
218.05545	8
219.10446	18
219.14082	12
220.08005	12
228.04562	9
229.11685	9
231.1308	9
231.14688	39
232.13724	32
233.12073	8
235.15343	8
241.11089	17
241.12898	65
242.12491	9
245.11024	13
247.08575	10
248.09427	9
248.10426	11
249.15237	11
250.10869	9
257.12158	9
259.12979	133
260.13266	38
261.15033	10
275.1362	8
277.11102	9
277.13004	18
277.14273	10
277.15195	10
279.12289	18
303.12332	11
303.13309	8
307.11182	8
310.14737	14
311.14108	9
321.13705	8
337.13196	13
339.13156	10
339.14633	9
365.12683	31
383.12177	22
383.13617	39
411.12256	8

NAME: Ginsenoside-Rg1
PRECURSORMZ: 845.490409804
PRECURSORTYPE: [M+FA-H]-
INSTRUMENTTYPE: LC-ESI-QTOF
SMILES: CC(C)=CCCC(C)(OC1OC(CO)C(O)C(O)C1O)C1CCC2(C)C1C(O)CC1C3(C)CCC(O)C(C)(C)C3C(CC21C)OC1OC(CO)C(O)C(O)C1O
INCHIKEY: YURJSTAIMNSZAE-UHFFFAOYNA-N
Ontology: Triterpene saponins
COLLISIONENERGY: 30
FORMULA: C42H72O14
RETENTIONTIME: 4.79915
IONMODE: Negative
Comment: registered in RIKEN PlaSMA
Num Peaks: 78
59.01209	10
59.0155	7
71.00861	12
71.01279	17
71.04993	5
73.02568	7
83.0127	5
85.90201	5
89.023	108
89.03048	19
98.03329	5
101.02351	119
107.02827	7
113.02305	111
119.03487	174
120.04061	6
121.03775	5
124.49571	5
125.02188	5
129.01794	9
131.03279	32
133.0507	7
143.02831	11
143.03452	36
143.04173	14
149.0425	21
159.0262	34
161.04416	309
161.83484	9
162.04796	12
162.05418	6
163.04771	7
179.05511	258
180.06529	11
242.61145	7
273.0947	6
291.75784	6
357.67664	5
394.37988	6
394.93683	7
395.70236	5
445.03287	7
475.32492	5
475.37463	99
476.37561	27
477.39926	5
485.52243	7
532.26196	7
584.17603	5
590.04486	5
619.41968	31
620.4375	7
621.43646	6
628.60992	7
637.26917	5
637.43268	1000
637.49683	6
638.43896	267
638.48242	7
639.41785	13
639.43658	21
639.45184	11
640.47412	5
641.43402	6
680.42499	6
702.08917	7
799.39417	5
799.48334	594
800.48016	232
800.50812	74
801.49048	91
802.48242	18
802.51947	8
802.83759	5
825.95892	5
834.02045	6
845.45831	17
845.49622	108

NAME: Silychrystin
PRECURSORMZ: 481.11402044783
PRECURSORTYPE: [M-H]-
INSTRUMENTTYPE: LC-ESI-QTOF
SMILES: COC1=C(O)C=CC(=C1)C1OC2=C(C=C(C=C2O)C2OC3=CC(O)=CC(O)=C3C(=O)C2O)C1CO
INCHIKEY: BMLIIPOXVWESJG-UHFFFAOYNA-N
Ontology: 2-arylbenzofuran flavonoids
COLLISIONENERGY: 30
FORMULA: C25H22O10
RETENTIONTIME: 4.955217
IONMODE: Negative
Comment: registered in RIKEN PlaSMA
Num Peaks: 223
83.01578	5
107.015	18
108.01943	10
109.03028	6
110.02911	6
111.01113	10
121.02615	5
122.0287	5
122.03896	6
124.01324	13
125.02312	1000
126.0248	58
127.02082	13
127.46709	8
134.03201	7
137.02034	5
142.25078	8
145.0408	7
147.04738	5
151.00116	172
151.03662	8
152.01062	158
152.04515	9
153.01469	108
154.02129	12
155.02428	13
165.0139	6
165.10725	7
166.01782	6
167.03059	7
175.03195	5
176.00961	6
177.02766	7
178.9978	237
179.03369	7
179.9917	8
180.00105	38
180.0118	18
181.01108	45
183.04648	10
188.04718	5
189.01785	17
189.03001	5
191.02415	12
191.03453	33
191.30164	6
193.04247	6
199.04056	14
203.03712	6
204.0519	5
205.04306	6
210.7361	5
214.0609	6
215.03474	6
217.05399	6
218.02501	9
219.0217	11
219.03552	26
219.06042	6
220.03773	6
227.02988	11
227.0383	8
228.03781	18
228.63683	6
229.03804	6
229.05392	8
230.39714	5
231.0583	7
231.07513	7
232.02501	8
239.03218	6
239.07961	7
241.05386	12
244.06512	8
251.06221	6
253.02605	6
253.04572	11
253.06612	11
254.04646	13
255.0728	23
256.0701	18
257.07935	8
258.04279	6
258.04974	12
259.10876	5
264.07828	5
267.02249	7
267.06607	12
268.06839	14
268.07568	42
269.0679	5
269.08029	18
270.07779	8
270.09109	6
271.06216	9
271.10168	6
277.04984	6
278.04562	6
278.06204	7
278.68811	5
283.04697	11
283.06342	5
283.09033	6
284.06534	11
284.09335	10
287.11078	7
289.09412	6
292.03424	10
292.10147	5
293.04684	6
293.09525	12
294.04535	12
294.05737	13
294.08807	12
295.06247	6
296.035	6
297.07547	45
298.03995	6
299.09558	18
299.11249	6
301.07547	5
303.05704	8
304.07062	7
304.08527	9
304.17651	6
305.03546	7
305.0542	11
305.09344	7
306.05667	6
307.06174	5
308.05991	10
308.37778	6
309.06677	26
310.03214	6
310.04868	41
311.05975	7
311.09048	8
311.10263	35
311.60724	8
312.08502	6
316.07687	5
318.08405	6
319.10043	6
320.07831	6
320.11224	5
321.06821	5
322.0437	64
322.08612	6
323.06128	14
323.08398	20
324.08694	12
325.04437	13
325.06924	200
325.10739	7
326.06213	5
326.07843	35
328.07602	6
329.10864	7
331.09863	8
332.06772	13
333.10388	9
334.0755	5
335.07846	9
335.0947	8
336.0816	12
337.0611	26
337.09457	5
338.07101	5
341.79486	9
345.06323	6
346.0961	6
347.08319	8
347.0994	15
347.11395	12
348.05933	21
348.0838	12
348.09772	6
348.11487	6
350.35208	8
353.09717	7
357.07162	5
359.07233	6
359.11243	5
360.05151	7
361.10651	6
362.07529	13
362.08786	7
363.06619	6
363.11642	8
364.07779	7
364.12161	5
365.09851	8
365.116	7
366.11206	12
366.12848	6
371.11832	5
374.06882	6
375.09222	11
377.1055	18
380.13174	7
388.08707	6
389.10464	6
390.1004	5
391.06387	5
391.11057	5
392.07751	18
395.108	6
404.09998	6
405.09436	7
406.09918	6
407.09512	6
407.10718	16
413.05203	5
419.07358	6
421.08679	6
423.09756	8
430.05734	6
430.10434	9
431.06171	5
433.0892	6
434.08548	6
435.10165	7
454.11334	6

NAME: Ginsenoside Rb2
PRECURSORMZ: 1077.58509854783
PRECURSORTYPE: [M-H]-
INSTRUMENTTYPE: LC-ESI-QTOF
SMILES: CC(C)=CCCC(C)(OC1OC(COC2OCC(O)C(O)C2O)C(O)C(O)C1O)C1CCC2(C)C1C(O)CC1C3(C)CCC(OC4OC(CO)C(O)C(O)C4OC4OC(CO)C(O)C(O)C4O)C(C)(C)C3CCC21C
INCHIKEY: NODILNFGTFIURN-UHFFFAOYNA-N
Ontology: Triterpene saponins
COLLISIONENERGY: 30
FORMULA: C53H90O22
RETENTIONTIME: 6.159667
IONMODE: Negative
Comment: registered in RIKEN PlaSMA
Num Peaks: 6
71.01203	5
191.05779	6
738.99872	5
783.47949	12
916.51172	7
1077.58398	1000

NAME: Ginsenoside Rb2
PRECURSORMZ: 1123.59057785183
PRECURSORTYPE: [M+FA-H]-
INSTRUMENTTYPE: LC-ESI-QTOF
SMILES: CC(C)=CCCC(C)(OC1OC(COC2OCC(O)C(O)C2O)C(O)C(O)C1O)C1CCC2(C)C1C(O)CC1C3(C)CCC(OC4OC(CO)C(O)C(O)C4OC4OC(CO)C(O)C(O)C4O)C(C)(C)C3CCC21C
INCHIKEY: NODILNFGTFIURN-UHFFFAOYNA-N
Ontology: Triterpene saponins
COLLISIONENERGY: 30
FORMULA: C53H90O22
RETENTIONTIME: 6.159667
IONMODE: Negative
Comment: registered in RIKEN PlaSMA
Num Peaks: 9
510.90152	5
608.41992	10
1077.5885	1000
1078.59216	512
1079.59692	152
1079.6593	11
1080.58582	23
1080.61255	17
1081.62341	8

NAME: Ginkgolide C
PRECURSORMZ: 439.12458514783
PRECURSORTYPE: [M-H]-
INSTRUMENTTYPE: LC-ESI-QTOF
SMILES: CC1C(=O)OC2C(O)C34C5OC(=O)C3(OC3OC(=O)C(O)C43C(C5O)C(C)(C)C)C12O
INCHIKEY: AMOGMTLMADGEOQ-UHFFFAOYNA-N
Ontology: Ginkgolides and bilobalides
COLLISIONENERGY: 50
FORMULA: C20H24O11
RETENTIONTIME: 4.331234
IONMODE: Negative
Comment: registered in RIKEN PlaSMA
Num Peaks: 76
69.03261	286
69.03956	45
70.5747	65
72.99207	400
80.02633	43
81.03457	54
83.05455	56
87.005	39
87.01302	58
93.03716	41
94.03568	47
97.02851	746
97.06651	39
102.0461	39
107.04189	39
111.04032	47
113.02379	677
114.03637	43
119.0526	43
121.03084	43
122.02923	43
123.00413	41
123.00923	39
123.04052	43
125.02385	1000
126.02509	39
126.03112	54
130.09673	39
134.03532	97
135.04697	116
136.08368	47
137.05725	45
140.04521	43
141.01308	52
141.12428	39
145.02936	43
147.04399	43
147.05347	39
149.09238	39
155.08022	39
159.04248	39
161.05804	43
162.0285	39
163.03123	39
163.04366	43
163.11124	97
165.0448	39
171.04645	47
172.04503	39
173.05806	82
173.13066	39
174.06485	153
175.08365	39
177.05536	39
177.0842	45
178.06339	45
185.05142	58
187.04076	90
188.04298	39
190.0242	45
191.03436	58
191.11082	84
192.02899	43
197.09203	41
199.11369	60
200.04857	39
201.11809	56
203.06334	39
211.06483	39
217.04716	43
228.05347	47
229.13559	54
230.08727	45
230.09651	41
232.14212	43
241.13472	43

NAME: Ginsenoside-Rg1
PRECURSORMZ: 845.490409804
PRECURSORTYPE: [M+FA-H]-
INSTRUMENTTYPE: LC-ESI-QTOF
SMILES: CC(C)=CCCC(C)(OC1OC(CO)C(O)C(O)C1O)C1CCC2(C)C1C(O)CC1C3(C)CCC(O)C(C)(C)C3C(CC21C)OC1OC(CO)C(O)C(O)C1O
INCHIKEY: YURJSTAIMNSZAE-UHFFFAOYNA-N
Ontology: Triterpene saponins
COLLISIONENERGY: 50
FORMULA: C42H72O14
RETENTIONTIME: 4.79915
IONMODE: Negative
Comment: registered in RIKEN PlaSMA
Num Peaks: 42
59.01171	34
71.01229	230
73.02843	69
75.00465	18
81.03006	27
85.02706	69
85.03339	17
85.38329	18
87.00941	18
89.02376	241
89.03233	46
90.02507	38
99.00204	20
101.02312	1000
102.02178	18
102.03198	18
113.02277	352
113.03126	52
114.01818	24
114.02454	46
119.03303	212
132.03123	20
143.02997	19
143.03784	18
149.04871	16
159.0251	37
160.02876	22
161.04623	201
163.04805	23
179.05161	17
239.09903	18
391.29257	21
475.37744	417
476.38474	145
545.38507	16
553.33307	27
553.36108	18
553.38245	21
555.33112	18
637.41711	88
638.4386	52
792.37317	23

NAME: Silychrystin
PRECURSORMZ: 481.11402044783
PRECURSORTYPE: [M-H]-
INSTRUMENTTYPE: LC-ESI-QTOF
SMILES: COC1=C(O)C=CC(=C1)C1OC2=C(C=C(C=C2O)C2OC3=CC(O)=CC(O)=C3C(=O)C2O)C1CO
INCHIKEY: BMLIIPOXVWESJG-UHFFFAOYNA-N
Ontology: 2-arylbenzofuran flavonoids
COLLISIONENERGY: 50
FORMULA: C25H22O10
RETENTIONTIME: 4.955217
IONMODE: Negative
Comment: registered in RIKEN PlaSMA
Num Peaks: 182
63.01897	16
63.02397	25
64.99776	22
65.00509	20
81.02136	16
81.0316	50
83.01432	83
86.30185	23
94.03377	18
96.02418	60
97.02264	16
107.0087	66
107.0144	109
107.05079	16
108.01515	20
108.02379	19
109.02773	103
109.03696	20
110.03053	16
121.03114	68
123.04153	22
123.04935	17
124.01035	35
124.01719	76
124.02766	16
124.04456	23
125.02349	1000
126.02475	90
127.02672	30
127.03246	22
129.07224	22
134.03427	17
135.04636	28
136.0549	17
137.01984	33
142.03522	19
144.02316	17
144.05106	20
146.02498	20
149.02429	54
151.00052	328
152.00925	172
152.01918	45
153.01715	259
154.02528	18
159.04025	33
160.03593	16
160.04256	16
162.02785	22
162.04878	16
165.01917	16
167.04921	34
171.04523	22
172.04541	31
172.0513	57
174.0303	16
174.06065	16
179.00102	41
180.00108	19
181.0704	21
185.02637	18
187.03728	16
187.04448	16
188.0349	22
188.05333	17
190.05347	17
191.02553	17
193.05176	16
193.06322	16
194.05559	18
194.8499	18
195.05571	19
197.05775	40
198.02869	32
198.06821	23
199.03342	41
199.04131	17
201.05463	21
201.19685	20
204.03641	17
204.07782	20
206.06334	20
206.07837	18
207.0567	19
209.05579	17
211.03885	18
212.03783	21
212.05234	28
213.05147	16
214.05298	16
215.0417	35
217.05045	24
221.05754	60
221.27173	20
224.05328	35
225.05301	83
226.0173	16
227.03391	33
228.03946	22
234.04688	17
236.0477	20
237.04849	16
237.06178	22
238.06502	47
238.0929	21
239.06972	31
240.0486	39
241.05794	16
243.0285	17
248.04135	17
249.05956	19
250.06444	16
251.03821	17
253.04431	53
253.06808	18
254.05147	16
254.06198	23
255.06364	79
256.07422	43
256.09375	16
257.04523	19
257.07703	47
262.02789	17
263.04034	29
264.01178	20
265.03091	17
265.04739	39
265.05948	43
266.04538	17
267.07797	16
268.07971	18
269.03629	34
269.07684	16
272.06616	17
272.07788	22
275.07736	16
276.07669	22
277.03769	16
277.04633	16
277.07309	17
277.08582	28
278.05646	16
282.05481	42
283.09213	16
284.06934	33
285.07831	18
288.07419	34
289.04895	33
289.06415	16
290.09158	21
291.0546	16
292.06531	31
293.03824	34
293.06644	22
297.04608	17
299.07037	17
302.11542	18
303.07767	19
304.07172	17
305.07779	53
308.07684	17
310.05688	16
315.06168	16
316.07321	21
317.08276	23
318.08923	31
319.05896	16
321.07071	17
322.12967	19
325.05008	25
330.05554	18
331.11319	19
332.07437	16
333.0755	16
335.04633	17
335.07919	33
339.08496	16
341.086	16
350.07996	18
358.06961	18
361.10889	19
375.08282	23

NAME: Ginsenoside Rb2
PRECURSORMZ: 1077.58509854783
PRECURSORTYPE: [M-H]-
INSTRUMENTTYPE: LC-ESI-QTOF
SMILES: CC(C)=CCCC(C)(OC1OC(COC2OCC(O)C(O)C2O)C(O)C(O)C1O)C1CCC2(C)C1C(O)CC1C3(C)CCC(OC4OC(CO)C(O)C(O)C4OC4OC(CO)C(O)C(O)C4O)C(C)(C)C3CCC21C
INCHIKEY: NODILNFGTFIURN-UHFFFAOYNA-N
Ontology: Triterpene saponins
COLLISIONENERGY: 50
FORMULA: C53H90O22
RETENTIONTIME: 6.159667
IONMODE: Negative
Comment: registered in RIKEN PlaSMA
Num Peaks: 73
59.01283	136
71.01412	128
73.02946	24
77.02204	20
81.03352	26
89.01917	141
89.02551	375
90.02741	23
95.01591	23
101.02317	138
102.02856	20
111.00575	50
113.02119	78
113.03039	35
114.01907	21
115.04076	21
119.02895	59
119.03803	56
125.02464	118
125.03249	26
129.0231	20
131.03503	328
131.65744	20
139.03935	29
143.02835	27
149.04437	1000
150.05424	53
159.02776	28
161.0443	158
162.05086	42
179.04712	20
179.05721	47
191.05379	324
221.05566	21
224.16237	32
233.06601	23
293.04242	21
293.09036	20
293.09924	20
294.08521	25
345.48227	23
396.5834	25
459.3938	24
461.38242	20
604.42084	20
621.43042	111
622.43402	21
622.45807	20
623.46387	27
765.45959	44
765.48016	45
766.47192	96
766.50653	20
767.5011	20
767.52167	23
783.45209	24
783.48785	208
784.466	23
784.50171	20
785.89825	34
786.49194	25
915.52802	50
945.55945	72
945.62054	26
946.16846	21
946.54657	23
947.54883	24
956.37781	49
1072.70691	21
1077.28235	25
1077.54504	53
1077.59973	249
1077.69043	26

NAME: Ginsenoside Rb2
PRECURSORMZ: 1123.59057785183
PRECURSORTYPE: [M+FA-H]-
INSTRUMENTTYPE: LC-ESI-QTOF
SMILES: CC(C)=CCCC(C)(OC1OC(COC2OCC(O)C(O)C2O)C(O)C(O)C1O)C1CCC2(C)C1C(O)CC1C3(C)CCC(OC4OC(CO)C(O)C(O)C4OC4OC(CO)C(O)C(O)C4O)C(C)(C)C3CCC21C
INCHIKEY: NODILNFGTFIURN-UHFFFAOYNA-N
Ontology: Triterpene saponins
COLLISIONENERGY: 50
FORMULA: C53H90O22
RETENTIONTIME: 6.159667
IONMODE: Negative
Comment: registered in RIKEN PlaSMA
Num Peaks: 83
59.01333	43
71.01183	116
73.01881	19
85.02928	15
88.99392	23
89.02312	343
90.02715	17
101.02208	185
113.02299	48
119.03399	88
125.02303	17
126.03063	17
131.03401	149
132.03809	16
149.04341	1000
150.05017	16
151.04532	21
161.03709	36
161.04626	44
162.04916	17
179.05991	17
191.05209	198
191.065	51
192.05428	31
221.06224	84
235.06534	17
248.12932	28
251.08301	25
285.29132	23
293.08475	157
294.10132	15
295.08838	17
305.04654	24
444.36832	17
459.34879	17
459.38718	15
499.51892	24
509.4118	22
581.99994	19
621.42456	36
622.4306	23
622.46716	19
623.42792	37
623.4668	20
676.71246	15
702.42133	18
733.20465	20
735.25317	17
765.45984	55
765.49469	40
766.46686	22
766.52222	15
767.46539	16
782.98376	31
783.47058	31
783.49872	185
784.48511	56
784.51477	19
785.49628	71
785.51294	32
786.50134	16
791.61066	18
915.54474	42
915.59857	21
915.93695	16
916.49677	15
917.54785	15
945.51892	47
945.55695	112
946.54089	54
947.48431	15
947.54694	15
948.52039	18
1044.33008	17
1077.59155	539
1077.64893	49
1078.55823	159
1078.60449	281
1078.65625	40
1079.55981	56
1079.59009	62
1080.63806	20
1094.09473	15

NAME: Ginkgolide C
PRECURSORMZ: 439.12458514783
PRECURSORTYPE: [M-H]-
INSTRUMENTTYPE: LC-ESI-QTOF
SMILES: CC1C(=O)OC2C(O)C34C5OC(=O)C3(OC3OC(=O)C(O)C43C(C5O)C(C)(C)C)C12O
INCHIKEY: AMOGMTLMADGEOQ-UHFFFAOYNA-N
Ontology: Ginkgolides and bilobalides
COLLISIONENERGY: 10
FORMULA: C20H24O11
RETENTIONTIME: 4.331234
IONMODE: Negative
Comment: registered in RIKEN PlaSMA
Num Peaks: 122
72.98953	23
72.99534	17
73.02579	6
83.048	6
87.04616	7
97.02882	19
101.02286	6
111.00565	9
113.02225	43
113.02843	15
123.04298	6
125.02276	237
126.02159	6
126.02985	12
126.04124	9
127.04671	7
129.09146	12
132.05939	6
136.01201	7
137.0154	6
137.05873	10
141.01947	70
143.03606	14
143.09422	6
147.04741	6
147.07152	6
149.0963	6
154.13097	6
159.05186	7
160.04771	6
161.0887	7
163.11142	13
165.05116	7
173.02582	8
174.0636	6
177.09332	6
177.10071	6
178.0972	7
179.11084	6
183.04625	7
187.04739	6
188.04646	21
191.03111	8
191.03818	8
191.09856	6
191.10744	6
192.03561	13
193.0455	6
193.09079	6
195.092	10
195.09958	9
202.05904	13
203.10205	6
203.13792	6
206.09123	7
207.12804	8
207.13744	6
207.85077	7
209.0412	7
209.07838	8
213.1377	7
215.14412	21
217.11526	6
225.09105	8
229.0495	6
229.11452	11
230.088	13
231.07124	7
231.08727	6
231.13712	12
233.02177	6
233.12132	6
234.17097	6
234.86124	9
234.94681	6
241.11951	6
241.13147	8
241.22923	7
242.12718	6
245.11354	6
247.09288	7
247.12427	6
248.1116	6
249.15712	6
259.13467	52
265.09683	7
265.10614	6
272.52402	6
275.13159	6
277.13803	13
277.14795	23
278.14813	8
279.12119	6
279.14642	8
281.12924	6
297.10519	6
303.11896	24
304.13162	6
321.13196	47
322.15018	6
322.16025	7
323.11777	7
337.12573	6
341.08539	6
365.10388	9
365.12198	27
365.14066	19
366.11075	6
383.13373	1000
384.13202	100
384.14798	31
385.12686	20
385.14212	31
386.13171	6
395.12268	8
403.11493	6
411.12357	83
412.14392	7
412.17264	6
413.14197	9
422.12054	6
439.1239	339

NAME: Ginsenoside-Rg1
PRECURSORMZ: 845.490409804
PRECURSORTYPE: [M+FA-H]-
INSTRUMENTTYPE: LC-ESI-QTOF
SMILES: CC(C)=CCCC(C)(OC1OC(CO)C(O)C(O)C1O)C1CCC2(C)C1C(O)CC1C3(C)CCC(O)C(C)(C)C3C(CC21C)OC1OC(CO)C(O)C(O)C1O
INCHIKEY: YURJSTAIMNSZAE-UHFFFAOYNA-N
Ontology: Triterpene saponins
COLLISIONENERGY: 10
FORMULA: C42H72O14
RETENTIONTIME: 4.79915
IONMODE: Negative
Comment: registered in RIKEN PlaSMA
Num Peaks: 17
89.02254	22
101.02317	19
113.02171	10
119.0341	20
161.04218	19
179.05605	21
180.05692	6
475.3735	22
475.38751	13
476.39816	8
637.42963	111
638.43475	54
799.48291	167
800.48694	61
801.48645	15
801.52045	6
845.48987	1000

NAME: Silychrystin
PRECURSORMZ: 481.11402044783
PRECURSORTYPE: [M-H]-
INSTRUMENTTYPE: LC-ESI-QTOF
SMILES: COC1=C(O)C=CC(=C1)C1OC2=C(C=C(C=C2O)C2OC3=CC(O)=CC(O)=C3C(=O)C2O)C1CO
INCHIKEY: BMLIIPOXVWESJG-UHFFFAOYNA-N
Ontology: 2-arylbenzofuran flavonoids
COLLISIONENERGY: 10
FORMULA: C25H22O10
RETENTIONTIME: 4.955217
IONMODE: Negative
Comment: registered in RIKEN PlaSMA
Num Peaks: 160
86.08927	5
111.01421	10
113.53247	5
121.03272	11
124.01731	5
125.02388	345
126.02326	18
126.02987	16
127.0074	9
137.02684	11
139.04088	5
150.03232	5
150.86449	5
150.93121	6
151.00142	65
152.01082	67
153.01813	38
162.0251	5
162.99997	7
163.0345	5
163.04297	6
171.04691	7
178.99742	132
180.0027	34
181.01363	25
186.03505	11
190.02327	6
191.02943	5
193.05719	5
197.41171	5
199.03996	5
203.02402	6
217.05035	9
219.03189	13
227.02521	6
230.06392	6
231.07007	6
237.02893	9
240.04872	7
243.05777	5
244.07433	5
249.06152	5
253.04552	15
253.0527	5
253.0804	6
256.07907	5
258.06277	5
266.06497	8
267.06772	9
269.06961	6
270.05072	5
271.10938	5
276.10468	5
277.04767	7
277.52939	5
279.06885	7
282.09177	8
283.0506	5
283.06412	8
289.03616	5
293.03723	6
293.04984	7
294.05405	7
296.06772	13
296.09821	5
297.06763	6
297.08875	6
298.07648	5
299.06213	6
301.09729	5
307.07675	6
308.07275	10
308.09964	7
309.03238	5
309.06128	5
309.07193	5
310.03339	5
311.08475	11
311.10767	8
312.08807	6
315.05243	5
315.07404	5
316.08032	5
319.04352	6
319.09836	5
320.07242	17
322.04221	5
322.0546	6
322.08929	6
323.10172	5
324.10403	6
325.07126	220
325.09695	6
326.07474	29
327.07431	11
327.10083	6
330.04459	6
331.06754	6
333.08987	6
333.13678	5
334.07846	6
335.09601	9
337.05115	5
337.07047	29
337.11035	5
338.08182	6
346.09528	12
347.09076	5
348.08362	5
355.05511	6
355.08041	134
356.08368	19
361.07285	6
364.1113	13
365.10272	22
366.09604	7
368.06985	6
373.09708	7
374.07104	5
376.11029	7
376.13177	6
377.11606	6
383.11746	10
388.09253	12
389.1033	32
391.15277	6
396.16165	6
403.08792	6
404.06845	5
407.12012	13
410.12021	5
419.10901	20
419.13062	7
420.11929	10
421.10242	5
423.10699	17
424.1123	9
425.13208	5
433.09125	172
434.06415	5
434.09113	7
435.1044	25
435.1232	7
436.10983	5
439.06473	7
445.09189	11
446.10327	6
451.00449	5
451.10544	117
452.09814	24
452.11478	13
453.12054	46
454.11234	7
463.10019	59
463.12827	5
464.10434	6
465.09552	5
466.10208	5
479.6077	6
481.11295	1000

NAME: Ginsenoside Rb2
PRECURSORMZ: 1077.58509854783
PRECURSORTYPE: [M-H]-
INSTRUMENTTYPE: LC-ESI-QTOF
SMILES: CC(C)=CCCC(C)(OC1OC(COC2OCC(O)C(O)C2O)C(O)C(O)C1O)C1CCC2(C)C1C(O)CC1C3(C)CCC(OC4OC(CO)C(O)C(O)C4OC4OC(CO)C(O)C(O)C4O)C(C)(C)C3CCC21C
INCHIKEY: NODILNFGTFIURN-UHFFFAOYNA-N
Ontology: Triterpene saponins
COLLISIONENERGY: 10
FORMULA: C53H90O22
RETENTIONTIME: 6.159667
IONMODE: Negative
Comment: registered in RIKEN PlaSMA
Num Peaks: 27
89.02554	6
91.0327	7
119.03614	6
131.03342	14
142.34161	6
149.0414	30
149.04959	15
163.04358	6
191.05228	6
221.07497	7
311.08929	6
509.49396	7
537.67242	7
622.4505	6
765.5116	9
771.09277	8
783.47058	14
784.49329	6
784.51782	6
898.22192	7
903.78351	6
915.56635	11
946.52167	6
947.54584	8
1072.95715	6
1077.58228	1000
1077.64917	25

NAME: Ginsenoside Rb2
PRECURSORMZ: 1123.59057785183
PRECURSORTYPE: [M+FA-H]-
INSTRUMENTTYPE: LC-ESI-QTOF
SMILES: CC(C)=CCCC(C)(OC1OC(COC2OCC(O)C(O)C2O)C(O)C(O)C1O)C1CCC2(C)C1C(O)CC1C3(C)CCC(OC4OC(CO)C(O)C(O)C4OC4OC(CO)C(O)C(O)C4O)C(C)(C)C3CCC21C
INCHIKEY: NODILNFGTFIURN-UHFFFAOYNA-N
Ontology: Triterpene saponins
COLLISIONENERGY: 10
FORMULA: C53H90O22
RETENTIONTIME: 6.159667
IONMODE: Negative
Comment: registered in RIKEN PlaSMA
Num Peaks: 24
149.04745	15
311.09177	6
506.79736	6
537.95752	5
542.89264	6
648.53522	5
660.71722	5
761.64569	5
820.69836	7
829.87671	5
1077.07349	7
1077.58533	1000
1077.67859	6
1078.07812	16
1078.11511	5
1078.58862	582
1079.11719	5
1079.60034	132
1080.60645	19
1081.6123	16
1082.28857	5
1101.09119	12
1105.01453	6
1123.58862	140

NAME: Ginkgolide C
PRECURSORMZ: 439.12458514783
PRECURSORTYPE: [M-H]-
INSTRUMENTTYPE: LC-ESI-QTOF
SMILES: CC1C(=O)OC2C(O)C34C5OC(=O)C3(OC3OC(=O)C(O)C43C(C5O)C(C)(C)C)C12O
INCHIKEY: AMOGMTLMADGEOQ-UHFFFAOYNA-N
Ontology: Ginkgolides and bilobalides
COLLISIONENERGY: 10
FORMULA: C20H24O11
RETENTIONTIME: 4.331234
IONMODE: Negative
Comment: registered in RIKEN PlaSMA
Num Peaks: 14
72.99342	11
297.0889	6
303.12186	6
321.13763	22
321.16077	6
340.86844	5
383.13324	963
384.13541	147
385.14279	15
395.13187	38
411.12817	92
412.13528	7
413.13809	15
439.12396	1000

NAME: Ginsenoside-Rg1
PRECURSORMZ: 845.490409804
PRECURSORTYPE: [M+FA-H]-
INSTRUMENTTYPE: LC-ESI-QTOF
SMILES: CC(C)=CCCC(C)(OC1OC(CO)C(O)C(O)C1O)C1CCC2(C)C1C(O)CC1C3(C)CCC(O)C(C)(C)C3C(CC21C)OC1OC(CO)C(O)C(O)C1O
INCHIKEY: YURJSTAIMNSZAE-UHFFFAOYNA-N
Ontology: Triterpene saponins
COLLISIONENERGY: 10
FORMULA: C42H72O14
RETENTIONTIME: 4.79915
IONMODE: Negative
Comment: registered in RIKEN PlaSMA
Num Peaks: 3
799.47369	5
800.4942	5
845.48785	1000

NAME: Silychrystin
PRECURSORMZ: 481.11402044783
PRECURSORTYPE: [M-H]-
INSTRUMENTTYPE: LC-ESI-QTOF
SMILES: COC1=C(O)C=CC(=C1)C1OC2=C(C=C(C=C2O)C2OC3=CC(O)=CC(O)=C3C(=O)C2O)C1CO
INCHIKEY: BMLIIPOXVWESJG-UHFFFAOYNA-N
Ontology: 2-arylbenzofuran flavonoids
COLLISIONENERGY: 10
FORMULA: C25H22O10
RETENTIONTIME: 4.955217
IONMODE: Negative
Comment: registered in RIKEN PlaSMA
Num Peaks: 13
125.02221	8
325.07321	14
325.08212	7
355.07993	77
356.07932	11
433.09277	32
451.10278	90
452.09888	11
452.11514	11
453.10944	10
463.10318	54
464.10837	10
481.11349	1000

NAME: Ginsenoside Rb2
PRECURSORMZ: 1077.58509854783
PRECURSORTYPE: [M-H]-
INSTRUMENTTYPE: LC-ESI-QTOF
SMILES: CC(C)=CCCC(C)(OC1OC(COC2OCC(O)C(O)C2O)C(O)C(O)C1O)C1CCC2(C)C1C(O)CC1C3(C)CCC(OC4OC(CO)C(O)C(O)C4OC4OC(CO)C(O)C(O)C4O)C(C)(C)C3CCC21C
INCHIKEY: NODILNFGTFIURN-UHFFFAOYNA-N
Ontology: Triterpene saponins
COLLISIONENERGY: 10
FORMULA: C53H90O22
RETENTIONTIME: 6.159667
IONMODE: Negative
Comment: registered in RIKEN PlaSMA
Num Peaks: 12
530.30872	9
535.40851	7
553.02362	7
650.24146	11
691.95764	10
882.16394	8
1040.30249	8
1075.04858	8
1076.26575	9
1077.58765	1000
1077.69263	8
1077.74915	8

NAME: Ginsenoside Rb2
PRECURSORMZ: 1123.59057785183
PRECURSORTYPE: [M+FA-H]-
INSTRUMENTTYPE: LC-ESI-QTOF
SMILES: CC(C)=CCCC(C)(OC1OC(COC2OCC(O)C(O)C2O)C(O)C(O)C1O)C1CCC2(C)C1C(O)CC1C3(C)CCC(OC4OC(CO)C(O)C(O)C4OC4OC(CO)C(O)C(O)C4O)C(C)(C)C3CCC21C
INCHIKEY: NODILNFGTFIURN-UHFFFAOYNA-N
Ontology: Triterpene saponins
COLLISIONENERGY: 10
FORMULA: C53H90O22
RETENTIONTIME: 6.159667
IONMODE: Negative
Comment: registered in RIKEN PlaSMA
Num Peaks: 21
219.91016	14
242.07333	20
507.47525	18
530.9342	14
551.05377	13
562.37988	16
1077.5802	401
1078.09778	92
1078.54883	23
1078.59497	157
1079.60071	112
1080.56885	16
1080.59753	28
1081.55774	12
1100.5957	16
1101.59827	17
1102.08606	15
1102.11023	16
1104.04504	15
1123.49585	13
1123.5946	1000

NAME: Ginkgolide C
PRECURSORMZ: 439.12458514783
PRECURSORTYPE: [M-H]-
INSTRUMENTTYPE: LC-ESI-QTOF
SMILES: CC1C(=O)OC2C(O)C34C5OC(=O)C3(OC3OC(=O)C(O)C43C(C5O)C(C)(C)C)C12O
INCHIKEY: AMOGMTLMADGEOQ-UHFFFAOYNA-N
Ontology: Ginkgolides and bilobalides
COLLISIONENERGY: 30
FORMULA: C20H24O11
RETENTIONTIME: 4.331234
IONMODE: Negative
Comment: registered in RIKEN PlaSMA
Num Peaks: 137
57.03416	13
69.03201	13
72.99246	77
73.02953	6
83.01318	12
85.02837	6
85.21464	6
87.00793	6
87.04557	13
87.10402	7
97.02726	76
99.04538	6
99.0832	13
100.98451	8
109.03004	8
112.56155	6
113.02339	288
114.03056	6
121.10423	6
125.02304	1000
126.02253	17
126.03026	23
127.02853	7
127.04044	14
130.08029	6
133.10094	7
136.02032	6
137.01842	7
137.05666	7
139.03746	7
139.07919	7
141.01744	84
142.01968	26
143.03391	16
143.03957	23
147.04306	7
149.09628	12
151.0387	6
158.07646	6
160.05354	8
163.10707	22
165.05643	14
166.05801	7
166.09752	6
173.12978	6
174.06148	8
174.07077	8
177.05925	6
177.08763	65
178.09201	7
179.11574	16
179.43307	6
181.08961	7
183.10243	6
187.0377	7
188.04333	7
190.02739	7
191.10339	20
191.11188	19
192.03659	7
192.0813	8
192.11763	6
193.13054	6
195.0932	6
195.10239	8
197.10831	6
200.04597	7
202.05864	28
202.36276	9
203.02979	7
203.05951	6
203.14487	7
207.09224	6
208.09253	7
208.12875	6
209.12074	7
213.12097	15
215.13605	7
215.14772	14
217.07648	6
219.06859	12
219.10155	14
219.13959	6
223.10074	8
225.11629	6
228.03616	6
228.0482	11
230.07907	6
230.09402	28
230.10405	15
231.09665	7
231.13817	37
233.112	7
233.14096	6
236.14458	7
241.11642	24
241.12418	58
242.12366	10
247.0936	16
247.10689	19
248.10391	19
248.1167	6
248.14355	6
249.11038	8
249.12177	8
251.11922	13
257.12488	7
259.11649	5
259.13525	115
260.13998	6
263.12003	6
266.10562	6
267.1098	7
274.11249	14
275.13	9
277.14011	25
278.15131	8
278.89478	6
279.12561	6
280.12	9
297.08441	6
303.11514	9
303.1283	8
304.12613	7
304.1376	6
307.46609	8
309.14352	11
319.12088	6
321.12927	6
321.14157	9
342.84052	6
365.11386	7
365.13306	15
383.12131	24
383.13467	51
384.14334	6
412.13593	6

NAME: Ginsenoside-Rg1
PRECURSORMZ: 845.490409804
PRECURSORTYPE: [M+FA-H]-
INSTRUMENTTYPE: LC-ESI-QTOF
SMILES: CC(C)=CCCC(C)(OC1OC(CO)C(O)C(O)C1O)C1CCC2(C)C1C(O)CC1C3(C)CCC(O)C(C)(C)C3C(CC21C)OC1OC(CO)C(O)C(O)C1O
INCHIKEY: YURJSTAIMNSZAE-UHFFFAOYNA-N
Ontology: Triterpene saponins
COLLISIONENERGY: 30
FORMULA: C42H72O14
RETENTIONTIME: 4.79915
IONMODE: Negative
Comment: registered in RIKEN PlaSMA
Num Peaks: 65
59.01411	13
71.01092	19
71.01819	21
71.05075	5
81.04051	7
85.02836	11
89.02355	161
97.0281	19
101.02303	162
107.03289	5
107.03733	6
113.01896	24
113.02639	39
114.02547	11
115.03683	6
119.03024	30
119.03665	82
131.03371	8
131.04115	7
143.03366	42
144.04028	11
149.04422	15
151.64365	5
159.02928	42
160.03217	13
161.04376	351
162.04712	33
179.05397	239
180.05908	19
359.53336	6
465.5592	5
475.37851	108
476.37366	26
493.40097	5
498.9176	9
555.81909	5
556.65369	7
620.41077	5
621.46234	5
637.37732	5
637.43201	1000
637.49628	5
637.5791	5
638.41833	116
638.43976	239
638.8996	6
639.36993	5
639.42932	20
639.4455	36
639.55762	7
639.85156	9
640.42792	10
641.58405	7
799.48431	750
800.48566	266
801.495	73
801.52765	16
802.45135	6
802.51007	8
802.77692	5
803.52228	5
810.86938	7
825.92285	5
826.45966	7
845.48712	108

NAME: Silychrystin
PRECURSORMZ: 481.11402044783
PRECURSORTYPE: [M-H]-
INSTRUMENTTYPE: LC-ESI-QTOF
SMILES: COC1=C(O)C=CC(=C1)C1OC2=C(C=C(C=C2O)C2OC3=CC(O)=CC(O)=C3C(=O)C2O)C1CO
INCHIKEY: BMLIIPOXVWESJG-UHFFFAOYNA-N
Ontology: 2-arylbenzofuran flavonoids
COLLISIONENERGY: 30
FORMULA: C25H22O10
RETENTIONTIME: 4.955217
IONMODE: Negative
Comment: registered in RIKEN PlaSMA
Num Peaks: 218
51.47794	6
54.04848	6
57.03105	7
83.01187	8
108.01861	15
109.0296	6
121.0261	6
123.04797	6
124.01108	18
125.02279	1000
125.83605	6
126.02621	61
128.02988	12
135.04698	6
137.02316	12
145.0293	12
146.03123	6
149.01666	6
149.02669	7
151.00171	155
151.05475	6
152.01082	136
152.01668	41
153.01804	108
153.06992	6
154.01881	6
162.0258	6
162.99928	7
163.00577	6
163.02844	6
163.04395	13
164.00696	8
165.01961	26
165.05193	6
175.03963	12
176.00983	6
177.01662	12
178.9978	219
179.99844	16
180.00732	38
180.99734	6
181.02052	6
183.04286	9
189.01257	6
190.02974	6
191.03482	6
193.05966	6
198.06032	7
199.04431	6
200.08017	6
201.01494	6
204.04169	6
205.04892	6
209.05408	9
211.04935	8
215.06047	13
215.07019	6
219.03506	6
226.06995	6
227.04048	38
227.0661	6
228.0446	8
231.03113	6
232.06584	6
240.03622	9
241.05133	6
241.06158	6
243.07645	6
252.03328	13
252.07573	14
253.04562	6
253.05859	13
254.05408	15
254.06998	7
255.05139	9
256.07214	20
257.03561	6
257.08157	6
258.05472	6
259.05109	6
259.06503	13
264.03815	6
265.07541	6
266.04669	6
266.06369	12
267.06339	6
267.07315	6
268.04822	6
268.07202	37
268.0943	6
269.03137	7
269.08212	12
270.07755	6
271.09323	21
272.08676	6
275.06406	7
279.06161	7
280.08221	7
280.09863	7
280.99493	8
281.0722	6
282.0423	6
283.07013	6
284.07581	17
284.51752	6
285.07941	6
290.08752	6
292.03296	6
292.87015	6
293.06232	7
293.0889	6
294.00702	6
294.0466	22
294.06155	7
295.06284	6
296.06332	12
297.07965	25
297.09094	7
298.07697	6
299.09485	12
299.10547	12
300.09607	6
301.07779	14
306.0354	7
306.05405	14
306.10568	6
307.04684	27
307.06445	7
308.05911	10
308.07489	6
309.07358	18
310.04605	48
310.11572	6
310.89542	6
311.05075	7
311.06168	6
311.08142	7
312.04745	6
313.24719	7
317.0484	6
317.06378	6
317.11307	7
319.05637	7
319.10657	6
320.06256	6
321.07578	6
322.04663	88
323.05328	7
323.08765	18
323.10342	8
324.08954	11
325.07053	223
325.099	6
326.07394	61
326.17877	6
327.08267	19
330.04422	6
330.08377	6
331.06216	14
331.08722	6
332.07321	6
334.06998	6
335.07977	6
337.06912	22
338.04398	9
338.07309	23
339.1283	6
340.12378	6
345.07492	14
345.09326	6
346.06921	7
346.08459	6
346.11877	6
347.04846	6
347.08008	6
347.10077	13
348.099	20
349.06967	6
349.11185	13
350.07712	6
351.09491	7
353.09705	6
356.07248	8
360.08267	9
361.06464	7
362.07526	15
363.07736	8
364.08734	13
365.086	10
365.10373	29
365.13766	6
366.108	6
367.0824	6
371.09528	7
376.08936	14
377.10251	23
379.1069	9
379.13376	6
385.08743	7
386.07599	6
389.10278	18
391.07938	7
391.11252	6
392.08331	6
393.09192	6
404.08313	14
404.09933	6
407.11072	11
408.12729	6
416.06076	6
420.08426	7
423.1185	6
424.11453	12
430.09039	6
433.09555	12
435.09677	9
435.11548	11
436.12775	6

NAME: Ginsenoside Rb2
PRECURSORMZ: 1077.58509854783
PRECURSORTYPE: [M-H]-
INSTRUMENTTYPE: LC-ESI-QTOF
SMILES: CC(C)=CCCC(C)(OC1OC(COC2OCC(O)C(O)C2O)C(O)C(O)C1O)C1CCC2(C)C1C(O)CC1C3(C)CCC(OC4OC(CO)C(O)C(O)C4OC4OC(CO)C(O)C(O)C4O)C(C)(C)C3CCC21C
INCHIKEY: NODILNFGTFIURN-UHFFFAOYNA-N
Ontology: Triterpene saponins
COLLISIONENERGY: 30
FORMULA: C53H90O22
RETENTIONTIME: 6.159667
IONMODE: Negative
Comment: registered in RIKEN PlaSMA
Num Peaks: 10
101.02106	6
119.03432	10
125.02835	5
131.04369	5
467.87228	6
672.65497	6
916.49133	5
945.547	15
1077.58655	1000
1077.68567	6

NAME: Ginsenoside Rb2
PRECURSORMZ: 1123.59057785183
PRECURSORTYPE: [M+FA-H]-
INSTRUMENTTYPE: LC-ESI-QTOF
SMILES: CC(C)=CCCC(C)(OC1OC(COC2OCC(O)C(O)C2O)C(O)C(O)C1O)C1CCC2(C)C1C(O)CC1C3(C)CCC(OC4OC(CO)C(O)C(O)C4OC4OC(CO)C(O)C(O)C4O)C(C)(C)C3CCC21C
INCHIKEY: NODILNFGTFIURN-UHFFFAOYNA-N
Ontology: Triterpene saponins
COLLISIONENERGY: 30
FORMULA: C53H90O22
RETENTIONTIME: 6.159667
IONMODE: Negative
Comment: registered in RIKEN PlaSMA
Num Peaks: 7
945.51953	8
1051.50012	5
1077.58716	1000
1078.58789	504
1079.59485	168
1080.56836	7
1080.60205	6

NAME: Ginkgolide C
PRECURSORMZ: 439.12458514783
PRECURSORTYPE: [M-H]-
INSTRUMENTTYPE: LC-ESI-QTOF
SMILES: CC1C(=O)OC2C(O)C34C5OC(=O)C3(OC3OC(=O)C(O)C43C(C5O)C(C)(C)C)C12O
INCHIKEY: AMOGMTLMADGEOQ-UHFFFAOYNA-N
Ontology: Ginkgolides and bilobalides
COLLISIONENERGY: 50
FORMULA: C20H24O11
RETENTIONTIME: 4.331234
IONMODE: Negative
Comment: registered in RIKEN PlaSMA
Num Peaks: 68
69.03201	269
69.04069	109
72.99015	102
72.99451	86
73.02731	77
80.02151	42
81.03474	46
85.02534	42
93.03136	46
97.02656	302
97.03077	97
98.02633	72
108.0173	42
110.03326	46
113.02329	311
114.02794	46
115.02303	44
121.02648	51
121.10537	44
125.02178	1000
126.02948	216
130.04401	42
134.03406	58
136.01569	46
137.09763	46
137.10362	49
138.03029	42
139.02971	42
145.03204	93
145.10812	49
149.10306	51
150.035	44
151.11658	63
156.05136	42
158.06836	49
159.07745	49
161.05943	44
161.09306	44
164.04422	58
167.10443	44
174.06532	84
175.0265	53
176.04303	84
177.09052	269
179.116	46
187.04234	46
188.04512	42
188.1273	42
190.06145	58
191.10498	46
191.1134	58
193.08537	46
197.0914	42
199.04385	53
201.0517	44
202.06142	90
202.51964	46
207.10106	95
207.14146	111
216.11922	44
223.0952	42
226.10289	44
229.11888	44
233.13585	79
256.12643	46
257.11258	56
259.12589	42
313.98746	42

NAME: Ginsenoside-Rg1
PRECURSORMZ: 845.490409804
PRECURSORTYPE: [M+FA-H]-
INSTRUMENTTYPE: LC-ESI-QTOF
SMILES: CC(C)=CCCC(C)(OC1OC(CO)C(O)C(O)C1O)C1CCC2(C)C1C(O)CC1C3(C)CCC(O)C(C)(C)C3C(CC21C)OC1OC(CO)C(O)C(O)C1O
INCHIKEY: YURJSTAIMNSZAE-UHFFFAOYNA-N
Ontology: Triterpene saponins
COLLISIONENERGY: 50
FORMULA: C42H72O14
RETENTIONTIME: 4.79915
IONMODE: Negative
Comment: registered in RIKEN PlaSMA
Num Peaks: 39
59.0148	106
71.01434	248
73.02306	25
73.03173	45
85.02763	109
89.02293	581
99.00567	22
100.04721	31
101.02358	1000
102.02522	46
111.00346	25
113.02268	609
119.03255	400
125.02028	22
129.01942	25
131.03026	47
143.03624	47
149.04924	71
159.02617	47
161.04396	160
238.68173	25
349.14917	32
389.27878	24
391.2605	22
391.28015	95
391.29736	42
392.28723	40
457.366	26
459.32733	26
475.37512	296
475.39645	81
476.37845	78
477.383	49
478.39471	45
553.33569	24
556.9801	27
622.42822	26
637.43604	173
638.47327	25

NAME: Silychrystin
PRECURSORMZ: 481.11402044783
PRECURSORTYPE: [M-H]-
INSTRUMENTTYPE: LC-ESI-QTOF
SMILES: COC1=C(O)C=CC(=C1)C1OC2=C(C=C(C=C2O)C2OC3=CC(O)=CC(O)=C3C(=O)C2O)C1CO
INCHIKEY: BMLIIPOXVWESJG-UHFFFAOYNA-N
Ontology: 2-arylbenzofuran flavonoids
COLLISIONENERGY: 50
FORMULA: C25H22O10
RETENTIONTIME: 4.955217
IONMODE: Negative
Comment: registered in RIKEN PlaSMA
Num Peaks: 146
57.03326	94
65.00165	25
65.00538	17
81.03396	45
82.23335	31
83.00553	39
83.00977	18
83.01665	16
84.00977	16
93.03346	19
96.01873	56
96.02529	16
97.01985	21
107.01289	120
107.05476	16
108.0192	77
108.99651	16
109.02428	19
109.03133	19
121.02926	61
122.02998	16
123.04285	31
124.01423	55
124.04857	23
125.02339	1000
126.03002	16
135.03831	18
136.01654	16
136.04648	19
136.05475	25
137.02481	16
145.02751	34
146.03745	46
148.04776	21
149.05717	18
151.00296	368
151.57967	18
152.01036	295
152.01712	90
153.00978	31
153.01869	70
153.02672	14
156.05363	17
158.03275	18
161.02032	37
171.04076	24
173.05583	19
174.02544	18
175.04274	18
176.04495	16
178.99165	39
182.0732	36
183.03729	22
183.06993	16
185.06581	18
186.03612	16
187.03726	35
188.00827	16
189.01877	16
191.03198	37
196.05463	40
199.04384	39
200.03694	17
200.08397	16
207.07896	16
210.06158	20
211.06323	16
212.05176	21
213.06508	21
213.37607	17
214.07065	17
218.09344	23
222.03764	17
222.05627	18
223.03645	31
225.04585	16
226.07516	36
227.02223	17
227.06516	18
227.07443	19
228.02919	34
228.04776	19
234.06328	17
235.04131	16
236.08606	17
237.04381	18
237.05505	35
238.05396	42
238.06561	52
239.0728	18
240.03979	17
242.93394	19
247.0751	18
248.04227	17
249.05737	39
249.08307	16
250.06686	16
253.05969	18
254.05643	16
255.06177	51
257.04858	21
259.07309	17
260.07849	19
261.04987	18
263.07449	24
264.08102	16
265.04825	19
266.04779	18
266.06857	16
267.03271	19
267.06036	19
268.07397	21
269.05728	16
270.03857	18
277.05273	18
280.02896	25
281.04941	17
282.05338	56
283.06137	35
284.06268	37
287.05539	16
288.06393	29
289.04596	16
291.08514	29
293.03531	20
294.06125	16
301.08136	18
302.05151	16
303.09369	16
304.0636	17
304.11011	18
308.06375	16
309.03174	35
309.073	34
315.06622	18
317.07971	36
318.05142	26
318.11121	18
322.03806	20
322.06613	16
329.07193	32
333.06927	16
338.08313	20
341.06894	18
344.05237	17
345.08008	21

NAME: Ginsenoside Rb2
PRECURSORMZ: 1077.58509854783
PRECURSORTYPE: [M-H]-
INSTRUMENTTYPE: LC-ESI-QTOF
SMILES: CC(C)=CCCC(C)(OC1OC(COC2OCC(O)C(O)C2O)C(O)C(O)C1O)C1CCC2(C)C1C(O)CC1C3(C)CCC(OC4OC(CO)C(O)C(O)C4OC4OC(CO)C(O)C(O)C4O)C(C)(C)C3CCC21C
INCHIKEY: NODILNFGTFIURN-UHFFFAOYNA-N
Ontology: Triterpene saponins
COLLISIONENERGY: 50
FORMULA: C53H90O22
RETENTIONTIME: 6.159667
IONMODE: Negative
Comment: registered in RIKEN PlaSMA
Num Peaks: 70
59.00964	36
71.01067	115
73.02525	33
75.0056	24
84.71281	16
85.02885	17
87.00755	16
89.02366	497
93.27229	20
99.04733	20
101.02415	267
101.0322	15
101.64397	15
103.03355	15
103.04083	15
113.02489	139
114.02463	20
119.03455	98
125.0214	15
125.02751	26
131.03351	337
143.0322	81
149.04411	1000
149.45442	15
150.04782	71
159.02864	15
159.61212	17
161.04663	44
162.0529	17
179.04662	16
179.05341	45
187.06058	18
191.05051	79
191.05862	113
191.0723	15
215.06143	15
221.06082	18
221.07181	33
233.06735	43
233.07922	15
251.08403	16
282.08939	21
293.09247	15
323.36606	20
459.38443	33
460.37207	16
461.06665	17
568.8598	15
603.44165	15
621.41241	20
621.43793	16
622.4444	18
623.4281	17
743.42767	15
765.42963	17
765.47522	37
783.46527	17
783.49304	32
784.45618	15
784.49054	52
787.92346	17
790.04968	18
841.85529	16
915.52771	19
916.56836	20
945.50708	18
945.5368	31
945.58667	35
1063.99023	16
1077.58936	191

NAME: Ginsenoside Rb2
PRECURSORMZ: 1123.59057785183
PRECURSORTYPE: [M+FA-H]-
INSTRUMENTTYPE: LC-ESI-QTOF
SMILES: CC(C)=CCCC(C)(OC1OC(COC2OCC(O)C(O)C2O)C(O)C(O)C1O)C1CCC2(C)C1C(O)CC1C3(C)CCC(OC4OC(CO)C(O)C(O)C4OC4OC(CO)C(O)C(O)C4O)C(C)(C)C3CCC21C
INCHIKEY: NODILNFGTFIURN-UHFFFAOYNA-N
Ontology: Triterpene saponins
COLLISIONENERGY: 50
FORMULA: C53H90O22
RETENTIONTIME: 6.159667
IONMODE: Negative
Comment: registered in RIKEN PlaSMA
Num Peaks: 79
59.01313	18
71.01382	124
83.01337	27
87.00687	15
89.02148	154
89.02811	75
97.46117	18
101.02225	187
101.03207	19
102.03112	15
107.03407	17
113.0229	79
119.0327	69
119.03836	40
125.02152	88
131.0343	155
143.03371	37
149.04333	1000
150.04779	66
151.05293	14
159.02266	14
161.04373	67
163.05687	15
173.04628	14
178.28023	22
179.05724	34
191.05652	132
192.06288	14
221.06599	59
224.74998	15
250.06483	14
251.08072	15
293.07285	16
293.08997	44
294.08472	21
311.08969	15
488.73923	15
540.021	18
621.43927	14
622.41467	16
622.43915	16
682.87592	14
731.91937	14
765.46252	18
765.51086	37
766.21356	16
766.47443	29
766.51312	15
767.48248	18
783.48175	79
783.50763	82
784.47968	31
812.92804	14
886.01361	15
915.53864	14
916.55334	15
916.57581	17
945.51025	15
945.53729	66
945.58337	50
946.42657	17
946.48999	18
946.53271	43
946.58521	31
946.78174	14
947.53021	22
947.56946	30
949.52814	14
996.8244	14
1023.68274	18
1077.54016	83
1077.58484	572
1077.64368	79
1078.58984	250
1078.63257	31
1079.57654	62
1079.61108	45
1079.65015	16
1079.92493	14

NAME: Ginkgolide C
PRECURSORMZ: 439.12458514783
PRECURSORTYPE: [M-H]-
INSTRUMENTTYPE: LC-ESI-QTOF
SMILES: CC1C(=O)OC2C(O)C34C5OC(=O)C3(OC3OC(=O)C(O)C43C(C5O)C(C)(C)C)C12O
INCHIKEY: AMOGMTLMADGEOQ-UHFFFAOYNA-N
Ontology: Ginkgolides and bilobalides
COLLISIONENERGY: 10
FORMULA: C20H24O11
RETENTIONTIME: 4.331234
IONMODE: Negative
Comment: registered in RIKEN PlaSMA
Num Peaks: 92
72.99205	28
97.02892	5
97.0331	5
113.0251	118
117.71708	5
121.06516	6
123.08439	6
125.00775	6
125.02386	230
125.5507	6
129.01634	7
141.01788	66
142.02188	13
143.03136	5
144.05923	8
147.0062	7
151.1067	6
160.05487	7
161.06816	6
173.05463	5
174.0625	5
175.0733	7
177.09023	5
187.1431	6
190.06635	8
191.02579	5
191.03537	6
191.11696	7
195.10004	5
196.10873	5
197.13158	7
202.06233	20
202.09721	6
205.09	5
207.11482	5
213.12526	12
214.13049	5
220.08034	16
221.15759	6
223.08076	7
226.10152	6
230.08609	5
230.10492	5
230.40126	5
231.13745	5
232.13525	6
241.10982	5
241.12051	16
242.12105	5
246.05289	8
247.0945	27
249.14577	17
257.12296	5
258.12509	6
259.13629	42
260.13455	17
265.10651	5
265.14322	7
275.12421	7
277.13687	11
277.14694	21
277.16052	5
278.11282	5
281.1384	19
285.10062	7
287.11862	7
297.10187	5
303.12415	42
320.52466	5
321.12921	48
323.1012	6
331.12457	5
351.11276	10
365.04999	6
365.1149	21
365.13098	31
366.1283	5
367.12411	6
367.14514	11
377.12903	5
383.13403	1000
383.17548	5
384.1377	152
384.1665	7
384.52393	6
385.02261	6
385.14114	13
411.10953	5
411.13229	39
411.15704	5
413.12994	5
439.12277	339

NAME: Ginsenoside-Rg1
PRECURSORMZ: 845.490409804
PRECURSORTYPE: [M+FA-H]-
INSTRUMENTTYPE: LC-ESI-QTOF
SMILES: CC(C)=CCCC(C)(OC1OC(CO)C(O)C(O)C1O)C1CCC2(C)C1C(O)CC1C3(C)CCC(O)C(C)(C)C3C(CC21C)OC1OC(CO)C(O)C(O)C1O
INCHIKEY: YURJSTAIMNSZAE-UHFFFAOYNA-N
Ontology: Triterpene saponins
COLLISIONENERGY: 10
FORMULA: C42H72O14
RETENTIONTIME: 4.79915
IONMODE: Negative
Comment: registered in RIKEN PlaSMA
Num Peaks: 19
71.01326	5
89.02329	17
101.02287	12
113.02261	20
119.03079	14
119.03685	12
149.04639	6
161.04486	40
179.05475	16
475.37582	14
476.3942	7
637.42896	117
638.4256	19
638.44836	12
799.48322	137
800.48853	82
801.4834	13
845.4339	6
845.48792	1000

NAME: Silychrystin
PRECURSORMZ: 481.11402044783
PRECURSORTYPE: [M-H]-
INSTRUMENTTYPE: LC-ESI-QTOF
SMILES: COC1=C(O)C=CC(=C1)C1OC2=C(C=C(C=C2O)C2OC3=CC(O)=CC(O)=C3C(=O)C2O)C1CO
INCHIKEY: BMLIIPOXVWESJG-UHFFFAOYNA-N
Ontology: 2-arylbenzofuran flavonoids
COLLISIONENERGY: 10
FORMULA: C25H22O10
RETENTIONTIME: 4.955217
IONMODE: Negative
Comment: registered in RIKEN PlaSMA
Num Peaks: 144
83.01167	7
107.01344	10
107.01872	8
109.03099	7
123.04984	6
124.01425	13
125.02296	300
126.02306	11
126.02941	18
127.03077	18
135.03958	5
146.0479	8
147.03716	5
149.02098	5
150.98009	6
151.00429	60
151.0368	11
151.99649	7
152.00964	30
152.01768	9
152.38698	24
153.01836	50
163.00792	10
165.05933	5
174.0359	6
178.99892	124
179.99776	11
180.00914	8
181.00099	5
181.01381	26
182.49709	6
184.04546	6
188.04375	9
192.03336	10
193.03954	6
204.03172	6
214.05983	5
215.04091	5
219.02811	8
221.05806	5
223.0685	5
225.05751	6
231.03127	5
231.06172	6
235.03856	5
237.0609	5
240.04732	5
252.04216	10
253.04955	5
253.05789	5
254.06107	7
255.06137	11
256.06619	17
257.07846	11
258.07883	6
267.05936	5
268.06946	6
269.06638	6
271.05261	5
275.03644	8
277.07822	5
277.43683	7
282.05115	6
290.06815	6
295.05847	7
295.09229	5
295.4794	5
296.06882	11
297.08237	14
301.08115	7
306.05939	10
306.0903	8
307.05911	6
307.08585	5
308.07565	5
309.08176	32
310.03821	6
310.05383	17
310.06339	5
311.04895	12
311.08505	5
318.40439	9
319.09137	6
320.0817	7
321.05966	5
322.0433	18
322.05725	7
325.06967	108
325.08731	11
326.0463	5
326.07312	10
327.08307	11
330.05835	11
331.11075	5
334.07373	9
335.09225	5
336.33459	5
337.07074	74
337.11841	5
338.06976	8
347.09442	15
348.10855	7
350.07263	5
350.09579	6
351.09039	6
353.10339	6
355.07999	139
356.0853	19
357.09521	6
362.07001	5
365.10455	12
366.11349	5
376.0571	6
377.0806	6
377.10477	5
378.11734	5
383.10309	5
386.10358	5
387.09088	5
388.09036	5
389.10718	22
391.10474	5
403.07416	6
407.10641	5
407.11957	6
410.15005	6
415.0921	7
419.1001	8
423.10791	23
425.10706	7
433.09033	95
434.09204	17
435.11179	28
436.11035	8
445.08313	10
451.09991	74
452.09164	11
452.11087	10
453.11609	35
453.13345	7
463.10114	73
464.11911	6
481.11392	1000
481.14798	10

NAME: Ginsenoside Rb2
PRECURSORMZ: 1077.58509854783
PRECURSORTYPE: [M-H]-
INSTRUMENTTYPE: LC-ESI-QTOF
SMILES: CC(C)=CCCC(C)(OC1OC(COC2OCC(O)C(O)C2O)C(O)C(O)C1O)C1CCC2(C)C1C(O)CC1C3(C)CCC(OC4OC(CO)C(O)C(O)C4OC4OC(CO)C(O)C(O)C4O)C(C)(C)C3CCC21C
INCHIKEY: NODILNFGTFIURN-UHFFFAOYNA-N
Ontology: Triterpene saponins
COLLISIONENERGY: 10
FORMULA: C53H90O22
RETENTIONTIME: 6.159667
IONMODE: Negative
Comment: registered in RIKEN PlaSMA
Num Peaks: 28
84.54143	6
89.02303	26
113.02441	8
113.95827	6
119.03545	6
149.04437	46
168.30139	5
270.03485	8
490.80093	5
498.15237	5
527.0766	9
541.69159	5
765.46332	6
765.49915	17
783.48242	14
783.50745	13
784.49176	5
785.48785	6
790.17566	6
912.83514	6
916.52203	8
916.55212	7
948.59161	7
997.12238	7
1076.12769	6
1077.34009	5
1077.45837	6
1077.58752	1000

NAME: Ginsenoside Rb2
PRECURSORMZ: 1123.59057785183
PRECURSORTYPE: [M+FA-H]-
INSTRUMENTTYPE: LC-ESI-QTOF
SMILES: CC(C)=CCCC(C)(OC1OC(COC2OCC(O)C(O)C2O)C(O)C(O)C1O)C1CCC2(C)C1C(O)CC1C3(C)CCC(OC4OC(CO)C(O)C(O)C4OC4OC(CO)C(O)C(O)C4O)C(C)(C)C3CCC21C
INCHIKEY: NODILNFGTFIURN-UHFFFAOYNA-N
Ontology: Triterpene saponins
COLLISIONENERGY: 10
FORMULA: C53H90O22
RETENTIONTIME: 6.159667
IONMODE: Negative
Comment: registered in RIKEN PlaSMA
Num Peaks: 29
143.02849	6
149.054	6
551.19763	5
562.45709	8
607.0365	6
662.27466	7
662.50977	5
679.55353	5
766.48932	5
769.85327	5
945.57745	5
947.49731	14
1043.49854	8
1077.58411	1000
1078.04065	14
1078.0874	29
1078.58704	605
1078.70129	5
1079.1051	17
1079.59143	185
1080.06433	8
1080.5752	15
1080.61304	14
1096.62146	6
1101.90198	6
1104.01868	5
1104.51538	6
1105.03125	5
1123.58826	125

NAME: Ginkgolide C
PRECURSORMZ: 439.12458514783
PRECURSORTYPE: [M-H]-
INSTRUMENTTYPE: LC-ESI-QTOF
SMILES: CC1C(=O)OC2C(O)C34C5OC(=O)C3(OC3OC(=O)C(O)C43C(C5O)C(C)(C)C)C12O
INCHIKEY: AMOGMTLMADGEOQ-UHFFFAOYNA-N
Ontology: Ginkgolides and bilobalides
COLLISIONENERGY: 10
FORMULA: C20H24O11
RETENTIONTIME: 4.331234
IONMODE: Negative
Comment: registered in RIKEN PlaSMA
Num Peaks: 17
113.02173	6
141.01883	14
297.08853	8
303.13019	7
310.17996	6
321.12106	16
321.13895	18
339.15289	7
365.12677	6
383.13297	1000
384.13742	146
385.13812	24
395.13589	11
411.11838	68
411.1402	12
412.13754	13
439.12286	963

NAME: Silychrystin
PRECURSORMZ: 481.11402044783
PRECURSORTYPE: [M-H]-
INSTRUMENTTYPE: LC-ESI-QTOF
SMILES: COC1=C(O)C=CC(=C1)C1OC2=C(C=C(C=C2O)C2OC3=CC(O)=CC(O)=C3C(=O)C2O)C1CO
INCHIKEY: BMLIIPOXVWESJG-UHFFFAOYNA-N
Ontology: 2-arylbenzofuran flavonoids
COLLISIONENERGY: 10
FORMULA: C25H22O10
RETENTIONTIME: 4.955217
IONMODE: Negative
Comment: registered in RIKEN PlaSMA
Num Peaks: 14
125.0218	9
178.99553	6
325.06812	10
325.08035	7
355.08087	62
356.0795	7
433.09515	41
451.10306	94
452.0939	8
452.1084	24
453.12219	7
463.09808	38
463.1185	8
481.11151	1000

NAME: Ginsenoside Rb2
PRECURSORMZ: 1077.58509854783
PRECURSORTYPE: [M-H]-
INSTRUMENTTYPE: LC-ESI-QTOF
SMILES: CC(C)=CCCC(C)(OC1OC(COC2OCC(O)C(O)C2O)C(O)C(O)C1O)C1CCC2(C)C1C(O)CC1C3(C)CCC(OC4OC(CO)C(O)C(O)C4OC4OC(CO)C(O)C(O)C4O)C(C)(C)C3CCC21C
INCHIKEY: NODILNFGTFIURN-UHFFFAOYNA-N
Ontology: Triterpene saponins
COLLISIONENERGY: 10
FORMULA: C53H90O22
RETENTIONTIME: 6.159667
IONMODE: Negative
Comment: registered in RIKEN PlaSMA
Num Peaks: 8
66.31653	8
66.35407	13
149.10675	7
500.74905	7
530.23657	7
1000.27234	9
1077.46875	16
1077.58862	1000

NAME: Ginsenoside Rb2
PRECURSORMZ: 1123.59057785183
PRECURSORTYPE: [M+FA-H]-
INSTRUMENTTYPE: LC-ESI-QTOF
SMILES: CC(C)=CCCC(C)(OC1OC(COC2OCC(O)C(O)C2O)C(O)C(O)C1O)C1CCC2(C)C1C(O)CC1C3(C)CCC(OC4OC(CO)C(O)C(O)C4OC4OC(CO)C(O)C(O)C4O)C(C)(C)C3CCC21C
INCHIKEY: NODILNFGTFIURN-UHFFFAOYNA-N
Ontology: Triterpene saponins
COLLISIONENERGY: 10
FORMULA: C53H90O22
RETENTIONTIME: 6.159667
IONMODE: Negative
Comment: registered in RIKEN PlaSMA
Num Peaks: 27
400.71451	13
434.16785	14
587.81573	16
681.80957	11
730.72174	11
1077.44678	16
1077.57324	341
1077.65552	11
1078.07666	13
1078.11414	13
1078.58447	309
1079.08582	11
1079.58704	97
1080.58496	25
1080.62512	24
1081.60535	15
1085.79382	11
1100.60229	27
1101.0636	13
1102.58679	13
1103.0658	15
1104.02466	16
1104.50659	11
1104.60364	15
1105.55786	21
1106.04053	13
1123.59192	1000

NAME: Ginkgolide C
PRECURSORMZ: 439.12458514783
PRECURSORTYPE: [M-H]-
INSTRUMENTTYPE: LC-ESI-QTOF
SMILES: CC1C(=O)OC2C(O)C34C5OC(=O)C3(OC3OC(=O)C(O)C43C(C5O)C(C)(C)C)C12O
INCHIKEY: AMOGMTLMADGEOQ-UHFFFAOYNA-N
Ontology: Ginkgolides and bilobalides
COLLISIONENERGY: 30
FORMULA: C20H24O11
RETENTIONTIME: 4.331234
IONMODE: Negative
Comment: registered in RIKEN PlaSMA
Num Peaks: 157
69.03229	47
72.99177	32
97.02132	7
97.03273	17
100.98388	7
101.02518	8
109.02545	17
109.06597	8
110.03516	9
113.02413	240
114.02493	31
115.02933	8
115.04026	7
118.03866	7
125.02367	1000
125.06599	7
126.02682	49
127.02454	8
127.03819	23
129.01709	17
130.07301	9
130.09973	9
135.03807	7
135.04701	7
137.05995	7
141.01694	61
143.02242	6
143.03308	50
144.05275	7
149.02356	8
149.05876	9
149.0952	15
150.09821	8
150.18434	10
151.03352	9
151.119	7
153.12572	7
156.06026	9
159.03419	9
161.02307	9
162.03185	8
163.03552	20
163.10849	7
164.04311	9
164.05153	7
165.04851	23
165.05913	7
165.09555	8
176.03763	7
176.12035	8
177.054	7
177.08142	7
177.08818	6
177.09802	27
179.10202	7
180.10968	8
187.15982	9
188.03783	9
188.04929	17
189.04797	8
189.05605	8
190.02411	8
190.03159	27
191.03284	8
191.0423	17
191.07184	9
191.10829	46
191.14183	8
192.10713	8
193.09105	8
194.08841	7
195.09413	22
195.11176	39
196.1011	8
197.11951	8
200.11589	12
202.06425	52
202.13644	8
203.06708	13
203.10564	8
203.13568	19
205.04944	7
205.08681	9
207.09816	18
207.1069	7
209.1147	18
213.12573	15
214.09889	12
215.14124	31
216.14156	7
216.15863	7
217.11896	7
220.0739	7
221.11693	15
221.13118	8
221.15268	9
223.1049	9
224.10939	9
225.11356	17
229.12697	8
230.09583	33
230.10716	7
231.12965	22
231.13805	69
232.10631	9
232.14691	8
234.13316	8
235.12677	7
235.14206	15
239.10806	8
241.12344	23
242.12823	8
243.13799	8
244.10704	8
244.13657	15
245.11865	23
246.04848	8
246.06253	8
246.12808	10
247.08833	16
247.1299	31
248.10655	29
257.1088	7
258.71768	7
259.11777	14
259.1373	124
260.12546	17
260.14859	14
263.1474	9
264.11246	8
265.09891	8
273.10403	8
275.12732	28
277.13443	14
277.15613	15
278.1344	7
280.13129	8
281.14868	15
285.09607	8
285.11676	21
291.1279	9
291.1369	8
303.11487	15
308.12805	9
309.14612	8
321.13803	28
323.11575	8
337.12698	9
365.11465	9
365.13229	34
366.13242	8
383.11984	15
383.13544	35
384.13391	7
384.14819	13
411.12128	10
439.12613	7

NAME: Ginsenoside-Rg1
PRECURSORMZ: 845.490409804
PRECURSORTYPE: [M+FA-H]-
INSTRUMENTTYPE: LC-ESI-QTOF
SMILES: CC(C)=CCCC(C)(OC1OC(CO)C(O)C(O)C1O)C1CCC2(C)C1C(O)CC1C3(C)CCC(O)C(C)(C)C3C(CC21C)OC1OC(CO)C(O)C(O)C1O
INCHIKEY: YURJSTAIMNSZAE-UHFFFAOYNA-N
Ontology: Triterpene saponins
COLLISIONENERGY: 30
FORMULA: C42H72O14
RETENTIONTIME: 4.79915
IONMODE: Negative
Comment: registered in RIKEN PlaSMA
Num Peaks: 59
59.01023	6
71.01215	39
73.02744	14
83.01047	6
87.47713	6
89.02235	100
96.23083	5
101.02248	101
102.02828	16
103.02525	7
113.0231	89
114.02596	15
119.03346	142
119.04588	8
125.23464	6
131.03242	19
143.0334	88
149.04105	16
150.04868	5
159.0314	10
161.04465	380
162.04424	16
162.05074	8
170.01756	5
179.05452	234
180.05252	9
180.06117	11
344.06113	5
359.04181	8
373.5173	6
468.65836	5
471.80502	6
475.35086	11
475.37643	75
475.39703	15
476.38672	14
490.59293	6
544.37439	5
585.05469	7
619.42719	20
620.4375	22
637.43335	1000
638.4339	256
638.45129	68
639.41711	16
639.44373	46
639.46753	22
641.45337	5
709.5343	7
799.32141	16
799.48413	673
800.42712	5
800.49091	233
801.49292	64
802.51923	12
803.50934	6
845.45984	21
845.48859	118
845.52972	21

NAME: Silychrystin
PRECURSORMZ: 481.11402044783
PRECURSORTYPE: [M-H]-
INSTRUMENTTYPE: LC-ESI-QTOF
SMILES: COC1=C(O)C=CC(=C1)C1OC2=C(C=C(C=C2O)C2OC3=CC(O)=CC(O)=C3C(=O)C2O)C1CO
INCHIKEY: BMLIIPOXVWESJG-UHFFFAOYNA-N
Ontology: 2-arylbenzofuran flavonoids
COLLISIONENERGY: 30
FORMULA: C25H22O10
RETENTIONTIME: 4.955217
IONMODE: Negative
Comment: registered in RIKEN PlaSMA
Num Peaks: 244
57.03322	8
60.13028	8
61.39865	10
65.00089	6
83.00623	9
83.01245	6
107.00764	6
107.01423	11
121.02717	7
123.04609	6
125.02321	1000
126.0272	27
126.90435	6
128.03697	6
129.29228	7
131.54379	6
137.01534	9
137.0278	16
137.05838	6
138.026	6
143.08138	6
144.75569	8
149.06145	6
150.03264	8
151.00122	165
152.00841	86
153.01146	53
153.01906	152
154.02205	14
155.02252	8
162.03159	6
163.00793	6
163.02972	6
165.02	12
165.05284	13
174.03404	11
174.28537	6
175.03166	7
176.00874	6
177.01624	7
178.99712	289
179.89146	11
179.99561	14
180.00639	55
181.00957	44
181.04594	6
184.04549	6
185.02461	9
186.05161	6
187.03055	6
187.18272	6
189.01439	6
191.03409	34
191.98848	6
192.04887	6
194.05669	6
199.0405	18
200.04872	11
202.05605	7
203.05783	6
203.07043	7
203.99303	6
214.05908	6
215.02303	6
215.05836	6
216.04544	6
217.01443	7
217.04839	7
218.14238	7
219.03201	23
223.03629	6
225.01993	7
226.02202	10
226.05739	6
227.03354	22
228.0356	12
228.04602	6
229.03606	7
231.06641	8
232.04269	11
234.78099	6
236.04616	6
237.06203	7
239.063	6
240.04431	8
241.04927	6
241.75584	6
242.04253	7
242.06281	6
248.08472	6
252.03618	9
253.0594	23
254.04993	7
255.0639	19
256.06226	14
256.07834	17
256.08975	11
256.43726	8
257.04926	13
257.07559	7
262.90921	6
264.05112	6
266.04675	9
266.05875	6
268.07385	12
269.07596	6
269.09177	16
271.09009	18
271.10141	22
273.0759	14
277.04269	6
279.07068	6
282.04376	6
282.05438	6
283.0607	11
283.08759	8
284.0668	13
291.06674	9
291.11017	9
292.03375	8
293.04269	7
293.0668	9
294.0441	34
294.06186	8
294.07092	9
295.04834	7
295.06122	6
295.08698	7
295.10345	6
296.0585	12
297.06927	24
297.0787	32
297.09927	6
298.07346	9
299.07721	14
299.08667	6
300.09714	8
301.10501	9
305.0499	8
306.04465	13
306.05447	15
306.08661	10
307.04236	8
307.05945	6
307.08932	6
308.05087	6
308.06989	22
308.11658	6
308.17383	6
310.04486	39
311.04477	6
311.06287	6
311.08737	6
312.05981	7
312.10519	6
317.07993	8
319.08737	13
321.07849	6
322.04745	51
322.06021	15
322.08347	6
323.04639	12
323.07773	13
323.10559	7
325.06708	112
325.07858	106
325.10873	8
326.05283	6
326.07773	48
327.05896	6
327.08008	13
329.10016	7
330.08331	6
331.10287	6
332.04968	6
333.06522	6
333.11838	6
334.07721	6
335.08435	9
335.10254	6
337.05038	6
337.06805	22
337.10147	6
338.06339	14
338.08386	19
338.1015	6
339.11957	7
340.09131	6
341.07632	6
345.07495	13
345.09012	6
345.11356	12
346.08908	6
346.14899	8
347.09964	23
348.06052	12
348.09467	17
348.10367	6
349.09726	12
349.11871	18
350.05353	6
350.11853	7
351.0824	7
354.08627	6
355.09296	6
356.07629	9
359.08847	6
361.09915	8
362.07501	8
363.08096	6
363.92838	6
365.08908	6
365.10733	45
367.10446	7
371.08606	6
373.07654	6
374.08936	15
376.08594	18
377.08771	14
377.10904	6
379.11627	7
380.11807	8
385.06342	14
386.08746	7
388.09338	6
389.09634	6
389.1153	12
390.09067	6
390.11719	9
392.09607	6
404.10019	6
404.11627	6
406.09412	10
407.10757	9
408.09866	6
412.04453	6
415.0925	7
416.08734	6
418.06073	14
419.12445	6
434.08902	14
435.10519	19
436.1077	8
446.09042	6

NAME: Ginsenoside Rb2
PRECURSORMZ: 1077.58509854783
PRECURSORTYPE: [M-H]-
INSTRUMENTTYPE: LC-ESI-QTOF
SMILES: CC(C)=CCCC(C)(OC1OC(COC2OCC(O)C(O)C2O)C(O)C(O)C1O)C1CCC2(C)C1C(O)CC1C3(C)CCC(OC4OC(CO)C(O)C(O)C4OC4OC(CO)C(O)C(O)C4O)C(C)(C)C3CCC21C
INCHIKEY: NODILNFGTFIURN-UHFFFAOYNA-N
Ontology: Triterpene saponins
COLLISIONENERGY: 30
FORMULA: C53H90O22
RETENTIONTIME: 6.159667
IONMODE: Negative
Comment: registered in RIKEN PlaSMA
Num Peaks: 17
101.02913	10
131.03461	8
149.03929	24
149.04675	6
191.05641	7
293.09116	6
363.67505	6
450.78238	5
538.78833	5
759.33185	6
765.46918	8
786.505	5
807.19946	5
915.54047	8
945.51666	8
945.55774	13
1077.5863	1000

NAME: Ginkgolide C
PRECURSORMZ: 439.12458514783
PRECURSORTYPE: [M-H]-
INSTRUMENTTYPE: LC-ESI-QTOF
SMILES: CC1C(=O)OC2C(O)C34C5OC(=O)C3(OC3OC(=O)C(O)C43C(C5O)C(C)(C)C)C12O
INCHIKEY: AMOGMTLMADGEOQ-UHFFFAOYNA-N
Ontology: Ginkgolides and bilobalides
COLLISIONENERGY: 50
FORMULA: C20H24O11
RETENTIONTIME: 4.331234
IONMODE: Negative
Comment: registered in RIKEN PlaSMA
Num Peaks: 57
55.01714	45
69.03484	288
72.99159	137
73.0308	45
74.99922	47
85.02597	45
96.99522	50
97.02922	540
109.02909	99
111.00455	47
111.04665	57
113.02291	995
113.09433	42
114.02793	45
119.04655	50
119.05167	57
120.05068	97
120.06071	47
121.0995	42
122.03612	45
122.04296	45
123.08127	47
124.01505	50
125.02347	1000
129.03888	57
133.06612	87
134.03328	47
135.04056	47
135.1324	59
138.03101	47
138.06363	75
141.01932	120
143.04866	42
146.0674	50
152.04907	78
161.06178	71
161.09668	64
161.12732	52
171.05331	47
173.02805	125
173.05229	94
173.06906	130
176.01833	47
177.09134	311
181.14447	50
184.04803	42
186.03889	54
189.05281	52
191.03322	47
203.03905	57
211.07207	50
213.12427	45
217.12546	42
229.08801	47
235.09874	47
241.08795	59
241.12097	59

NAME: Ginsenoside-Rg1
PRECURSORMZ: 845.490409804
PRECURSORTYPE: [M+FA-H]-
INSTRUMENTTYPE: LC-ESI-QTOF
SMILES: CC(C)=CCCC(C)(OC1OC(CO)C(O)C(O)C1O)C1CCC2(C)C1C(O)CC1C3(C)CCC(O)C(C)(C)C3C(CC21C)OC1OC(CO)C(O)C(O)C1O
INCHIKEY: YURJSTAIMNSZAE-UHFFFAOYNA-N
Ontology: Triterpene saponins
COLLISIONENERGY: 50
FORMULA: C42H72O14
RETENTIONTIME: 4.79915
IONMODE: Negative
Comment: registered in RIKEN PlaSMA
Num Peaks: 50
57.00346	20
59.00928	25
59.01323	45
71.01158	190
71.01587	74
74.0336	35
83.01014	53
85.02991	25
89.01762	48
89.02457	385
93.85668	20
95.01277	68
95.0164	28
99.00916	71
101.02363	1000
102.02515	21
113.02307	334
113.028	99
114.02284	18
114.02908	75
119.03469	114
129.00998	21
131.03952	34
143.03825	24
149.04607	44
159.02293	40
159.03337	111
161.0419	125
286.00394	27
391.24738	27
391.28918	61
459.37106	21
475.37689	504
475.41086	20
476.35706	28
476.38397	233
477.39621	40
545.38953	22
553.32208	25
553.34607	20
576.40778	22
637.43182	20
638.44165	48
638.48102	22
693.16382	26
737.63495	22
799.4718	27
836.43384	20
837.46265	22
845.49548	743

NAME: Silychrystin
PRECURSORMZ: 481.11402044783
PRECURSORTYPE: [M-H]-
INSTRUMENTTYPE: LC-ESI-QTOF
SMILES: COC1=C(O)C=CC(=C1)C1OC2=C(C=C(C=C2O)C2OC3=CC(O)=CC(O)=C3C(=O)C2O)C1CO
INCHIKEY: BMLIIPOXVWESJG-UHFFFAOYNA-N
Ontology: 2-arylbenzofuran flavonoids
COLLISIONENERGY: 50
FORMULA: C25H22O10
RETENTIONTIME: 4.955217
IONMODE: Negative
Comment: registered in RIKEN PlaSMA
Num Peaks: 160
64.99959	16
70.00476	17
82.0043	15
83.01064	62
84.99305	19
96.02078	15
105.03029	15
107.00922	78
107.01553	77
107.05119	16
108.01521	16
109.00922	15
109.02906	16
110.02581	15
121.02965	61
122.03384	20
124.01617	68
124.0364	20
125.02341	1000
126.02591	30
126.03149	45
127.02598	17
132.02405	16
134.04164	15
135.00385	20
135.04057	19
136.04874	17
141.06987	44
145.57191	15
146.03929	31
148.01434	19
151.00014	311
152.00377	81
152.01114	162
153.01466	70
153.02199	60
154.02631	15
155.01939	15
159.0419	34
160.0163	15
160.05382	16
161.0284	15
162.03262	17
162.99974	16
163.03757	48
165.04579	32
166.0374	15
173.02669	19
174.02472	20
174.03256	14
174.63345	19
178.01248	15
179.03006	16
180.04269	16
182.03711	44
183.0424	16
186.06396	15
187.03975	16
188.04825	15
191.02606	32
192.04027	17
197.06696	31
197.17009	17
199.04074	47
200.04675	19
201.05696	15
207.05	18
209.05328	19
211.04205	54
211.06892	21
212.08867	18
213.05252	19
214.08832	15
221.05641	15
224.045	19
224.05664	17
224.0733	16
225.05107	18
226.02118	23
226.0663	17
227.03905	21
227.06357	16
228.04428	45
229.00156	17
232.03384	23
233.05807	17
236.0481	15
236.08408	16
237.04816	45
238.05615	23
238.06548	15
239.03444	19
240.04539	52
240.07544	20
241.03322	21
241.04915	30
241.08054	17
242.03423	15
248.05412	15
249.05051	15
252.07892	36
253.05487	22
255.05353	34
255.0675	62
255.09236	16
256.07022	38
256.07938	34
258.06955	16
261.0827	19
262.05487	19
263.0704	16
264.04749	15
264.08163	31
266.05716	37
266.0683	15
266.0889	16
267.05899	15
267.07352	15
268.0585	15
270.08682	16
274.06165	31
274.12802	17
275.07507	17
277.04202	30
278.056	15
279.06204	15
280.05402	18
281.04758	16
281.08554	23
281.10059	21
282.05637	19
283.05124	25
284.06641	15
284.07654	18
287.06317	17
289.11075	16
291.05304	15
292.07175	15
293.04428	67
294.04263	19
294.08554	25
294.09354	16
295.03787	16
297.02689	19
302.07272	25
303.07706	23
305.04654	22
307.064	27
309.05463	15
310.05014	19
310.09189	24
311.05725	16
316.06754	15
318.0834	34
321.0535	16
322.05106	15
333.06982	16
345.07883	17
349.06854	19
361.08151	18

NAME: Ginsenoside Rb2
PRECURSORMZ: 1077.58509854783
PRECURSORTYPE: [M-H]-
INSTRUMENTTYPE: LC-ESI-QTOF
SMILES: CC(C)=CCCC(C)(OC1OC(COC2OCC(O)C(O)C2O)C(O)C(O)C1O)C1CCC2(C)C1C(O)CC1C3(C)CCC(OC4OC(CO)C(O)C(O)C4OC4OC(CO)C(O)C(O)C4O)C(C)(C)C3CCC21C
INCHIKEY: NODILNFGTFIURN-UHFFFAOYNA-N
Ontology: Triterpene saponins
COLLISIONENERGY: 50
FORMULA: C53H90O22
RETENTIONTIME: 6.159667
IONMODE: Negative
Comment: registered in RIKEN PlaSMA
Num Peaks: 66
71.0134	132
73.0269	25
83.01495	45
85.02639	35
89.02297	397
90.02905	41
99.97064	16
101.02375	235
112.48029	32
113.02344	86
113.03152	21
119.03534	146
120.04132	33
125.02077	16
125.02716	26
126.02531	16
131.03296	271
132.03311	17
133.03368	16
143.03081	17
143.03694	17
149.04443	1000
150.04874	47
159.02786	55
161.0437	101
162.04831	16
173.04482	16
179.05658	16
180.0518	22
188.54337	25
191.05092	143
191.05927	164
192.05701	27
221.07057	32
222.06319	21
233.07301	16
234.06004	22
293.06314	16
293.0777	17
293.09915	59
446.33902	16
459.3739	18
459.39551	80
603.43274	18
621.43988	106
623.38879	18
766.48004	44
783.47552	116
783.505	77
784.45612	16
784.48621	36
784.5116	38
785.4892	16
884.21747	16
915.47198	24
928.57056	22
945.56171	56
945.67096	18
946.50287	16
946.5614	81
1022.66284	17
1047.28577	16
1077.53625	42
1077.58459	69
1077.61707	36
1077.66406	16

NAME: Arctigenin
PRECURSORMZ: 371.15001204783
PRECURSORTYPE: [M-H]-
INSTRUMENTTYPE: LC-ESI-QTOF
SMILES: COC1=C(OC)C=C(CC2COC(=O)C2CC2=CC(OC)=C(O)C=C2)C=C1
INCHIKEY: NQWVSMVXKMHKTF-UHFFFAOYNA-N
Ontology: Dibenzylbutyrolactone lignans
COLLISIONENERGY: 10
FORMULA: C21H24O6
RETENTIONTIME: 6.6385
IONMODE: Negative
Comment: registered in RIKEN PlaSMA
Num Peaks: 35
83.01257	212
93.03878	5
121.02989	82
122.02674	5
129.03229	6
136.05156	286
136.15332	6
137.04846	6
137.0602	7
147.04369	21
148.04985	11
151.0748	135
151.08835	6
151.12354	6
152.07735	7
161.06361	12
174.06599	16
176.08917	8
204.0372	12
209.08618	6
235.09622	49
235.64052	7
236.09947	22
295.12891	12
296.14102	6
297.07916	6
312.12912	6
327.16504	5
339.12488	8
356.11899	57
356.1362	24
357.13184	29
358.1279	5
371.12308	10
371.14923	1000

NAME: Arctigenin
PRECURSORMZ: 371.15001204783
PRECURSORTYPE: [M-H]-
INSTRUMENTTYPE: LC-ESI-QTOF
SMILES: COC1=C(OC)C=C(CC2COC(=O)C2CC2=CC(OC)=C(O)C=C2)C=C1
INCHIKEY: NQWVSMVXKMHKTF-UHFFFAOYNA-N
Ontology: Dibenzylbutyrolactone lignans
COLLISIONENERGY: 10
FORMULA: C21H24O6
RETENTIONTIME: 6.6385
IONMODE: Negative
Comment: registered in RIKEN PlaSMA
Num Peaks: 3
83.01073	8
356.12122	8
371.14789	1000

NAME: Arctigenin
PRECURSORMZ: 371.15001204783
PRECURSORTYPE: [M-H]-
INSTRUMENTTYPE: LC-ESI-QTOF
SMILES: COC1=C(OC)C=C(CC2COC(=O)C2CC2=CC(OC)=C(O)C=C2)C=C1
INCHIKEY: NQWVSMVXKMHKTF-UHFFFAOYNA-N
Ontology: Dibenzylbutyrolactone lignans
COLLISIONENERGY: 30
FORMULA: C21H24O6
RETENTIONTIME: 6.6385
IONMODE: Negative
Comment: registered in RIKEN PlaSMA
Num Peaks: 28
83.01318	230
109.02681	8
119.61271	5
121.02847	144
121.03454	31
122.02242	5
122.03481	26
133.06169	8
133.68773	5
136.05241	1000
137.05475	71
138.06325	8
139.0381	8
142.03078	5
144.65727	6
147.04488	12
151.07741	77
152.07722	8
160.05244	6
161.05916	26
161.06406	11
174.06616	8
175.03568	8
175.07425	6
191.07008	5
296.10648	8
356.11325	7
356.13416	12

NAME: Arctigenin
PRECURSORMZ: 371.15001204783
PRECURSORTYPE: [M-H]-
INSTRUMENTTYPE: LC-ESI-QTOF
SMILES: COC1=C(OC)C=C(CC2COC(=O)C2CC2=CC(OC)=C(O)C=C2)C=C1
INCHIKEY: NQWVSMVXKMHKTF-UHFFFAOYNA-N
Ontology: Dibenzylbutyrolactone lignans
COLLISIONENERGY: 50
FORMULA: C21H24O6
RETENTIONTIME: 6.6385
IONMODE: Negative
Comment: registered in RIKEN PlaSMA
Num Peaks: 12
83.0119	77
93.03288	20
121.02805	1000
121.04279	32
122.03092	32
122.03557	14
136.0517	159
137.05301	21
155.72496	12
161.05754	12
236.38663	15
247.009	12

NAME: Arctigenin
PRECURSORMZ: 371.15001204783
PRECURSORTYPE: [M-H]-
INSTRUMENTTYPE: LC-ESI-QTOF
SMILES: COC1=C(OC)C=C(CC2COC(=O)C2CC2=CC(OC)=C(O)C=C2)C=C1
INCHIKEY: NQWVSMVXKMHKTF-UHFFFAOYNA-N
Ontology: Dibenzylbutyrolactone lignans
COLLISIONENERGY: 10
FORMULA: C21H24O6
RETENTIONTIME: 6.6385
IONMODE: Negative
Comment: registered in RIKEN PlaSMA
Num Peaks: 36
55.01805	11
83.0123	189
121.02889	104
122.03071	19
122.04073	8
136.05208	391
137.0551	38
138.05977	6
147.03912	12
147.04669	5
148.0547	5
151.07512	103
152.07881	17
153.08316	5
161.0573	5
161.06726	5
174.07158	12
175.06454	6
175.07256	5
209.07164	13
219.0717	5
235.09647	49
235.10629	13
295.1196	5
295.13364	6
312.13589	15
313.13959	7
327.15216	6
328.15588	8
339.12494	6
356.10837	11
356.12955	74
357.12521	19
357.14374	6
370.90015	5
371.14853	1000

NAME: Arctigenin
PRECURSORMZ: 371.15001204783
PRECURSORTYPE: [M-H]-
INSTRUMENTTYPE: LC-ESI-QTOF
SMILES: COC1=C(OC)C=C(CC2COC(=O)C2CC2=CC(OC)=C(O)C=C2)C=C1
INCHIKEY: NQWVSMVXKMHKTF-UHFFFAOYNA-N
Ontology: Dibenzylbutyrolactone lignans
COLLISIONENERGY: 10
FORMULA: C21H24O6
RETENTIONTIME: 6.6385
IONMODE: Negative
Comment: registered in RIKEN PlaSMA
Num Peaks: 5
83.01421	15
235.09758	6
356.13474	6
357.13055	9
371.14905	1000

NAME: Arctigenin
PRECURSORMZ: 371.15001204783
PRECURSORTYPE: [M-H]-
INSTRUMENTTYPE: LC-ESI-QTOF
SMILES: COC1=C(OC)C=C(CC2COC(=O)C2CC2=CC(OC)=C(O)C=C2)C=C1
INCHIKEY: NQWVSMVXKMHKTF-UHFFFAOYNA-N
Ontology: Dibenzylbutyrolactone lignans
COLLISIONENERGY: 30
FORMULA: C21H24O6
RETENTIONTIME: 6.6385
IONMODE: Negative
Comment: registered in RIKEN PlaSMA
Num Peaks: 30
54.85973	6
55.01608	13
55.02187	11
83.01242	348
119.0448	7
121.02856	201
122.03126	17
122.04058	19
136.05177	1000
137.05199	61
137.05893	88
146.03783	7
147.04399	22
148.34157	7
151.0744	43
161.05685	32
161.06531	9
174.07082	9
178.02524	6
203.03552	13
209.07939	11
219.07381	8
295.1416	9
297.12131	7
312.14505	6
313.12665	9
355.11212	6
356.11761	8
357.13181	8
359.89948	6

NAME: Arctigenin
PRECURSORMZ: 371.15001204783
PRECURSORTYPE: [M-H]-
INSTRUMENTTYPE: LC-ESI-QTOF
SMILES: COC1=C(OC)C=C(CC2COC(=O)C2CC2=CC(OC)=C(O)C=C2)C=C1
INCHIKEY: NQWVSMVXKMHKTF-UHFFFAOYNA-N
Ontology: Dibenzylbutyrolactone lignans
COLLISIONENERGY: 50
FORMULA: C21H24O6
RETENTIONTIME: 6.6385
IONMODE: Negative
Comment: registered in RIKEN PlaSMA
Num Peaks: 12
83.01422	55
93.03222	79
121.0276	1000
122.0322	72
123.02921	16
135.03896	15
136.05219	122
137.05838	13
147.04739	18
161.06207	13
185.44923	13
263.069	16

NAME: Arctigenin
PRECURSORMZ: 371.15001204783
PRECURSORTYPE: [M-H]-
INSTRUMENTTYPE: LC-ESI-QTOF
SMILES: COC1=C(OC)C=C(CC2COC(=O)C2CC2=CC(OC)=C(O)C=C2)C=C1
INCHIKEY: NQWVSMVXKMHKTF-UHFFFAOYNA-N
Ontology: Dibenzylbutyrolactone lignans
COLLISIONENERGY: 10
FORMULA: C21H24O6
RETENTIONTIME: 6.6385
IONMODE: Negative
Comment: registered in RIKEN PlaSMA
Num Peaks: 37
69.13715	9
83.0125	166
83.25754	5
84.01561	13
121.02796	49
122.03368	7
122.04064	5
133.06868	5
136.05119	275
137.05219	17
137.06149	9
137.17468	5
138.05998	6
144.06004	5
151.07408	92
152.07266	5
152.08084	5
165.09267	5
175.0752	5
176.07959	5
191.06041	5
209.0863	6
219.06226	5
235.09142	33
236.09323	16
238.46227	6
269.09875	5
295.14212	9
312.14667	6
313.14023	15
333.40646	5
339.13477	5
356.12079	88
357.13223	11
369.13281	6
370.12567	5
371.14792	1000

NAME: Arctigenin
PRECURSORMZ: 371.15001204783
PRECURSORTYPE: [M-H]-
INSTRUMENTTYPE: LC-ESI-QTOF
SMILES: COC1=C(OC)C=C(CC2COC(=O)C2CC2=CC(OC)=C(O)C=C2)C=C1
INCHIKEY: NQWVSMVXKMHKTF-UHFFFAOYNA-N
Ontology: Dibenzylbutyrolactone lignans
COLLISIONENERGY: 10
FORMULA: C21H24O6
RETENTIONTIME: 6.6385
IONMODE: Negative
Comment: registered in RIKEN PlaSMA
Num Peaks: 4
151.07492	6
235.0961	13
356.12766	7
371.14948	1000

NAME: Arctigenin
PRECURSORMZ: 371.15001204783
PRECURSORTYPE: [M-H]-
INSTRUMENTTYPE: LC-ESI-QTOF
SMILES: COC1=C(OC)C=C(CC2COC(=O)C2CC2=CC(OC)=C(O)C=C2)C=C1
INCHIKEY: NQWVSMVXKMHKTF-UHFFFAOYNA-N
Ontology: Dibenzylbutyrolactone lignans
COLLISIONENERGY: 30
FORMULA: C21H24O6
RETENTIONTIME: 6.6385
IONMODE: Negative
Comment: registered in RIKEN PlaSMA
Num Peaks: 25
83.01264	551
84.0106	16
84.01797	18
91.05714	6
121.02675	146
121.03182	55
122.03533	7
122.04564	7
134.02907	6
136.05194	1000
136.14731	6
137.05359	39
137.05997	85
138.05447	13
138.06898	7
151.07457	83
151.08337	12
152.08142	7
157.05925	7
158.03661	8
159.04356	12
161.06155	21
221.09505	7
279.09073	8
357.13916	8

NAME: Arctigenin
PRECURSORMZ: 371.15001204783
PRECURSORTYPE: [M-H]-
INSTRUMENTTYPE: LC-ESI-QTOF
SMILES: COC1=C(OC)C=C(CC2COC(=O)C2CC2=CC(OC)=C(O)C=C2)C=C1
INCHIKEY: NQWVSMVXKMHKTF-UHFFFAOYNA-N
Ontology: Dibenzylbutyrolactone lignans
COLLISIONENERGY: 50
FORMULA: C21H24O6
RETENTIONTIME: 6.6385
IONMODE: Negative
Comment: registered in RIKEN PlaSMA
Num Peaks: 15
55.01493	17
83.0118	98
83.01558	37
93.0341	32
101.65251	23
105.06938	14
121.02831	1000
122.02596	10
122.03234	39
136.04182	24
136.05344	118
137.05031	15
137.06039	30
148.04333	17
159.03976	17

NAME: Etoposide
PRECURSORMZ: 587.17701464783
PRECURSORTYPE: [M-H]-
INSTRUMENTTYPE: LC-ESI-QTOF
SMILES: COC1=CC(=CC(OC)=C1O)C1C2C(COC2=O)C(OC2OC3COC(C)OC3C(O)C2O)C2=CC3=C(OCO3)C=C12
INCHIKEY: VJJPUSNTGOMMGY-UHFFFAOYNA-N
Ontology: Podophyllotoxins
COLLISIONENERGY: 10
FORMULA: C29H32O13
RETENTIONTIME: 5.420317
IONMODE: Negative
Comment: registered in RIKEN PlaSMA
Num Peaks: 42
83.01537	45
95.0109	47
113.02304	294
114.02547	40
127.03976	138
131.02977	47
145.04742	140
145.05479	59
153.05344	79
157.06554	40
187.06204	174
205.06532	117
261.0423	49
262.04556	49
292.06958	57
305.07236	49
307.05573	117
307.09747	47
313.7052	40
322.07764	225
322.09406	89
322.6738	57
322.88864	43
329.98871	49
337.08658	81
337.10779	249
337.134	57
338.1106	79
339.12833	123
341.12659	36
346.12015	51
351.06094	45
379.11838	38
381.0957	415
382.09967	47
398.12808	43
421.1348	51
483.15576	36
587.04315	40
587.17145	1000
587.19238	480
587.22778	36

NAME: Etoposide
PRECURSORMZ: 587.17701464783
PRECURSORTYPE: [M-H]-
INSTRUMENTTYPE: LC-ESI-QTOF
SMILES: COC1=CC(=CC(OC)=C1O)C1C2C(COC2=O)C(OC2OC3COC(C)OC3C(O)C2O)C2=CC3=C(OCO3)C=C12
INCHIKEY: VJJPUSNTGOMMGY-UHFFFAOYNA-N
Ontology: Podophyllotoxins
COLLISIONENERGY: 10
FORMULA: C29H32O13
RETENTIONTIME: 5.420317
IONMODE: Negative
Comment: registered in RIKEN PlaSMA
Num Peaks: 18
113.01964	10
143.03685	10
145.04768	9
145.05478	16
187.05786	40
205.07684	24
241.96495	10
243.05948	13
303.34119	9
324.50171	10
372.35376	10
381.08005	53
381.10162	176
382.10022	55
397.10202	10
525.15845	23
587.17682	1000
587.22925	15

NAME: Etoposide
PRECURSORMZ: 633.18249395183
PRECURSORTYPE: [M+FA-H]-
INSTRUMENTTYPE: LC-ESI-QTOF
SMILES: COC1=CC(=CC(OC)=C1O)C1C2C(COC2=O)C(OC2OC3COC(C)OC3C(O)C2O)C2=CC3=C(OCO3)C=C12
INCHIKEY: VJJPUSNTGOMMGY-UHFFFAOYNA-N
Ontology: Podophyllotoxins
COLLISIONENERGY: 10
FORMULA: C29H32O13
RETENTIONTIME: 5.420317
IONMODE: Negative
Comment: registered in RIKEN PlaSMA
Num Peaks: 8
187.05843	8
205.07262	5
381.09659	78
382.10013	18
587.17767	288
588.17957	87
589.17859	22
633.1828	1000

NAME: Etoposide
PRECURSORMZ: 587.17701464783
PRECURSORTYPE: [M-H]-
INSTRUMENTTYPE: LC-ESI-QTOF
SMILES: COC1=CC(=CC(OC)=C1O)C1C2C(COC2=O)C(OC2OC3COC(C)OC3C(O)C2O)C2=CC3=C(OCO3)C=C12
INCHIKEY: VJJPUSNTGOMMGY-UHFFFAOYNA-N
Ontology: Podophyllotoxins
COLLISIONENERGY: 30
FORMULA: C29H32O13
RETENTIONTIME: 5.420317
IONMODE: Negative
Comment: registered in RIKEN PlaSMA
Num Peaks: 53
85.02483	89
113.02492	1000
114.02492	89
127.04077	135
142.02489	124
145.04492	222
145.05511	173
153.05835	115
157.07063	144
185.05469	107
187.06273	52
204.06509	69
205.06696	58
233.06229	66
296.10873	75
297.10104	52
305.08142	133
307.06522	147
307.08878	141
311.12766	231
316.09387	61
321.08405	110
322.06314	81
322.07806	326
322.09399	66
324.1001	110
325.08606	55
327.08319	61
336.05737	58
337.06754	72
337.11008	300
337.12643	69
338.10309	61
338.11612	58
339.12186	52
339.14136	69
339.21429	66
340.12494	61
351.05164	75
352.05521	75
352.09045	72
353.07681	58
354.0994	63
366.06277	95
366.08182	167
367.07492	55
369.05963	55
381.09656	213
382.08752	86
382.09955	61
441.11456	69
467.14603	72
492.15839	63

NAME: Etoposide
PRECURSORMZ: 633.18249395183
PRECURSORTYPE: [M+FA-H]-
INSTRUMENTTYPE: LC-ESI-QTOF
SMILES: COC1=CC(=CC(OC)=C1O)C1C2C(COC2=O)C(OC2OC3COC(C)OC3C(O)C2O)C2=CC3=C(OCO3)C=C12
INCHIKEY: VJJPUSNTGOMMGY-UHFFFAOYNA-N
Ontology: Podophyllotoxins
COLLISIONENERGY: 30
FORMULA: C29H32O13
RETENTIONTIME: 5.420317
IONMODE: Negative
Comment: registered in RIKEN PlaSMA
Num Peaks: 155
53.92483	9
53.95355	10
58.00001	16
59.011	15
60.74162	10
73.02829	10
73.0319	13
79.02081	9
85.03049	47
87.04452	9
87.98404	11
95.01334	29
99.00548	34
100.00835	9
101.02341	10
113.02357	1000
114.02633	50
114.03134	20
115.0338	14
115.04181	25
121.02911	14
125.0244	12
127.03925	186
127.86617	10
128.04468	20
129.02232	45
131.03462	21
138.0284	11
139.03688	24
142.02486	49
142.03265	9
143.03165	25
144.03802	15
145.0506	372
146.04976	17
153.05463	197
154.06067	63
155.06677	10
157.05186	11
157.06421	10
159.02586	9
161.05681	13
181.05069	25
185.05263	17
185.06215	24
186.06197	21
187.05867	14
187.06595	49
188.05753	9
197.92673	18
199.04433	10
204.06053	142
205.06456	25
205.0816	10
213.05376	14
224.31136	11
225.05438	21
242.02779	14
243.06528	32
253.06096	12
267.06046	12
275.07599	10
292.0798	12
295.09711	11
298.03906	9
305.08218	91
306.08643	32
307.0657	14
307.091	25
307.10413	22
307.21912	10
308.07263	20
309.07364	9
309.10977	9
310.11444	13
311.12747	23
312.12866	10
313.06943	14
320.0687	9
322.08661	655
322.11499	9
323.08923	147
323.10916	9
324.0892	22
324.10062	10
328.84921	10
335.08994	9
336.11566	14
337.10916	975
338.10889	140
338.12363	53
339.04898	10
339.12231	199
339.13208	59
340.1066	16
340.12531	44
340.57074	12
351.04739	10
353.06711	10
357.71289	13
364.0918	9
365.09052	19
365.1066	9
366.0697	94
366.09042	11
367.08133	25
367.11328	13
373.09476	9
376.1012	19
376.18851	11
379.12311	18
381.09711	844
382.10165	281
383.09869	35
383.11844	14
384.11234	13
390.12405	9
392.07748	12
393.12888	12
394.59793	9
395.11963	15
396.10544	13
396.12961	16
397.1178	27
397.13931	182
398.1445	11
399.10388	13
401.0704	13
406.10611	28
407.09473	9
421.12698	35
421.13943	25
422.11722	10
422.1394	34
429.13794	17
433.12683	38
440.11948	13
440.13864	11
441.11578	12
441.14264	13
442.10919	13
442.12448	13
451.13962	14
452.16217	10
465.12341	11
465.13367	24
467.12949	9
481.14194	10
481.15948	10
492.13254	13
508.17365	10
510.15146	12
525.18134	13
587.17944	19
589.19049	20

NAME: Etoposide
PRECURSORMZ: 587.17701464783
PRECURSORTYPE: [M-H]-
INSTRUMENTTYPE: LC-ESI-QTOF
SMILES: COC1=CC(=CC(OC)=C1O)C1C2C(COC2=O)C(OC2OC3COC(C)OC3C(O)C2O)C2=CC3=C(OCO3)C=C12
INCHIKEY: VJJPUSNTGOMMGY-UHFFFAOYNA-N
Ontology: Podophyllotoxins
COLLISIONENERGY: 50
FORMULA: C29H32O13
RETENTIONTIME: 5.420317
IONMODE: Negative
Comment: registered in RIKEN PlaSMA
Num Peaks: 33
55.0202	58
83.01038	53
85.02879	301
95.00948	67
113.02268	488
115.03964	58
127.04031	266
138.02875	58
157.07079	70
179.07976	67
182.74889	99
184.05046	73
186.06621	70
207.0769	70
223.94881	70
237.05336	58
250.06158	58
252.0479	58
255.0274	61
279.07574	73
281.03894	53
307.05499	298
307.06741	1000
308.04935	58
308.06635	53
309.04333	61
309.07578	53
321.03973	67
322.84988	58
323.09293	58
351.05252	117
367.06949	105
382.10168	58

NAME: Etoposide
PRECURSORMZ: 633.18249395183
PRECURSORTYPE: [M+FA-H]-
INSTRUMENTTYPE: LC-ESI-QTOF
SMILES: COC1=CC(=CC(OC)=C1O)C1C2C(COC2=O)C(OC2OC3COC(C)OC3C(O)C2O)C2=CC3=C(OCO3)C=C12
INCHIKEY: VJJPUSNTGOMMGY-UHFFFAOYNA-N
Ontology: Podophyllotoxins
COLLISIONENERGY: 50
FORMULA: C29H32O13
RETENTIONTIME: 5.420317
IONMODE: Negative
Comment: registered in RIKEN PlaSMA
Num Peaks: 137
59.01133	17
69.02857	29
73.03017	19
83.01094	46
83.01534	59
84.02171	18
85.02815	362
86.02985	21
87.05299	19
88.53465	19
95.00867	60
95.01266	139
96.9932	19
99.00658	111
100.01672	17
101.01516	34
101.02227	28
107.00614	18
111.00846	47
113.02222	877
114.02314	53
121.027	235
121.03265	79
123.33585	23
125.02127	60
127.03781	839
128.03647	23
128.04402	20
131.4053	20
138.0213	19
138.03224	212
142.02063	17
143.03542	19
145.04688	313
145.05347	94
153.04863	39
153.05617	107
155.05176	44
156.05914	17
157.06044	60
157.06703	67
158.07013	53
173.05893	19
180.06474	21
187.05945	19
191.47383	19
199.0313	35
201.06667	18
204.0591	32
224.03975	29
225.06075	24
231.94151	17
240.04053	49
246.04185	23
249.05809	19
250.06834	21
251.082	43
262.05722	24
265.04376	37
265.05255	29
266.05353	22
267.07022	18
267.08774	20
275.06946	21
277.0672	35
278.06055	37
279.06436	295
280.06171	23
280.07648	39
281.03894	17
281.08484	38
283.01971	19
284.05438	19
289.05264	22
291.06027	46
292.06683	40
292.0871	23
293.05377	18
293.07901	34
294.04855	47
294.08588	41
295.04514	25
295.07355	23
296.09064	17
296.12329	32
298.04565	23
298.05615	43
305.05756	22
305.07349	26
307.05908	1000
307.36972	22
307.79858	27
308.06906	166
308.08881	18
309.07098	108
310.09082	37
310.12708	22
312.13959	22
321.02881	43
321.04477	55
321.05392	20
322.039	27
322.07944	152
322.09879	20
322.49084	19
323.06476	37
323.08557	63
323.11276	34
324.05826	19
324.09192	64
324.10553	72
325.09903	40
327.48926	19
332.07346	22
333.85358	19
337.08835	24
338.11264	46
339.09625	24
344.09671	17
346.08395	23
347.05869	28
351.05319	512
352.0636	42
352.57504	26
361.09174	22
365.06073	43
365.78915	19
366.05859	20
366.07272	45
367.07269	60
367.11221	28
368.07764	53
369.086	17
382.09464	20
389.11673	25
391.07922	24
421.13205	27

NAME: Etoposide
PRECURSORMZ: 587.17701464783
PRECURSORTYPE: [M-H]-
INSTRUMENTTYPE: LC-ESI-QTOF
SMILES: COC1=CC(=CC(OC)=C1O)C1C2C(COC2=O)C(OC2OC3COC(C)OC3C(O)C2O)C2=CC3=C(OCO3)C=C12
INCHIKEY: VJJPUSNTGOMMGY-UHFFFAOYNA-N
Ontology: Podophyllotoxins
COLLISIONENERGY: 10
FORMULA: C29H32O13
RETENTIONTIME: 5.420317
IONMODE: Negative
Comment: registered in RIKEN PlaSMA
Num Peaks: 44
95.00902	32
97.02825	35
113.0225	384
127.03522	32
127.04211	27
131.03539	78
142.02417	36
145.04898	97
201.04871	30
205.07625	27
252.0807	32
256.02878	38
267.07047	27
292.07507	32
293.06256	52
307.05908	172
307.09702	29
311.11676	41
322.06787	62
322.0849	226
322.11166	50
323.07715	46
323.099	32
337.10468	153
339.11008	32
339.13208	38
340.11642	38
351.04535	70
351.05612	36
366.07706	27
380.07959	46
381.0849	274
381.09766	728
382.10608	27
384.10422	62
391.11127	27
421.13229	30
433.13727	30
451.14294	29
507.14789	32
508.16116	30
525.1676	40
587.16223	480
587.18103	1000

NAME: Etoposide
PRECURSORMZ: 587.17701464783
PRECURSORTYPE: [M-H]-
INSTRUMENTTYPE: LC-ESI-QTOF
SMILES: COC1=CC(=CC(OC)=C1O)C1C2C(COC2=O)C(OC2OC3COC(C)OC3C(O)C2O)C2=CC3=C(OCO3)C=C12
INCHIKEY: VJJPUSNTGOMMGY-UHFFFAOYNA-N
Ontology: Podophyllotoxins
COLLISIONENERGY: 10
FORMULA: C29H32O13
RETENTIONTIME: 5.420317
IONMODE: Negative
Comment: registered in RIKEN PlaSMA
Num Peaks: 16
113.02285	20
133.05501	8
145.0507	12
187.06165	30
205.06496	9
286.06012	17
303.26901	10
381.0787	17
381.09818	212
382.08679	20
382.10104	32
383.08762	9
383.10675	22
456.60406	9
525.17841	12
587.17615	1000

NAME: Etoposide
PRECURSORMZ: 633.18249395183
PRECURSORTYPE: [M+FA-H]-
INSTRUMENTTYPE: LC-ESI-QTOF
SMILES: COC1=CC(=CC(OC)=C1O)C1C2C(COC2=O)C(OC2OC3COC(C)OC3C(O)C2O)C2=CC3=C(OCO3)C=C12
INCHIKEY: VJJPUSNTGOMMGY-UHFFFAOYNA-N
Ontology: Podophyllotoxins
COLLISIONENERGY: 10
FORMULA: C29H32O13
RETENTIONTIME: 5.420317
IONMODE: Negative
Comment: registered in RIKEN PlaSMA
Num Peaks: 7
205.06738	7
381.09634	59
382.09735	9
587.17841	265
588.1803	93
589.19171	15
633.18268	1000

NAME: Etoposide
PRECURSORMZ: 587.17701464783
PRECURSORTYPE: [M-H]-
INSTRUMENTTYPE: LC-ESI-QTOF
SMILES: COC1=CC(=CC(OC)=C1O)C1C2C(COC2=O)C(OC2OC3COC(C)OC3C(O)C2O)C2=CC3=C(OCO3)C=C12
INCHIKEY: VJJPUSNTGOMMGY-UHFFFAOYNA-N
Ontology: Podophyllotoxins
COLLISIONENERGY: 30
FORMULA: C29H32O13
RETENTIONTIME: 5.420317
IONMODE: Negative
Comment: registered in RIKEN PlaSMA
Num Peaks: 33
85.02863	77
113.02225	1000
114.02531	81
121.03418	74
127.03415	314
153.05289	125
157.06219	66
185.0549	148
187.06143	100
204.05782	77
257.08615	81
294.0824	107
304.97119	85
307.05603	177
307.10046	177
308.05701	114
308.07022	92
308.10297	77
311.14508	100
322.07574	384
322.09366	280
323.07971	85
323.0983	221
337.10959	432
337.12457	155
338.10324	74
339.11084	125
353.09802	74
366.06882	446
366.08038	266
367.07477	148
367.09048	77
381.09711	745

NAME: Etoposide
PRECURSORMZ: 587.17701464783
PRECURSORTYPE: [M-H]-
INSTRUMENTTYPE: LC-ESI-QTOF
SMILES: COC1=CC(=CC(OC)=C1O)C1C2C(COC2=O)C(OC2OC3COC(C)OC3C(O)C2O)C2=CC3=C(OCO3)C=C12
INCHIKEY: VJJPUSNTGOMMGY-UHFFFAOYNA-N
Ontology: Podophyllotoxins
COLLISIONENERGY: 50
FORMULA: C29H32O13
RETENTIONTIME: 5.420317
IONMODE: Negative
Comment: registered in RIKEN PlaSMA
Num Peaks: 45
85.02451	84
85.02951	140
95.00854	112
95.01476	340
96.01704	126
99.00426	191
113.02303	721
113.02656	298
115.03867	112
116.65092	98
121.02656	200
123.01118	112
127.0329	200
127.03838	256
127.04565	121
129.04237	121
138.02655	116
145.04442	126
154.0592	88
180.13324	98
222.07742	84
233.06088	121
237.05893	130
250.08365	98
260.05081	126
261.05264	153
263.04578	130
263.0759	88
265.07956	88
275.03552	84
277.05789	88
279.06137	628
280.06995	107
281.07242	102
294.03845	84
305.0484	93
306.05792	93
307.0575	1000
307.06955	526
309.06857	112
309.08099	116
310.13568	140
323.07715	93
351.05313	484
352.05338	209

NAME: Etoposide
PRECURSORMZ: 633.18249395183
PRECURSORTYPE: [M+FA-H]-
INSTRUMENTTYPE: LC-ESI-QTOF
SMILES: COC1=CC(=CC(OC)=C1O)C1C2C(COC2=O)C(OC2OC3COC(C)OC3C(O)C2O)C2=CC3=C(OCO3)C=C12
INCHIKEY: VJJPUSNTGOMMGY-UHFFFAOYNA-N
Ontology: Podophyllotoxins
COLLISIONENERGY: 50
FORMULA: C29H32O13
RETENTIONTIME: 5.420317
IONMODE: Negative
Comment: registered in RIKEN PlaSMA
Num Peaks: 135
49.85488	27
55.01551	15
56.25844	15
58.32857	18
83.01144	31
84.01677	18
85.029	137
86.03551	24
95.01308	59
96.01735	20
99.00683	33
99.73396	16
106.00432	16
113.02313	595
114.02723	81
121.01993	19
121.02892	66
121.03811	15
125.02091	20
127.03847	498
128.04343	59
137.02167	29
138.02754	33
138.03612	25
138.99988	17
139.03191	18
142.02202	20
144.0645	20
145.047	41
145.054	72
146.05771	46
147.05728	15
153.05434	107
157.06357	53
171.04863	16
173.05305	21
176.04388	17
176.05058	18
179.04994	18
185.06369	18
197.08545	15
199.03351	31
199.05006	15
204.06664	19
207.09984	16
208.05792	19
223.07056	35
225.05991	44
227.03241	24
237.05438	18
237.08322	18
239.03287	16
239.05789	16
239.07373	15
241.03862	16
241.05412	37
247.05977	15
250.05112	26
250.07051	15
254.98566	38
263.07242	15
264.03506	16
265.04965	17
265.08942	15
267.0835	15
275.05847	16
275.07291	19
277.05325	92
277.06497	18
278.05609	43
279.05521	119
279.06876	112
280.06317	52
280.08691	19
281.07907	55
281.091	39
282.09164	15
283.02328	15
289.04919	15
291.07126	36
292.07465	92
293.03406	19
293.04703	15
293.07623	16
295.04126	20
295.08423	15
295.09964	18
296.10507	33
297.10263	20
298.0553	15
305.08408	21
306.99402	19
307.06305	1000
307.10919	24
307.867	19
308.05258	81
308.0687	134
308.11243	43
309.07782	37
310.07516	33
310.13449	15
316.07886	20
321.04068	31
321.07327	38
322.07281	45
322.08652	259
323.05054	17
323.08957	15
324.08838	28
324.11096	26
329.09906	37
335.06805	15
335.09607	16
337.05066	55
337.0723	15
338.07614	16
338.12692	22
339.10669	16
339.13052	17
340.0885	18
346.07425	17
349.06268	15
350.07196	22
351.04706	145
351.06247	172
351.0928	16
352.03513	22
352.05923	52
353.06073	37
361.10818	15
366.05991	19
366.07446	124
368.07059	20
368.0864	23
390.06235	16

NAME: Etoposide
PRECURSORMZ: 587.17701464783
PRECURSORTYPE: [M-H]-
INSTRUMENTTYPE: LC-ESI-QTOF
SMILES: COC1=CC(=CC(OC)=C1O)C1C2C(COC2=O)C(OC2OC3COC(C)OC3C(O)C2O)C2=CC3=C(OCO3)C=C12
INCHIKEY: VJJPUSNTGOMMGY-UHFFFAOYNA-N
Ontology: Podophyllotoxins
COLLISIONENERGY: 10
FORMULA: C29H32O13
RETENTIONTIME: 5.420317
IONMODE: Negative
Comment: registered in RIKEN PlaSMA
Num Peaks: 29
71.00858	43
100.01511	68
109.02875	45
113.01911	187
114.02531	47
115.04042	79
143.03555	50
145.04977	95
146.05055	41
153.05373	92
186.0584	70
197.04218	56
204.06366	65
243.06351	41
280.15167	52
292.073	88
307.05435	234
322.07999	180
323.09091	45
323.10187	52
337.10956	266
351.0574	61
381.09763	773
382.10068	41
383.09351	43
384.10306	41
406.10614	41
587.17627	1000
587.20288	158

NAME: Etoposide
PRECURSORMZ: 587.17701464783
PRECURSORTYPE: [M-H]-
INSTRUMENTTYPE: LC-ESI-QTOF
SMILES: COC1=CC(=CC(OC)=C1O)C1C2C(COC2=O)C(OC2OC3COC(C)OC3C(O)C2O)C2=CC3=C(OCO3)C=C12
INCHIKEY: VJJPUSNTGOMMGY-UHFFFAOYNA-N
Ontology: Podophyllotoxins
COLLISIONENERGY: 10
FORMULA: C29H32O13
RETENTIONTIME: 5.420317
IONMODE: Negative
Comment: registered in RIKEN PlaSMA
Num Peaks: 15
81.70207	10
113.01812	12
143.02507	11
187.06007	64
205.06242	9
206.08296	11
246.46272	9
381.0994	158
382.10919	22
383.10254	24
439.1329	9
441.1218	12
572.13904	10
587.17749	1000
587.24988	10

NAME: Etoposide
PRECURSORMZ: 633.18249395183
PRECURSORTYPE: [M+FA-H]-
INSTRUMENTTYPE: LC-ESI-QTOF
SMILES: COC1=CC(=CC(OC)=C1O)C1C2C(COC2=O)C(OC2OC3COC(C)OC3C(O)C2O)C2=CC3=C(OCO3)C=C12
INCHIKEY: VJJPUSNTGOMMGY-UHFFFAOYNA-N
Ontology: Podophyllotoxins
COLLISIONENERGY: 10
FORMULA: C29H32O13
RETENTIONTIME: 5.420317
IONMODE: Negative
Comment: registered in RIKEN PlaSMA
Num Peaks: 6
187.06378	10
381.09909	66
587.177	307
588.18164	83
589.18243	26
633.18396	1000

NAME: Etoposide
PRECURSORMZ: 587.17701464783
PRECURSORTYPE: [M-H]-
INSTRUMENTTYPE: LC-ESI-QTOF
SMILES: COC1=CC(=CC(OC)=C1O)C1C2C(COC2=O)C(OC2OC3COC(C)OC3C(O)C2O)C2=CC3=C(OCO3)C=C12
INCHIKEY: VJJPUSNTGOMMGY-UHFFFAOYNA-N
Ontology: Podophyllotoxins
COLLISIONENERGY: 30
FORMULA: C29H32O13
RETENTIONTIME: 5.420317
IONMODE: Negative
Comment: registered in RIKEN PlaSMA
Num Peaks: 51
85.02628	123
99.01019	63
101.02306	49
111.00967	71
113.01738	79
113.02505	527
114.02216	55
121.02425	128
124.01491	55
127.03957	246
138.02748	55
138.03372	57
145.0519	197
153.05002	134
153.05754	189
197.01456	107
229.05818	74
275.07974	74
279.12888	71
280.06845	63
305.0835	57
307.05762	109
307.07056	117
307.10406	49
308.05118	68
308.06293	71
322.08594	1000
323.08203	112
323.09952	123
324.07303	68
324.09744	52
324.84692	60
337.06516	60
337.10513	598
339.10532	112
340.11035	52
351.04535	49
351.0914	57
359.09778	126
366.07101	295
367.08618	77
369.078	55
381.09558	388
382.10327	216
383.08994	90
393.09448	49
395.11032	60
397.11783	107
406.11646	79
421.11578	87
423.33673	71

NAME: Etoposide
PRECURSORMZ: 633.18249395183
PRECURSORTYPE: [M+FA-H]-
INSTRUMENTTYPE: LC-ESI-QTOF
SMILES: COC1=CC(=CC(OC)=C1O)C1C2C(COC2=O)C(OC2OC3COC(C)OC3C(O)C2O)C2=CC3=C(OCO3)C=C12
INCHIKEY: VJJPUSNTGOMMGY-UHFFFAOYNA-N
Ontology: Podophyllotoxins
COLLISIONENERGY: 30
FORMULA: C29H32O13
RETENTIONTIME: 5.420317
IONMODE: Negative
Comment: registered in RIKEN PlaSMA
Num Peaks: 150
59.01087	12
72.77838	12
73.02773	14
95.0157	18
96.02184	16
99.01184	39
99.04257	12
100.01427	12
101.01953	14
113.0238	1000
113.05205	13
114.0234	39
114.02852	56
117.41011	14
119.04918	11
119.21936	11
125.02484	28
127.03788	255
127.04249	88
128.0414	12
128.0511	12
131.03082	14
138.02748	14
139.0365	11
141.05078	16
142.02356	9
142.03053	24
143.02988	29
145.04926	231
146.05415	50
153.0553	196
155.06729	11
156.32718	14
157.04765	23
157.0632	44
161.04781	14
162.04416	14
168.28795	10
185.06183	23
186.06601	14
187.0609	143
188.06476	12
190.17459	10
204.05998	114
204.06825	91
205.06418	14
215.0629	12
225.06171	10
227.04111	11
230.53889	12
238.05054	10
241.05046	13
243.05818	35
243.07072	14
244.06685	12
267.06189	28
267.07053	24
274.5289	12
279.0632	12
296.10767	14
298.04773	12
305.06891	12
305.08859	60
306.09857	14
307.06339	53
307.07928	27
307.09149	57
307.10605	25
308.06454	13
308.1012	21
311.13165	36
312.13928	13
313.05936	31
315.22375	12
321.07721	33
322.06577	50
322.08542	531
323.08206	112
324.09747	13
335.08981	11
337.10873	905
338.07309	12
338.10638	142
338.12241	22
338.36835	10
339.10965	46
339.11896	141
339.13217	252
339.34406	10
340.11035	12
340.12558	15
340.14069	32
341.11966	21
341.13516	12
349.11884	14
351.08615	13
351.12177	10
353.09964	12
355.03345	14
355.12704	10
356.13147	10
361.10007	14
366.07501	199
367.08633	41
367.11578	10
368.07812	22
368.11987	12
369.12726	17
377.11115	12
377.31259	14
379.134	10
380.1019	10
381.09726	894
382.09866	153
383.09396	11
383.11328	28
384.10287	15
389.8551	13
395.1264	11
396.12878	12
397.13547	136
398.12061	11
398.14526	15
399.11044	13
404.11868	11
421.11792	12
421.13507	57
422.1351	31
422.15329	12
439.09335	17
439.13879	12
441.11423	10
451.1185	12
456.13559	12
463.12772	10
465.11478	20
482.16553	12
484.11752	11
507.16348	18
507.18259	13
508.12958	10
556.19904	14
567.06024	14
569.14935	12
569.16479	16
585.13733	11
587.18085	15
587.19824	14
588.17261	23
633.18433	361

NAME: Etoposide
PRECURSORMZ: 587.17701464783
PRECURSORTYPE: [M-H]-
INSTRUMENTTYPE: LC-ESI-QTOF
SMILES: COC1=CC(=CC(OC)=C1O)C1C2C(COC2=O)C(OC2OC3COC(C)OC3C(O)C2O)C2=CC3=C(OCO3)C=C12
INCHIKEY: VJJPUSNTGOMMGY-UHFFFAOYNA-N
Ontology: Podophyllotoxins
COLLISIONENERGY: 50
FORMULA: C29H32O13
RETENTIONTIME: 5.420317
IONMODE: Negative
Comment: registered in RIKEN PlaSMA
Num Peaks: 28
78.01925	168
83.00773	76
83.01584	298
85.03132	88
99.00787	97
113.02258	681
121.02448	105
127.03888	571
128.0386	126
145.04474	92
153.05113	84
193.0625	168
210.05679	92
221.05954	151
223.07542	134
249.06042	92
250.05551	84
253.06883	76
253.08354	101
264.07669	101
278.05402	88
279.06644	231
292.08682	97
293.09149	101
307.05667	1000
321.04865	92
351.04782	496
351.06467	109

NAME: Etoposide
PRECURSORMZ: 633.18249395183
PRECURSORTYPE: [M+FA-H]-
INSTRUMENTTYPE: LC-ESI-QTOF
SMILES: COC1=CC(=CC(OC)=C1O)C1C2C(COC2=O)C(OC2OC3COC(C)OC3C(O)C2O)C2=CC3=C(OCO3)C=C12
INCHIKEY: VJJPUSNTGOMMGY-UHFFFAOYNA-N
Ontology: Podophyllotoxins
COLLISIONENERGY: 50
FORMULA: C29H32O13
RETENTIONTIME: 5.420317
IONMODE: Negative
Comment: registered in RIKEN PlaSMA
Num Peaks: 132
57.03447	23
71.01271	40
73.03388	15
83.00801	37
83.01476	28
85.02851	305
86.48508	19
95.01241	29
99.00505	22
100.00945	18
104.10206	15
104.13558	20
106.00432	17
112.01553	21
113.02293	525
114.02601	82
115.62796	17
121.02697	103
122.0314	18
123.01029	51
125.02429	33
127.03948	722
128.04257	18
137.02831	15
138.02646	66
139.04082	14
143.03516	14
145.04897	147
146.03032	26
146.06007	17
153.05272	31
153.05969	52
155.0585	15
157.06497	74
158.03944	19
158.07068	14
159.04375	21
167.04921	15
169.02811	29
169.03407	19
170.03325	16
175.04282	19
183.04593	17
184.0985	21
185.06097	50
197.03952	19
199.02739	18
199.04405	14
215.03445	15
221.05356	15
221.10814	18
238.08977	15
251.06465	47
251.07487	20
253.05246	15
262.07922	15
263.07205	24
264.03635	15
264.05215	14
267.05991	23
271.07257	14
276.07663	15
277.04807	55
279.04904	15
279.06598	226
280.06735	65
280.08374	38
281.07227	35
281.08795	34
282.08621	14
283.06348	15
283.80463	29
284.02957	22
289.05157	18
290.05569	79
292.0574	34
292.0787	41
293.07712	20
293.08603	15
294.08536	14
295.09915	15
295.1088	18
296.05063	14
296.09985	20
298.039	21
299.0567	22
306.05597	47
307.06021	1000
307.59695	27
308.0256	14
308.04758	35
308.06586	258
308.08624	19
309.06961	43
309.08511	38
309.83588	16
310.07825	14
311.09637	37
321.03473	78
321.05118	37
321.06622	15
322.0849	190
323.05084	17
323.08911	137
323.83167	15
324.09979	31
324.11172	39
325.07559	16
332.0636	53
337.09485	17
338.09018	17
339.08685	52
339.12164	18
351.02151	18
351.05194	502
351.97845	20
352.05609	19
352.06812	18
352.84476	15
353.06033	37
359.09787	15
363.06824	15
365.0614	16
365.84506	15
366.06882	60
366.09216	31
367.07639	15
368.07776	38
381.08972	34
387.08371	15
409.06573	14
590.87415	19

NAME: Enterodiol
PRECURSORMZ: 301.14453274783
PRECURSORTYPE: [M-H]-
INSTRUMENTTYPE: LC-ESI-QTOF
SMILES: OCC(CC1=CC(O)=CC=C1)C(CO)CC1=CC(O)=CC=C1
INCHIKEY: DWONJCNDULPHLV-UHFFFAOYNA-N
Ontology: Dibenzylbutanediol lignans
COLLISIONENERGY: 10
FORMULA: C18H22O4
RETENTIONTIME: 5.242133
IONMODE: Negative
Comment: registered in RIKEN PlaSMA
Num Peaks: 18
106.04188	68
107.04903	42
109.06532	16
119.05258	15
133.06609	17
145.06355	11
146.07265	31
149.06023	6
163.07791	8
241.12361	25
253.12245	265
254.11777	14
254.12683	47
271.13446	64
272.1366	14
283.13721	13
301.14355	1000
301.18985	8

NAME: Enterodiol
PRECURSORMZ: 301.14453274783
PRECURSORTYPE: [M-H]-
INSTRUMENTTYPE: LC-ESI-QTOF
SMILES: OCC(CC1=CC(O)=CC=C1)C(CO)CC1=CC(O)=CC=C1
INCHIKEY: DWONJCNDULPHLV-UHFFFAOYNA-N
Ontology: Dibenzylbutanediol lignans
COLLISIONENERGY: 10
FORMULA: C18H22O4
RETENTIONTIME: 5.242133
IONMODE: Negative
Comment: registered in RIKEN PlaSMA
Num Peaks: 3
253.12498	5
301.14368	1000
301.19162	9

NAME: Enterodiol
PRECURSORMZ: 301.14453274783
PRECURSORTYPE: [M-H]-
INSTRUMENTTYPE: LC-ESI-QTOF
SMILES: OCC(CC1=CC(O)=CC=C1)C(CO)CC1=CC(O)=CC=C1
INCHIKEY: DWONJCNDULPHLV-UHFFFAOYNA-N
Ontology: Dibenzylbutanediol lignans
COLLISIONENERGY: 30
FORMULA: C18H22O4
RETENTIONTIME: 5.242133
IONMODE: Negative
Comment: registered in RIKEN PlaSMA
Num Peaks: 56
65.03777	7
93.03345	40
95.04704	9
106.04068	567
107.04863	487
108.05172	43
109.06483	90
110.06728	20
119.05103	72
121.0633	16
130.04643	10
131.04861	94
132.0527	16
133.0652	153
134.065	20
143.04709	20
144.05029	7
144.05901	8
145.06374	51
145.06958	23
146.0719	217
147.04269	7
147.07388	41
149.05988	35
157.0701	11
158.06938	10
159.07677	8
161.05014	8
161.0598	24
163.07516	17
163.08257	9
164.07835	7
173.06226	11
175.06018	7
175.07945	9
195.08243	11
199.11195	9
225.13451	5
235.10591	11
238.10641	5
241.11174	19
241.12448	100
242.1138	8
242.13667	8
251.11229	14
253.12193	1000
253.49713	7
254.12518	212
255.12392	7
269.12186	7
271.13214	212
272.12961	24
272.13956	10
283.12912	8
301.14026	15
301.15131	11

NAME: Enterodiol
PRECURSORMZ: 301.14453274783
PRECURSORTYPE: [M-H]-
INSTRUMENTTYPE: LC-ESI-QTOF
SMILES: OCC(CC1=CC(O)=CC=C1)C(CO)CC1=CC(O)=CC=C1
INCHIKEY: DWONJCNDULPHLV-UHFFFAOYNA-N
Ontology: Dibenzylbutanediol lignans
COLLISIONENERGY: 50
FORMULA: C18H22O4
RETENTIONTIME: 5.242133
IONMODE: Negative
Comment: registered in RIKEN PlaSMA
Num Peaks: 39
65.03515	44
66.04109	24
79.05058	18
92.0276	20
93.03357	62
106.04105	1000
107.04108	36
107.04877	233
107.06096	21
119.05	91
119.05803	21
120.05089	44
129.03491	17
130.03537	37
130.04298	63
131.04224	19
131.05116	104
132.04922	18
132.05827	44
133.06299	241
134.0674	18
138.17578	19
143.04726	93
143.05423	53
144.06491	18
145.02484	19
145.06499	44
145.07278	46
146.07253	45
147.04181	40
149.05798	26
157.06595	19
162.06635	19
163.07422	48
167.04828	26
173.06512	19
194.06644	18
222.06496	19
231.08104	16

NAME: Enterodiol
PRECURSORMZ: 301.14453274783
PRECURSORTYPE: [M-H]-
INSTRUMENTTYPE: LC-ESI-QTOF
SMILES: OCC(CC1=CC(O)=CC=C1)C(CO)CC1=CC(O)=CC=C1
INCHIKEY: DWONJCNDULPHLV-UHFFFAOYNA-N
Ontology: Dibenzylbutanediol lignans
COLLISIONENERGY: 10
FORMULA: C18H22O4
RETENTIONTIME: 5.242133
IONMODE: Negative
Comment: registered in RIKEN PlaSMA
Num Peaks: 18
106.0416	62
107.04892	38
109.06418	16
119.04838	5
131.05527	6
133.06537	20
145.06267	7
146.07057	28
241.1134	7
241.12172	24
253.12184	253
254.12511	57
255.12727	8
271.13211	77
272.13635	13
283.13104	10
301.14276	1000
301.19061	8

NAME: Enterodiol
PRECURSORMZ: 301.14453274783
PRECURSORTYPE: [M-H]-
INSTRUMENTTYPE: LC-ESI-QTOF
SMILES: OCC(CC1=CC(O)=CC=C1)C(CO)CC1=CC(O)=CC=C1
INCHIKEY: DWONJCNDULPHLV-UHFFFAOYNA-N
Ontology: Dibenzylbutanediol lignans
COLLISIONENERGY: 10
FORMULA: C18H22O4
RETENTIONTIME: 5.242133
IONMODE: Negative
Comment: registered in RIKEN PlaSMA
Num Peaks: 3
253.11983	9
301.14407	1000
301.19241	16

NAME: Enterodiol
PRECURSORMZ: 301.14453274783
PRECURSORTYPE: [M-H]-
INSTRUMENTTYPE: LC-ESI-QTOF
SMILES: OCC(CC1=CC(O)=CC=C1)C(CO)CC1=CC(O)=CC=C1
INCHIKEY: DWONJCNDULPHLV-UHFFFAOYNA-N
Ontology: Dibenzylbutanediol lignans
COLLISIONENERGY: 30
FORMULA: C18H22O4
RETENTIONTIME: 5.242133
IONMODE: Negative
Comment: registered in RIKEN PlaSMA
Num Peaks: 53
93.03469	29
106.04106	669
107.04897	533
108.05025	32
109.06256	50
109.06764	78
110.06834	8
119.04855	63
121.06558	25
129.63602	7
130.03999	15
131.04869	63
132.05197	17
133.06439	196
134.06584	11
142.04483	6
143.04935	28
144.04764	8
144.05548	17
145.06093	50
145.06956	12
146.07298	222
147.07121	26
147.08006	15
148.08382	8
149.05666	19
151.07254	8
157.06317	14
159.07774	10
161.05527	12
161.06509	9
162.05893	7
163.06696	9
163.07555	10
173.05763	11
173.06601	5
175.07425	16
175.08188	9
198.06845	6
205.07993	5
241.12378	103
242.11588	8
242.12819	10
251.10277	19
251.11905	7
253.12341	1000
254.1252	209
255.11476	9
255.12845	11
271.13315	196
272.13843	28
301.13254	8
301.15134	11

NAME: Enterodiol
PRECURSORMZ: 301.14453274783
PRECURSORTYPE: [M-H]-
INSTRUMENTTYPE: LC-ESI-QTOF
SMILES: OCC(CC1=CC(O)=CC=C1)C(CO)CC1=CC(O)=CC=C1
INCHIKEY: DWONJCNDULPHLV-UHFFFAOYNA-N
Ontology: Dibenzylbutanediol lignans
COLLISIONENERGY: 50
FORMULA: C18H22O4
RETENTIONTIME: 5.242133
IONMODE: Negative
Comment: registered in RIKEN PlaSMA
Num Peaks: 36
79.05328	17
80.05534	21
92.0223	32
92.02968	15
93.02818	17
93.03597	47
94.04146	18
102.04959	19
103.05628	21
106.04068	1000
107.04873	158
108.05148	17
115.0514	17
119.04709	67
119.0556	46
120.0476	15
130.04022	132
131.03928	17
131.05118	86
132.05376	15
133.06433	140
134.06712	22
143.04877	100
144.05907	17
144.20799	17
145.05679	17
145.06511	35
146.06781	26
147.08069	31
149.06158	37
157.06323	17
159.08171	15
183.07454	21
241.12613	15
247.06105	15
249.08789	17

NAME: Enterodiol
PRECURSORMZ: 301.14453274783
PRECURSORTYPE: [M-H]-
INSTRUMENTTYPE: LC-ESI-QTOF
SMILES: OCC(CC1=CC(O)=CC=C1)C(CO)CC1=CC(O)=CC=C1
INCHIKEY: DWONJCNDULPHLV-UHFFFAOYNA-N
Ontology: Dibenzylbutanediol lignans
COLLISIONENERGY: 10
FORMULA: C18H22O4
RETENTIONTIME: 5.242133
IONMODE: Negative
Comment: registered in RIKEN PlaSMA
Num Peaks: 19
106.04032	51
107.04888	60
109.06225	9
131.04897	13
133.06236	17
145.06674	7
146.07117	26
147.07753	7
241.12361	37
242.12598	9
253.12218	300
254.12535	51
254.14061	5
255.13086	11
271.13367	56
272.13275	19
283.13043	10
301.1438	1000
301.19073	11

NAME: Enterodiol
PRECURSORMZ: 301.14453274783
PRECURSORTYPE: [M-H]-
INSTRUMENTTYPE: LC-ESI-QTOF
SMILES: OCC(CC1=CC(O)=CC=C1)C(CO)CC1=CC(O)=CC=C1
INCHIKEY: DWONJCNDULPHLV-UHFFFAOYNA-N
Ontology: Dibenzylbutanediol lignans
COLLISIONENERGY: 10
FORMULA: C18H22O4
RETENTIONTIME: 5.242133
IONMODE: Negative
Comment: registered in RIKEN PlaSMA
Num Peaks: 3
253.12296	6
301.14429	1000
301.19333	12

NAME: Enterodiol
PRECURSORMZ: 301.14453274783
PRECURSORTYPE: [M-H]-
INSTRUMENTTYPE: LC-ESI-QTOF
SMILES: OCC(CC1=CC(O)=CC=C1)C(CO)CC1=CC(O)=CC=C1
INCHIKEY: DWONJCNDULPHLV-UHFFFAOYNA-N
Ontology: Dibenzylbutanediol lignans
COLLISIONENERGY: 30
FORMULA: C18H22O4
RETENTIONTIME: 5.242133
IONMODE: Negative
Comment: registered in RIKEN PlaSMA
Num Peaks: 45
93.03014	12
93.03466	14
95.05006	12
106.04184	674
107.04858	432
108.0526	23
109.06585	140
110.06651	9
119.05051	59
121.06284	22
123.82056	6
130.03987	15
131.04787	76
132.04988	8
133.06425	180
134.07051	8
143.05034	7
144.05278	10
144.05972	9
145.06372	80
146.05685	5
146.07335	232
147.07869	38
148.08163	8
149.05937	59
157.06767	6
159.07925	18
160.0524	10
161.05913	34
163.07578	23
173.05856	7
239.10672	10
241.12115	60
242.12762	12
243.13722	7
251.10454	14
251.1145	12
252.10405	6
253.12286	1000
254.12502	257
255.1254	19
271.13501	145
272.13864	23
273.13306	6
301.14377	40

NAME: Enterodiol
PRECURSORMZ: 301.14453274783
PRECURSORTYPE: [M-H]-
INSTRUMENTTYPE: LC-ESI-QTOF
SMILES: OCC(CC1=CC(O)=CC=C1)C(CO)CC1=CC(O)=CC=C1
INCHIKEY: DWONJCNDULPHLV-UHFFFAOYNA-N
Ontology: Dibenzylbutanediol lignans
COLLISIONENERGY: 50
FORMULA: C18H22O4
RETENTIONTIME: 5.242133
IONMODE: Negative
Comment: registered in RIKEN PlaSMA
Num Peaks: 31
65.03782	32
79.05294	18
81.03506	17
89.72176	15
93.03752	19
103.05311	22
104.05634	18
106.04086	1000
107.04365	99
107.05231	42
108.05174	17
109.06114	20
115.05958	22
119.04941	57
120.05071	25
121.56795	19
122.03175	18
130.04073	158
131.04895	215
133.06425	119
134.06644	42
142.0383	18
143.0459	17
145.06531	77
146.04037	17
150.06232	45
157.07138	17
161.06152	17
184.07796	15
209.06017	25
241.1308	17

NAME: Secoisolariciresinol diglucoside
PRECURSORMZ: 685.27130894783
PRECURSORTYPE: [M-H]-
INSTRUMENTTYPE: LC-ESI-QTOF
SMILES: COC1=C(O)C=CC(CC(COC2OC(CO)C(O)C(O)C2O)C(COC2OC(CO)C(O)C(O)C2O)CC2=CC(OC)=C(O)C=C2)=C1
INCHIKEY: SBVBJPHMDABKJV-UHFFFAOYNA-N
Ontology: Lignan glycosides
COLLISIONENERGY: 10
FORMULA: C32H46O16
RETENTIONTIME: 3.664383
IONMODE: Negative
Comment: registered in RIKEN PlaSMA
Num Peaks: 29
85.03788	18
89.02215	24
104.33015	13
119.03004	15
131.0361	11
143.03415	11
211.38849	12
270.0943	11
310.12256	14
325.13263	14
327.1506	26
343.14142	13
346.76703	15
361.16696	152
362.17294	35
411.69165	13
505.1803	13
506.21307	11
523.20752	141
523.22516	93
524.19397	11
524.2218	63
524.23987	19
525.24774	11
526.20923	13
534.12952	11
674.01367	13
684.23987	13
685.26862	1000

NAME: Secoisolariciresinol diglucoside
PRECURSORMZ: 731.27678825183
PRECURSORTYPE: [M+FA-H]-
INSTRUMENTTYPE: LC-ESI-QTOF
SMILES: COC1=C(O)C=CC(CC(COC2OC(CO)C(O)C(O)C2O)C(COC2OC(CO)C(O)C(O)C2O)CC2=CC(OC)=C(O)C=C2)=C1
INCHIKEY: SBVBJPHMDABKJV-UHFFFAOYNA-N
Ontology: Lignan glycosides
COLLISIONENERGY: 10
FORMULA: C32H46O16
RETENTIONTIME: 3.664383
IONMODE: Negative
Comment: registered in RIKEN PlaSMA
Num Peaks: 20
89.02207	12
101.02682	6
113.0239	6
119.0341	26
179.0558	6
325.14243	5
361.16223	96
362.16678	19
505.20767	13
506.2084	6
523.21692	179
524.22064	62
525.21796	11
685.26874	1000
685.33075	8
686.27203	351
687.27539	90
688.27356	19
688.30566	5
731.27649	295

NAME: Secoisolariciresinol diglucoside
PRECURSORMZ: 685.27130894783
PRECURSORTYPE: [M-H]-
INSTRUMENTTYPE: LC-ESI-QTOF
SMILES: COC1=C(O)C=CC(CC(COC2OC(CO)C(O)C(O)C2O)C(COC2OC(CO)C(O)C(O)C2O)CC2=CC(OC)=C(O)C=C2)=C1
INCHIKEY: SBVBJPHMDABKJV-UHFFFAOYNA-N
Ontology: Lignan glycosides
COLLISIONENERGY: 10
FORMULA: C32H46O16
RETENTIONTIME: 3.664383
IONMODE: Negative
Comment: registered in RIKEN PlaSMA
Num Peaks: 6
176.39151	9
514.74329	5
521.00183	7
678.69763	7
683.1214	5
685.27008	1000

NAME: Secoisolariciresinol diglucoside
PRECURSORMZ: 731.27678825183
PRECURSORTYPE: [M+FA-H]-
INSTRUMENTTYPE: LC-ESI-QTOF
SMILES: COC1=C(O)C=CC(CC(COC2OC(CO)C(O)C(O)C2O)C(COC2OC(CO)C(O)C(O)C2O)CC2=CC(OC)=C(O)C=C2)=C1
INCHIKEY: SBVBJPHMDABKJV-UHFFFAOYNA-N
Ontology: Lignan glycosides
COLLISIONENERGY: 10
FORMULA: C32H46O16
RETENTIONTIME: 3.664383
IONMODE: Negative
Comment: registered in RIKEN PlaSMA
Num Peaks: 5
685.27081	807
686.2738	282
687.2774	77
688.2843	5
731.27533	1000

NAME: Secoisolariciresinol diglucoside
PRECURSORMZ: 685.27130894783
PRECURSORTYPE: [M-H]-
INSTRUMENTTYPE: LC-ESI-QTOF
SMILES: COC1=C(O)C=CC(CC(COC2OC(CO)C(O)C(O)C2O)C(COC2OC(CO)C(O)C(O)C2O)CC2=CC(OC)=C(O)C=C2)=C1
INCHIKEY: SBVBJPHMDABKJV-UHFFFAOYNA-N
Ontology: Lignan glycosides
COLLISIONENERGY: 30
FORMULA: C32H46O16
RETENTIONTIME: 3.664383
IONMODE: Negative
Comment: registered in RIKEN PlaSMA
Num Peaks: 25
71.01303	72
83.0145	33
89.02135	36
101.02509	45
113.02561	38
119.03516	92
125.02857	45
143.03172	90
325.1423	51
361.15396	165
361.16879	248
362.14825	34
362.16757	43
362.18625	38
505.21515	118
508.21588	42
515.68817	65
523.22247	1000
523.26068	34
524.21759	264
524.2309	78
525.22314	72
685.24628	121
685.27405	374
685.31641	38

NAME: Secoisolariciresinol diglucoside
PRECURSORMZ: 731.27678825183
PRECURSORTYPE: [M+FA-H]-
INSTRUMENTTYPE: LC-ESI-QTOF
SMILES: COC1=C(O)C=CC(CC(COC2OC(CO)C(O)C(O)C2O)C(COC2OC(CO)C(O)C(O)C2O)CC2=CC(OC)=C(O)C=C2)=C1
INCHIKEY: SBVBJPHMDABKJV-UHFFFAOYNA-N
Ontology: Lignan glycosides
COLLISIONENERGY: 30
FORMULA: C32H46O16
RETENTIONTIME: 3.664383
IONMODE: Negative
Comment: registered in RIKEN PlaSMA
Num Peaks: 26
71.01057	8
89.02327	39
101.02135	10
104.01563	6
113.02173	18
119.03353	52
161.04173	5
179.06236	9
325.1438	34
361.16574	97
361.17795	23
362.15805	6
364.73907	5
442.15433	5
505.20148	51
506.18759	7
506.2048	14
523.21802	539
523.27191	10
524.22198	178
525.21991	29
685.2738	1000
686.27899	395
687.27808	102
688.26843	10
688.28644	14

NAME: Secoisolariciresinol diglucoside
PRECURSORMZ: 685.27130894783
PRECURSORTYPE: [M-H]-
INSTRUMENTTYPE: LC-ESI-QTOF
SMILES: COC1=C(O)C=CC(CC(COC2OC(CO)C(O)C(O)C2O)C(COC2OC(CO)C(O)C(O)C2O)CC2=CC(OC)=C(O)C=C2)=C1
INCHIKEY: SBVBJPHMDABKJV-UHFFFAOYNA-N
Ontology: Lignan glycosides
COLLISIONENERGY: 50
FORMULA: C32H46O16
RETENTIONTIME: 3.664383
IONMODE: Negative
Comment: registered in RIKEN PlaSMA
Num Peaks: 35
59.00965	100
59.01396	161
71.01231	394
89.02367	394
90.74498	72
95.0168	72
101.01958	93
101.02544	319
108.01315	65
113.02509	136
119.03336	161
121.0294	72
122.03303	294
135.04749	133
147.0415	75
147.04784	93
161.0631	129
165.05757	333
187.07295	72
193.45691	72
264.13452	111
269.07968	90
296.11075	75
310.12628	79
313.14456	204
315.11523	186
328.11646	140
329.13055	79
346.14432	251
347.14764	65
361.16351	1000
361.19244	140
362.16742	333
363.15961	72
524.20844	72

NAME: Secoisolariciresinol diglucoside
PRECURSORMZ: 731.27678825183
PRECURSORTYPE: [M+FA-H]-
INSTRUMENTTYPE: LC-ESI-QTOF
SMILES: COC1=C(O)C=CC(CC(COC2OC(CO)C(O)C(O)C2O)C(COC2OC(CO)C(O)C(O)C2O)CC2=CC(OC)=C(O)C=C2)=C1
INCHIKEY: SBVBJPHMDABKJV-UHFFFAOYNA-N
Ontology: Lignan glycosides
COLLISIONENERGY: 50
FORMULA: C32H46O16
RETENTIONTIME: 3.664383
IONMODE: Negative
Comment: registered in RIKEN PlaSMA
Num Peaks: 68
59.01073	35
59.01545	8
71.01338	19
72.00956	8
83.01099	13
85.02473	9
85.03223	7
87.00613	14
89.02285	145
97.02872	10
99.00509	20
101.02315	150
113.02201	107
115.04007	13
119.03426	78
121.03266	13
122.03848	17
123.04447	7
125.02013	6
129.02223	8
136.05092	14
141.0157	7
143.04185	6
161.05278	7
165.05478	54
166.05826	17
174.06796	6
176.08386	8
179.07019	19
189.09271	10
191.07246	9
193.09344	7
206.09956	8
209.07092	5
223.09763	7
280.54636	5
283.10327	5
286.11835	6
298.13449	8
299.12939	14
300.12723	6
300.13715	10
310.12259	9
313.14413	49
315.11642	10
325.13818	24
327.61957	6
328.12454	12
329.1489	6
330.1554	8
343.15051	97
344.16681	14
345.16989	7
346.13953	48
346.15714	17
347.14127	25
347.15921	31
355.15665	5
361.16443	1000
362.16995	223
363.16272	25
447.74942	5
492.207	8
523.21362	112
524.2157	25
524.23907	13
525.2547	6
686.26349	8

NAME: Secoisolariciresinol diglucoside
PRECURSORMZ: 685.27130894783
PRECURSORTYPE: [M-H]-
INSTRUMENTTYPE: LC-ESI-QTOF
SMILES: COC1=C(O)C=CC(CC(COC2OC(CO)C(O)C(O)C2O)C(COC2OC(CO)C(O)C(O)C2O)CC2=CC(OC)=C(O)C=C2)=C1
INCHIKEY: SBVBJPHMDABKJV-UHFFFAOYNA-N
Ontology: Lignan glycosides
COLLISIONENERGY: 10
FORMULA: C32H46O16
RETENTIONTIME: 3.664383
IONMODE: Negative
Comment: registered in RIKEN PlaSMA
Num Peaks: 25
89.02168	12
101.02182	15
119.03301	10
159.02925	24
179.05484	11
189.09326	11
273.97388	11
328.12781	14
343.14197	11
361.16113	17
361.17316	53
362.16666	10
363.17889	10
416.23895	15
435.34061	13
504.16846	11
505.20944	10
523.19659	13
523.21167	32
523.22797	33
524.20874	35
524.26178	11
684.76422	15
685.23138	33
685.27032	1000

NAME: Secoisolariciresinol diglucoside
PRECURSORMZ: 731.27678825183
PRECURSORTYPE: [M+FA-H]-
INSTRUMENTTYPE: LC-ESI-QTOF
SMILES: COC1=C(O)C=CC(CC(COC2OC(CO)C(O)C(O)C2O)C(COC2OC(CO)C(O)C(O)C2O)CC2=CC(OC)=C(O)C=C2)=C1
INCHIKEY: SBVBJPHMDABKJV-UHFFFAOYNA-N
Ontology: Lignan glycosides
COLLISIONENERGY: 10
FORMULA: C32H46O16
RETENTIONTIME: 3.664383
IONMODE: Negative
Comment: registered in RIKEN PlaSMA
Num Peaks: 18
89.02105	11
113.02302	8
119.03277	8
325.1373	11
361.16248	83
362.16623	20
505.19	9
505.20959	7
506.20206	5
523.21521	208
524.20667	18
524.22845	29
525.21417	6
685.26764	1000
686.27258	357
687.27197	83
688.28156	11
731.27502	279

NAME: Secoisolariciresinol diglucoside
PRECURSORMZ: 685.27130894783
PRECURSORTYPE: [M-H]-
INSTRUMENTTYPE: LC-ESI-QTOF
SMILES: COC1=C(O)C=CC(CC(COC2OC(CO)C(O)C(O)C2O)C(COC2OC(CO)C(O)C(O)C2O)CC2=CC(OC)=C(O)C=C2)=C1
INCHIKEY: SBVBJPHMDABKJV-UHFFFAOYNA-N
Ontology: Lignan glycosides
COLLISIONENERGY: 10
FORMULA: C32H46O16
RETENTIONTIME: 3.664383
IONMODE: Negative
Comment: registered in RIKEN PlaSMA
Num Peaks: 7
315.3692	7
343.86005	7
420.80643	7
523.23212	17
535.91406	12
678.98114	6
685.26904	1000

NAME: Secoisolariciresinol diglucoside
PRECURSORMZ: 731.27678825183
PRECURSORTYPE: [M+FA-H]-
INSTRUMENTTYPE: LC-ESI-QTOF
SMILES: COC1=C(O)C=CC(CC(COC2OC(CO)C(O)C(O)C2O)C(COC2OC(CO)C(O)C(O)C2O)CC2=CC(OC)=C(O)C=C2)=C1
INCHIKEY: SBVBJPHMDABKJV-UHFFFAOYNA-N
Ontology: Lignan glycosides
COLLISIONENERGY: 10
FORMULA: C32H46O16
RETENTIONTIME: 3.664383
IONMODE: Negative
Comment: registered in RIKEN PlaSMA
Num Peaks: 7
685.26965	892
685.33746	6
686.27368	322
687.26038	22
687.27722	72
688.27911	13
731.2746	1000

NAME: Secoisolariciresinol diglucoside
PRECURSORMZ: 731.27678825183
PRECURSORTYPE: [M+FA-H]-
INSTRUMENTTYPE: LC-ESI-QTOF
SMILES: COC1=C(O)C=CC(CC(COC2OC(CO)C(O)C(O)C2O)C(COC2OC(CO)C(O)C(O)C2O)CC2=CC(OC)=C(O)C=C2)=C1
INCHIKEY: SBVBJPHMDABKJV-UHFFFAOYNA-N
Ontology: Lignan glycosides
COLLISIONENERGY: 30
FORMULA: C32H46O16
RETENTIONTIME: 3.664383
IONMODE: Negative
Comment: registered in RIKEN PlaSMA
Num Peaks: 12
144.03596	161
343.68591	87
361.16962	79
523.20972	378
523.23669	71
524.1167	75
524.20819	79
525.2149	75
685.28101	1000
685.30963	154
686.26282	79
686.28217	71

NAME: Secoisolariciresinol diglucoside
PRECURSORMZ: 685.27130894783
PRECURSORTYPE: [M-H]-
INSTRUMENTTYPE: LC-ESI-QTOF
SMILES: COC1=C(O)C=CC(CC(COC2OC(CO)C(O)C(O)C2O)C(COC2OC(CO)C(O)C(O)C2O)CC2=CC(OC)=C(O)C=C2)=C1
INCHIKEY: SBVBJPHMDABKJV-UHFFFAOYNA-N
Ontology: Lignan glycosides
COLLISIONENERGY: 50
FORMULA: C32H46O16
RETENTIONTIME: 3.664383
IONMODE: Negative
Comment: registered in RIKEN PlaSMA
Num Peaks: 30
59.01069	145
60.01402	83
71.01137	77
89.02178	281
89.02596	118
101.02293	343
109.02743	53
113.02594	130
119.03133	53
121.02787	71
122.03108	53
136.04791	74
149.0598	74
163.077	71
165.05371	405
179.07417	71
223.0778	80
223.10329	59
282.12094	53
283.12589	71
310.12506	59
313.13718	68
325.14417	53
328.1344	62
334.29153	74
344.17731	74
346.13351	379
346.15399	83
347.14899	62
361.16602	1000

NAME: Secoisolariciresinol diglucoside
PRECURSORMZ: 731.27678825183
PRECURSORTYPE: [M+FA-H]-
INSTRUMENTTYPE: LC-ESI-QTOF
SMILES: COC1=C(O)C=CC(CC(COC2OC(CO)C(O)C(O)C2O)C(COC2OC(CO)C(O)C(O)C2O)CC2=CC(OC)=C(O)C=C2)=C1
INCHIKEY: SBVBJPHMDABKJV-UHFFFAOYNA-N
Ontology: Lignan glycosides
COLLISIONENERGY: 50
FORMULA: C32H46O16
RETENTIONTIME: 3.664383
IONMODE: Negative
Comment: registered in RIKEN PlaSMA
Num Peaks: 96
59.01205	46
71.01154	37
72.0128	7
73.02663	39
83.01398	21
85.0279	41
89.02118	119
89.0287	20
99.00514	8
99.04191	6
101.02401	194
102.02206	7
109.02665	6
111.01409	5
112.01436	7
113.02263	93
114.02878	9
119.03337	62
121.02744	6
122.0309	17
122.03793	6
123.04212	15
131.03142	5
131.03699	11
135.04329	5
136.05118	6
159.03078	14
162.06979	7
163.03976	11
165.05417	102
173.06184	10
173.07155	6
175.08498	7
179.06223	21
179.07272	23
191.07066	11
192.07347	6
193.08157	5
196.89719	6
206.05881	6
207.10266	8
216.17284	6
223.09846	9
262.3725	7
265.10858	5
282.11783	5
295.0871	10
296.10724	6
298.1152	19
299.1265	12
300.12259	6
310.11694	22
310.12866	12
311.12253	12
313.10257	11
313.13922	34
314.15872	5
316.13156	6
319.47134	8
325.13058	11
325.14502	16
326.12646	5
328.12738	48
329.13281	32
329.1431	22
330.15967	6
331.14929	11
341.14407	5
343.1485	59
343.17087	19
344.14917	11
344.16348	7
345.15851	7
346.13736	70
346.90887	6
347.14859	88
347.16837	9
348.16238	18
361.16403	1000
362.16821	238
363.16968	43
366.87836	7
370.15155	6
373.16171	5
403.17108	7
412.0213	5
443.159	5
444.1882	6
493.22339	6
505.20303	15
509.18655	5
509.20947	8
523.21606	135
524.20697	15
524.22424	23
686.28748	5

NAME: Secoisolariciresinol diglucoside
PRECURSORMZ: 685.27130894783
PRECURSORTYPE: [M-H]-
INSTRUMENTTYPE: LC-ESI-QTOF
SMILES: COC1=C(O)C=CC(CC(COC2OC(CO)C(O)C(O)C2O)C(COC2OC(CO)C(O)C(O)C2O)CC2=CC(OC)=C(O)C=C2)=C1
INCHIKEY: SBVBJPHMDABKJV-UHFFFAOYNA-N
Ontology: Lignan glycosides
COLLISIONENERGY: 10
FORMULA: C32H46O16
RETENTIONTIME: 3.664383
IONMODE: Negative
Comment: registered in RIKEN PlaSMA
Num Peaks: 22
89.02083	12
89.02539	14
101.02125	19
119.03608	23
159.02925	14
181.05658	10
188.92267	12
191.07547	10
325.14099	15
330.7084	12
361.15457	92
361.17239	30
362.181	29
506.19913	12
507.3923	10
523.1994	35
523.22162	120
524.20978	74
525.24255	13
551.76715	12
685.20587	12
685.26874	1000

NAME: Secoisolariciresinol diglucoside
PRECURSORMZ: 731.27678825183
PRECURSORTYPE: [M+FA-H]-
INSTRUMENTTYPE: LC-ESI-QTOF
SMILES: COC1=C(O)C=CC(CC(COC2OC(CO)C(O)C(O)C2O)C(COC2OC(CO)C(O)C(O)C2O)CC2=CC(OC)=C(O)C=C2)=C1
INCHIKEY: SBVBJPHMDABKJV-UHFFFAOYNA-N
Ontology: Lignan glycosides
COLLISIONENERGY: 10
FORMULA: C32H46O16
RETENTIONTIME: 3.664383
IONMODE: Negative
Comment: registered in RIKEN PlaSMA
Num Peaks: 16
89.02021	12
113.02218	8
119.03628	11
343.1601	10
361.1633	101
362.16629	31
505.19498	6
523.21887	212
524.19263	5
524.22314	63
524.25067	8
525.2226	11
685.271	1000
686.2749	367
687.28107	103
731.27686	250

NAME: Secoisolariciresinol diglucoside
PRECURSORMZ: 685.27130894783
PRECURSORTYPE: [M-H]-
INSTRUMENTTYPE: LC-ESI-QTOF
SMILES: COC1=C(O)C=CC(CC(COC2OC(CO)C(O)C(O)C2O)C(COC2OC(CO)C(O)C(O)C2O)CC2=CC(OC)=C(O)C=C2)=C1
INCHIKEY: SBVBJPHMDABKJV-UHFFFAOYNA-N
Ontology: Lignan glycosides
COLLISIONENERGY: 10
FORMULA: C32H46O16
RETENTIONTIME: 3.664383
IONMODE: Negative
Comment: registered in RIKEN PlaSMA
Num Peaks: 8
323.25555	8
442.53259	9
484.39584	7
486.24362	9
523.23065	8
551.8587	6
685.21735	6
685.26758	1000

NAME: Secoisolariciresinol diglucoside
PRECURSORMZ: 731.27678825183
PRECURSORTYPE: [M+FA-H]-
INSTRUMENTTYPE: LC-ESI-QTOF
SMILES: COC1=C(O)C=CC(CC(COC2OC(CO)C(O)C(O)C2O)C(COC2OC(CO)C(O)C(O)C2O)CC2=CC(OC)=C(O)C=C2)=C1
INCHIKEY: SBVBJPHMDABKJV-UHFFFAOYNA-N
Ontology: Lignan glycosides
COLLISIONENERGY: 10
FORMULA: C32H46O16
RETENTIONTIME: 3.664383
IONMODE: Negative
Comment: registered in RIKEN PlaSMA
Num Peaks: 6
685.27002	845
686.26788	285
687.2735	62
688.28925	11
689.24854	5
731.27472	1000

NAME: Secoisolariciresinol diglucoside
PRECURSORMZ: 685.27130894783
PRECURSORTYPE: [M-H]-
INSTRUMENTTYPE: LC-ESI-QTOF
SMILES: COC1=C(O)C=CC(CC(COC2OC(CO)C(O)C(O)C2O)C(COC2OC(CO)C(O)C(O)C2O)CC2=CC(OC)=C(O)C=C2)=C1
INCHIKEY: SBVBJPHMDABKJV-UHFFFAOYNA-N
Ontology: Lignan glycosides
COLLISIONENERGY: 30
FORMULA: C32H46O16
RETENTIONTIME: 3.664383
IONMODE: Negative
Comment: registered in RIKEN PlaSMA
Num Peaks: 30
89.0242	76
101.02203	46
113.02019	22
119.03242	99
122.03523	32
123.04401	23
131.03734	25
161.03745	22
179.05597	23
310.12317	20
325.13455	22
329.14224	20
336.43536	23
343.1676	28
361.13342	24
361.17072	199
362.18594	22
369.1507	28
371.13535	25
371.2449	33
493.21713	22
523.16931	30
523.21899	1000
524.22699	161
525.04901	21
525.20172	22
579.51587	22
685.25378	147
685.2749	292
685.31714	24

NAME: Secoisolariciresinol diglucoside
PRECURSORMZ: 731.27678825183
PRECURSORTYPE: [M+FA-H]-
INSTRUMENTTYPE: LC-ESI-QTOF
SMILES: COC1=C(O)C=CC(CC(COC2OC(CO)C(O)C(O)C2O)C(COC2OC(CO)C(O)C(O)C2O)CC2=CC(OC)=C(O)C=C2)=C1
INCHIKEY: SBVBJPHMDABKJV-UHFFFAOYNA-N
Ontology: Lignan glycosides
COLLISIONENERGY: 30
FORMULA: C32H46O16
RETENTIONTIME: 3.664383
IONMODE: Negative
Comment: registered in RIKEN PlaSMA
Num Peaks: 22
89.02304	41
101.0243	24
113.0228	12
119.03333	36
131.03334	8
143.03632	7
325.14359	6
361.15948	54
361.17319	30
362.16241	13
505.19656	16
505.21759	29
523.21936	525
524.22205	143
525.22498	43
526.23132	12
685.27319	1000
685.34167	8
686.27679	365
687.27209	66
687.29364	28
688.29535	11

NAME: Secoisolariciresinol diglucoside
PRECURSORMZ: 685.27130894783
PRECURSORTYPE: [M-H]-
INSTRUMENTTYPE: LC-ESI-QTOF
SMILES: COC1=C(O)C=CC(CC(COC2OC(CO)C(O)C(O)C2O)C(COC2OC(CO)C(O)C(O)C2O)CC2=CC(OC)=C(O)C=C2)=C1
INCHIKEY: SBVBJPHMDABKJV-UHFFFAOYNA-N
Ontology: Lignan glycosides
COLLISIONENERGY: 50
FORMULA: C32H46O16
RETENTIONTIME: 3.664383
IONMODE: Negative
Comment: registered in RIKEN PlaSMA
Num Peaks: 33
55.02188	45
59.01156	79
71.01346	51
89.0244	104
99.00303	39
101.01872	44
101.02472	77
113.02406	109
122.0353	113
149.06006	128
165.04515	40
165.06091	49
172.04662	42
179.06567	30
223.08604	30
270.09058	72
284.10196	56
295.08893	86
299.12637	86
310.1156	81
313.14697	51
315.12436	165
316.12387	64
330.14929	34
345.12662	42
346.12659	34
347.13333	32
347.14893	66
348.14529	61
361.13165	30
361.16501	1000
362.16568	74
523.224	37

NAME: Secoisolariciresinol diglucoside
PRECURSORMZ: 731.27678825183
PRECURSORTYPE: [M+FA-H]-
INSTRUMENTTYPE: LC-ESI-QTOF
SMILES: COC1=C(O)C=CC(CC(COC2OC(CO)C(O)C(O)C2O)C(COC2OC(CO)C(O)C(O)C2O)CC2=CC(OC)=C(O)C=C2)=C1
INCHIKEY: SBVBJPHMDABKJV-UHFFFAOYNA-N
Ontology: Lignan glycosides
COLLISIONENERGY: 50
FORMULA: C32H46O16
RETENTIONTIME: 3.664383
IONMODE: Negative
Comment: registered in RIKEN PlaSMA
Num Peaks: 71
59.01147	62
71.00917	20
71.01499	26
73.02665	13
85.02946	19
87.00692	10
89.02393	123
99.00508	9
101.02287	174
102.02787	7
111.04536	5
112.01593	5
113.02283	52
119.03381	48
122.03529	22
124.01248	6
129.02306	5
134.06926	5
136.0554	13
143.02779	5
143.03775	8
144.03877	6
161.06316	8
165.05237	74
165.06264	19
166.00246	5
166.05705	25
174.97972	7
178.05516	7
179.06932	23
188.08182	6
191.07091	13
193.07814	9
201.68378	7
202.97226	5
206.09377	6
237.11943	9
313.10925	7
313.13797	15
313.15479	16
315.11978	8
316.12527	7
325.13272	17
325.14804	31
326.15024	9
328.13293	24
329.13458	19
332.12543	11
343.14954	32
343.16171	14
344.16672	20
346.13318	42
346.15137	44
347.14169	43
347.15683	18
348.05011	7
348.15988	12
361.13556	10
361.16434	1000
361.20355	7
362.16614	175
363.16788	28
364.16678	5
389.16324	6
389.17542	6
507.18768	5
523.22083	161
524.21442	9
524.2384	13
525.21393	7
685.27728	6

NAME: (-)-Podophyllotoxin
PRECURSORMZ: 459.129670504
PRECURSORTYPE: [M+FA-H]-
INSTRUMENTTYPE: LC-ESI-QTOF
SMILES: COC1=CC(=CC(OC)=C1OC)C1C2C(COC2=O)C(O)C2=CC3=C(OCO3)C=C12
INCHIKEY: YJGVMLPVUAXIQN-UHFFFAOYNA-N
Ontology: Podophyllotoxins
COLLISIONENERGY: 10
FORMULA: C22H22O8
RETENTIONTIME: 6.26135
IONMODE: Negative
Comment: registered in RIKEN PlaSMA
Num Peaks: 5
51.50937	31
163.81908	27
219.69492	26
413.11362	27
459.12946	1000

NAME: (-)-Podophyllotoxin
PRECURSORMZ: 459.129670504
PRECURSORTYPE: [M+FA-H]-
INSTRUMENTTYPE: LC-ESI-QTOF
SMILES: COC1=CC(=CC(OC)=C1OC)C1C2C(COC2=O)C(O)C2=CC3=C(OCO3)C=C12
INCHIKEY: YJGVMLPVUAXIQN-UHFFFAOYNA-N
Ontology: Podophyllotoxins
COLLISIONENERGY: 10
FORMULA: C22H22O8
RETENTIONTIME: 6.26135
IONMODE: Negative
Comment: registered in RIKEN PlaSMA
Num Peaks: 7
98.38026	5
166.02652	6
308.12601	6
340.11505	5
393.33154	5
413.12924	7
459.12778	1000

NAME: (-)-Podophyllotoxin
PRECURSORMZ: 459.129670504
PRECURSORTYPE: [M+FA-H]-
INSTRUMENTTYPE: LC-ESI-QTOF
SMILES: COC1=CC(=CC(OC)=C1OC)C1C2C(COC2=O)C(O)C2=CC3=C(OCO3)C=C12
INCHIKEY: YJGVMLPVUAXIQN-UHFFFAOYNA-N
Ontology: Podophyllotoxins
COLLISIONENERGY: 30
FORMULA: C22H22O8
RETENTIONTIME: 6.26135
IONMODE: Negative
Comment: registered in RIKEN PlaSMA
Num Peaks: 4
185.11	371
368.08212	290
381.08783	290
459.12842	1000

NAME: (-)-Podophyllotoxin
PRECURSORMZ: 459.129670504
PRECURSORTYPE: [M+FA-H]-
INSTRUMENTTYPE: LC-ESI-QTOF
SMILES: COC1=CC(=CC(OC)=C1OC)C1C2C(COC2=O)C(O)C2=CC3=C(OCO3)C=C12
INCHIKEY: YJGVMLPVUAXIQN-UHFFFAOYNA-N
Ontology: Podophyllotoxins
COLLISIONENERGY: 50
FORMULA: C22H22O8
RETENTIONTIME: 6.26135
IONMODE: Negative
Comment: registered in RIKEN PlaSMA
Num Peaks: 5
208.0524	1000
266.0611	556
297.0462	611
326.03036	667
459.133	500

NAME: (-)-Podophyllotoxin
PRECURSORMZ: 459.129670504
PRECURSORTYPE: [M+FA-H]-
INSTRUMENTTYPE: LC-ESI-QTOF
SMILES: COC1=CC(=CC(OC)=C1OC)C1C2C(COC2=O)C(O)C2=CC3=C(OCO3)C=C12
INCHIKEY: YJGVMLPVUAXIQN-UHFFFAOYNA-N
Ontology: Podophyllotoxins
COLLISIONENERGY: 10
FORMULA: C22H22O8
RETENTIONTIME: 6.26135
IONMODE: Negative
Comment: registered in RIKEN PlaSMA
Num Peaks: 5
118.85834	17
223.03761	17
354.06873	23
444.09146	19
459.13052	1000

NAME: (-)-Podophyllotoxin
PRECURSORMZ: 459.129670504
PRECURSORTYPE: [M+FA-H]-
INSTRUMENTTYPE: LC-ESI-QTOF
SMILES: COC1=CC(=CC(OC)=C1OC)C1C2C(COC2=O)C(O)C2=CC3=C(OCO3)C=C12
INCHIKEY: YJGVMLPVUAXIQN-UHFFFAOYNA-N
Ontology: Podophyllotoxins
COLLISIONENERGY: 10
FORMULA: C22H22O8
RETENTIONTIME: 6.26135
IONMODE: Negative
Comment: registered in RIKEN PlaSMA
Num Peaks: 3
239.40079	6
413.12262	7
459.12878	1000

NAME: (-)-Podophyllotoxin
PRECURSORMZ: 459.129670504
PRECURSORTYPE: [M+FA-H]-
INSTRUMENTTYPE: LC-ESI-QTOF
SMILES: COC1=CC(=CC(OC)=C1OC)C1C2C(COC2=O)C(O)C2=CC3=C(OCO3)C=C12
INCHIKEY: YJGVMLPVUAXIQN-UHFFFAOYNA-N
Ontology: Podophyllotoxins
COLLISIONENERGY: 30
FORMULA: C22H22O8
RETENTIONTIME: 6.26135
IONMODE: Negative
Comment: registered in RIKEN PlaSMA
Num Peaks: 6
188.05139	368
322.078	386
352.09656	772
367.12213	351
368.08905	351
368.1077	1000

NAME: (-)-Podophyllotoxin
PRECURSORMZ: 459.129670504
PRECURSORTYPE: [M+FA-H]-
INSTRUMENTTYPE: LC-ESI-QTOF
SMILES: COC1=CC(=CC(OC)=C1OC)C1C2C(COC2=O)C(O)C2=CC3=C(OCO3)C=C12
INCHIKEY: YJGVMLPVUAXIQN-UHFFFAOYNA-N
Ontology: Podophyllotoxins
COLLISIONENERGY: 50
FORMULA: C22H22O8
RETENTIONTIME: 6.26135
IONMODE: Negative
Comment: registered in RIKEN PlaSMA
Num Peaks: 2
220.05119	870
239.03415	1000

NAME: (-)-Podophyllotoxin
PRECURSORMZ: 459.129670504
PRECURSORTYPE: [M+FA-H]-
INSTRUMENTTYPE: LC-ESI-QTOF
SMILES: COC1=CC(=CC(OC)=C1OC)C1C2C(COC2=O)C(O)C2=CC3=C(OCO3)C=C12
INCHIKEY: YJGVMLPVUAXIQN-UHFFFAOYNA-N
Ontology: Podophyllotoxins
COLLISIONENERGY: 10
FORMULA: C22H22O8
RETENTIONTIME: 6.26135
IONMODE: Negative
Comment: registered in RIKEN PlaSMA
Num Peaks: 9
185.05138	8
229.41379	6
243.99889	6
302.04218	5
329.4884	8
414.12775	7
458.2063	5
459.08826	5
459.12701	1000

NAME: (-)-Podophyllotoxin
PRECURSORMZ: 459.129670504
PRECURSORTYPE: [M+FA-H]-
INSTRUMENTTYPE: LC-ESI-QTOF
SMILES: COC1=CC(=CC(OC)=C1OC)C1C2C(COC2=O)C(O)C2=CC3=C(OCO3)C=C12
INCHIKEY: YJGVMLPVUAXIQN-UHFFFAOYNA-N
Ontology: Podophyllotoxins
COLLISIONENERGY: 30
FORMULA: C22H22O8
RETENTIONTIME: 6.26135
IONMODE: Negative
Comment: registered in RIKEN PlaSMA
Num Peaks: 2
298.08783	1000
314.07901	380

NAME: Lariciresinol
PRECURSORMZ: 359.15001204783
PRECURSORTYPE: [M-H]-
INSTRUMENTTYPE: LC-ESI-QTOF
SMILES: COC1=C(O)C=CC(CC2COC(C2CO)C2=CC(OC)=C(O)C=C2)=C1
INCHIKEY: MHXCIKYXNYCMHY-UHFFFAOYNA-N
Ontology: 7,9'-epoxylignans
COLLISIONENERGY: 10
FORMULA: C20H24O6
RETENTIONTIME: 4.95795
IONMODE: Negative
Comment: registered in RIKEN PlaSMA
Num Peaks: 39
122.03484	15
132.05737	12
143.05052	7
148.05038	8
158.03172	9
159.03802	25
159.04771	16
160.05124	256
161.05856	156
162.03088	8
163.03833	7
163.06589	7
173.05788	32
174.05806	9
174.0665	15
174.07407	13
175.07268	144
176.07751	49
177.0455	9
177.05377	13
178.06212	131
179.06267	12
179.07047	15
192.07408	77
193.08415	30
194.04695	9
224.09595	7
284.10336	14
312.13406	8
329.0965	8
329.13754	1000
329.16595	18
330.11914	15
330.14096	202
331.15073	40
331.17215	7
332.14294	8
358.12842	7
359.1492	24

NAME: Lariciresinol
PRECURSORMZ: 405.15549135183
PRECURSORTYPE: [M+FA-H]-
INSTRUMENTTYPE: LC-ESI-QTOF
SMILES: COC1=C(O)C=CC(CC2COC(C2CO)C2=CC(OC)=C(O)C=C2)=C1
INCHIKEY: MHXCIKYXNYCMHY-UHFFFAOYNA-N
Ontology: 7,9'-epoxylignans
COLLISIONENERGY: 10
FORMULA: C20H24O6
RETENTIONTIME: 4.95795
IONMODE: Negative
Comment: registered in RIKEN PlaSMA
Num Peaks: 30
111.00763	18
124.18452	23
147.04025	20
160.04549	75
160.05338	80
161.05453	69
162.05513	21
175.04562	25
175.0735	147
175.08585	20
177.05925	23
177.07985	26
178.05542	95
178.07123	21
179.06317	23
192.0652	25
192.07834	100
192.0894	37
193.08881	18
261.13495	19
299.11249	26
314.12485	19
329.13876	1000
330.146	161
331.1398	35
359.13049	18
359.1489	165
359.1701	20
360.1618	23
405.15582	20

NAME: Lariciresinol
PRECURSORMZ: 359.15001204783
PRECURSORTYPE: [M-H]-
INSTRUMENTTYPE: LC-ESI-QTOF
SMILES: COC1=C(O)C=CC(CC2COC(C2CO)C2=CC(OC)=C(O)C=C2)=C1
INCHIKEY: MHXCIKYXNYCMHY-UHFFFAOYNA-N
Ontology: 7,9'-epoxylignans
COLLISIONENERGY: 10
FORMULA: C20H24O6
RETENTIONTIME: 4.95795
IONMODE: Negative
Comment: registered in RIKEN PlaSMA
Num Peaks: 9
175.07504	7
177.05762	5
229.65605	5
329.13742	1000
330.13971	201
331.14328	17
331.15945	6
359.12656	7
359.14957	34

NAME: Lariciresinol
PRECURSORMZ: 405.15549135183
PRECURSORTYPE: [M+FA-H]-
INSTRUMENTTYPE: LC-ESI-QTOF
SMILES: COC1=C(O)C=CC(CC2COC(C2CO)C2=CC(OC)=C(O)C=C2)=C1
INCHIKEY: MHXCIKYXNYCMHY-UHFFFAOYNA-N
Ontology: 7,9'-epoxylignans
COLLISIONENERGY: 10
FORMULA: C20H24O6
RETENTIONTIME: 4.95795
IONMODE: Negative
Comment: registered in RIKEN PlaSMA
Num Peaks: 18
66.24221	19
99.00307	14
179.0701	20
275.1987	22
288.21112	16
299.08881	20
328.13409	19
329.13803	1000
329.8497	14
330.13708	218
331.1351	22
358.1405	50
359.14194	449
359.15732	91
360.15164	42
361.09882	14
361.15692	39
405.14896	100

NAME: Lariciresinol
PRECURSORMZ: 359.15001204783
PRECURSORTYPE: [M-H]-
INSTRUMENTTYPE: LC-ESI-QTOF
SMILES: COC1=C(O)C=CC(CC2COC(C2CO)C2=CC(OC)=C(O)C=C2)=C1
INCHIKEY: MHXCIKYXNYCMHY-UHFFFAOYNA-N
Ontology: 7,9'-epoxylignans
COLLISIONENERGY: 30
FORMULA: C20H24O6
RETENTIONTIME: 4.95795
IONMODE: Negative
Comment: registered in RIKEN PlaSMA
Num Peaks: 46
121.02889	37
122.03391	45
123.03812	12
134.03645	15
136.01535	12
136.04617	38
136.05475	12
137.05899	15
140.06708	20
143.04483	38
146.06671	12
147.04034	48
151.03577	12
158.03712	74
158.04819	15
159.04169	203
159.05299	54
160.05156	1000
161.056	222
162.05827	12
162.06851	26
163.03763	12
165.0531	26
173.0545	11
173.06194	42
174.06935	187
175.05812	11
175.0759	591
176.04253	17
176.04825	20
176.05635	12
176.07936	67
177.05121	53
177.06056	18
177.08171	10
178.06314	502
184.26228	12
192.07678	177
193.04532	12
193.08525	51
241.056	12
261.21964	11
267.07812	13
296.06119	12
312.08041	12
330.13885	10

NAME: Lariciresinol
PRECURSORMZ: 405.15549135183
PRECURSORTYPE: [M+FA-H]-
INSTRUMENTTYPE: LC-ESI-QTOF
SMILES: COC1=C(O)C=CC(CC2COC(C2CO)C2=CC(OC)=C(O)C=C2)=C1
INCHIKEY: MHXCIKYXNYCMHY-UHFFFAOYNA-N
Ontology: 7,9'-epoxylignans
COLLISIONENERGY: 30
FORMULA: C20H24O6
RETENTIONTIME: 4.95795
IONMODE: Negative
Comment: registered in RIKEN PlaSMA
Num Peaks: 30
121.02433	81
121.03397	75
122.03013	72
136.04985	56
146.03763	50
149.06053	78
159.35262	58
160.03946	100
160.05009	528
160.06059	150
161.05794	50
173.05048	50
173.06854	92
174.0732	114
175.07437	617
176.07239	78
177.05644	89
178.06194	1000
192.06689	58
192.07797	439
193.08099	56
194.08199	58
241.05479	61
242.0533	61
267.06906	56
299.1355	58
300.12427	86
329.12659	111
329.15134	81
330.13971	67

NAME: Lariciresinol
PRECURSORMZ: 359.15001204783
PRECURSORTYPE: [M-H]-
INSTRUMENTTYPE: LC-ESI-QTOF
SMILES: COC1=C(O)C=CC(CC2COC(C2CO)C2=CC(OC)=C(O)C=C2)=C1
INCHIKEY: MHXCIKYXNYCMHY-UHFFFAOYNA-N
Ontology: 7,9'-epoxylignans
COLLISIONENERGY: 50
FORMULA: C20H24O6
RETENTIONTIME: 4.95795
IONMODE: Negative
Comment: registered in RIKEN PlaSMA
Num Peaks: 24
91.05613	46
93.0341	40
103.05426	46
115.05222	127
121.03004	413
122.02795	81
123.03149	52
130.03857	107
131.04665	42
133.06757	35
136.01721	40
146.0367	48
147.03691	75
147.04866	38
156.05243	38
158.03404	194
159.04453	1000
160.04994	818
161.05843	457
162.05844	60
173.06535	73
174.06206	35
175.07712	94
222.06157	40

NAME: Lariciresinol
PRECURSORMZ: 405.15549135183
PRECURSORTYPE: [M+FA-H]-
INSTRUMENTTYPE: LC-ESI-QTOF
SMILES: COC1=C(O)C=CC(CC2COC(C2CO)C2=CC(OC)=C(O)C=C2)=C1
INCHIKEY: MHXCIKYXNYCMHY-UHFFFAOYNA-N
Ontology: 7,9'-epoxylignans
COLLISIONENERGY: 50
FORMULA: C20H24O6
RETENTIONTIME: 4.95795
IONMODE: Negative
Comment: registered in RIKEN PlaSMA
Num Peaks: 17
121.02823	188
122.04266	254
130.04019	244
131.04802	91
133.05853	102
145.07271	234
146.03436	96
147.0451	670
158.03697	264
159.03076	122
159.04419	152
159.04895	315
160.05049	1000
161.05363	462
161.06245	320
173.06284	396
176.04427	91

NAME: Lariciresinol
PRECURSORMZ: 359.15001204783
PRECURSORTYPE: [M-H]-
INSTRUMENTTYPE: LC-ESI-QTOF
SMILES: COC1=C(O)C=CC(CC2COC(C2CO)C2=CC(OC)=C(O)C=C2)=C1
INCHIKEY: MHXCIKYXNYCMHY-UHFFFAOYNA-N
Ontology: 7,9'-epoxylignans
COLLISIONENERGY: 10
FORMULA: C20H24O6
RETENTIONTIME: 4.95795
IONMODE: Negative
Comment: registered in RIKEN PlaSMA
Num Peaks: 56
81.03726	17
94.03304	9
108.01667	9
119.05047	8
121.02786	35
123.04886	16
129.02922	8
132.06177	9
137.06206	22
148.05286	10
149.04109	8
158.03059	18
159.04164	65
160.05042	149
160.06041	18
160.16039	9
161.05794	19
161.06427	10
162.05435	9
163.04227	8
163.07771	11
165.0471	8
165.05391	8
173.06052	54
174.05554	10
174.06898	54
175.07457	138
175.22961	7
176.03847	9
176.04848	10
176.06921	11
176.07643	12
177.0809	9
178.05443	37
178.06264	127
179.17415	7
180.06474	8
192.07858	158
193.08157	66
194.05263	7
198.98547	13
199.07214	8
208.06421	10
208.0755	9
312.83441	8
329.13776	1000
329.48309	8
330.13733	92
330.14911	66
331.14084	20
332.14987	8
341.14365	19
353.51587	7
359.11453	10
359.13803	7
359.14963	8

NAME: Lariciresinol
PRECURSORMZ: 405.15549135183
PRECURSORTYPE: [M+FA-H]-
INSTRUMENTTYPE: LC-ESI-QTOF
SMILES: COC1=C(O)C=CC(CC2COC(C2CO)C2=CC(OC)=C(O)C=C2)=C1
INCHIKEY: MHXCIKYXNYCMHY-UHFFFAOYNA-N
Ontology: 7,9'-epoxylignans
COLLISIONENERGY: 10
FORMULA: C20H24O6
RETENTIONTIME: 4.95795
IONMODE: Negative
Comment: registered in RIKEN PlaSMA
Num Peaks: 26
136.05188	25
143.04616	27
159.0442	70
160.04967	118
161.06219	63
162.07245	23
173.05374	28
175.06436	23
175.07578	204
177.05438	22
178.06612	121
191.07513	24
191.99751	28
192.07393	51
192.08856	62
193.0838	23
194.08701	30
298.12982	47
329.1387	1000
330.13235	42
330.14819	125
331.12851	24
331.14728	27
359.14615	155
360.13895	28
404.00208	25

NAME: Lariciresinol
PRECURSORMZ: 359.15001204783
PRECURSORTYPE: [M-H]-
INSTRUMENTTYPE: LC-ESI-QTOF
SMILES: COC1=C(O)C=CC(CC2COC(C2CO)C2=CC(OC)=C(O)C=C2)=C1
INCHIKEY: MHXCIKYXNYCMHY-UHFFFAOYNA-N
Ontology: 7,9'-epoxylignans
COLLISIONENERGY: 10
FORMULA: C20H24O6
RETENTIONTIME: 4.95795
IONMODE: Negative
Comment: registered in RIKEN PlaSMA
Num Peaks: 7
329.13831	1000
329.40771	8
330.14133	164
331.14545	22
332.1463	10
359.14008	30
359.16187	7

NAME: Lariciresinol
PRECURSORMZ: 405.15549135183
PRECURSORTYPE: [M+FA-H]-
INSTRUMENTTYPE: LC-ESI-QTOF
SMILES: COC1=C(O)C=CC(CC2COC(C2CO)C2=CC(OC)=C(O)C=C2)=C1
INCHIKEY: MHXCIKYXNYCMHY-UHFFFAOYNA-N
Ontology: 7,9'-epoxylignans
COLLISIONENERGY: 10
FORMULA: C20H24O6
RETENTIONTIME: 4.95795
IONMODE: Negative
Comment: registered in RIKEN PlaSMA
Num Peaks: 19
192.08072	64
259.13593	18
329.13699	1000
329.16547	43
330.12695	37
330.14072	65
330.15253	59
331.00192	22
331.15994	27
331.16998	18
358.14526	19
359.14664	706
359.18195	56
360.151	201
361.15277	78
364.14093	18
404.14713	19
405.14929	121
405.17108	25

NAME: Lariciresinol
PRECURSORMZ: 359.15001204783
PRECURSORTYPE: [M-H]-
INSTRUMENTTYPE: LC-ESI-QTOF
SMILES: COC1=C(O)C=CC(CC2COC(C2CO)C2=CC(OC)=C(O)C=C2)=C1
INCHIKEY: MHXCIKYXNYCMHY-UHFFFAOYNA-N
Ontology: 7,9'-epoxylignans
COLLISIONENERGY: 30
FORMULA: C20H24O6
RETENTIONTIME: 4.95795
IONMODE: Negative
Comment: registered in RIKEN PlaSMA
Num Peaks: 54
106.03098	19
109.02323	22
110.03001	18
115.0663	12
121.03008	81
121.06665	14
122.03192	138
122.03831	55
123.03327	17
136.0551	12
137.05501	30
137.06392	12
147.04181	68
149.0547	15
151.03412	15
158.03508	40
158.04572	19
159.02921	19
159.04507	196
160.05193	1000
161.05223	122
161.05931	143
162.03694	14
162.05299	19
162.06319	29
163.02487	12
163.0435	17
163.07904	26
173.05934	122
173.06854	32
174.06656	155
174.08002	19
175.07333	455
175.08978	13
176.04509	19
176.07201	55
176.08304	14
177.05042	21
178.03793	15
178.06169	460
179.06557	65
179.8483	14
180.0677	16
189.0556	18
192.07544	192
193.07983	75
193.0894	48
208.07819	15
239.49905	12
255.06587	15
281.08234	14
316.12543	12
329.10535	15
329.15262	15

NAME: Lariciresinol
PRECURSORMZ: 405.15549135183
PRECURSORTYPE: [M+FA-H]-
INSTRUMENTTYPE: LC-ESI-QTOF
SMILES: COC1=C(O)C=CC(CC2COC(C2CO)C2=CC(OC)=C(O)C=C2)=C1
INCHIKEY: MHXCIKYXNYCMHY-UHFFFAOYNA-N
Ontology: 7,9'-epoxylignans
COLLISIONENERGY: 30
FORMULA: C20H24O6
RETENTIONTIME: 4.95795
IONMODE: Negative
Comment: registered in RIKEN PlaSMA
Num Peaks: 22
136.05205	57
147.04102	60
159.08078	60
160.05023	676
161.05675	213
173.05737	134
174.06589	179
175.07417	773
176.07649	287
177.04912	128
178.06107	1000
179.06848	80
192.069	74
192.07889	307
193.08263	364
196.06471	65
299.13486	60
303.00348	57
329.13617	176
330.13193	68
330.14487	57
331.13361	57

NAME: Lariciresinol
PRECURSORMZ: 359.15001204783
PRECURSORTYPE: [M-H]-
INSTRUMENTTYPE: LC-ESI-QTOF
SMILES: COC1=C(O)C=CC(CC2COC(C2CO)C2=CC(OC)=C(O)C=C2)=C1
INCHIKEY: MHXCIKYXNYCMHY-UHFFFAOYNA-N
Ontology: 7,9'-epoxylignans
COLLISIONENERGY: 50
FORMULA: C20H24O6
RETENTIONTIME: 4.95795
IONMODE: Negative
Comment: registered in RIKEN PlaSMA
Num Peaks: 33
93.03198	46
105.02989	121
105.0347	68
107.04522	41
109.0292	80
121.0218	77
121.03027	62
122.03001	55
122.04038	57
130.03987	64
131.04636	116
132.02435	55
132.05301	41
134.03297	82
137.02254	46
143.05231	130
144.05788	41
145.07101	57
146.03641	118
147.04208	159
158.03552	237
158.15504	75
159.04164	1000
160.04034	139
160.05128	572
160.06392	57
161.04752	41
161.06081	843
173.06424	62
175.04321	41
175.0666	41
187.03871	46
198.06282	57

NAME: Lariciresinol
PRECURSORMZ: 405.15549135183
PRECURSORTYPE: [M+FA-H]-
INSTRUMENTTYPE: LC-ESI-QTOF
SMILES: COC1=C(O)C=CC(CC2COC(C2CO)C2=CC(OC)=C(O)C=C2)=C1
INCHIKEY: MHXCIKYXNYCMHY-UHFFFAOYNA-N
Ontology: 7,9'-epoxylignans
COLLISIONENERGY: 50
FORMULA: C20H24O6
RETENTIONTIME: 4.95795
IONMODE: Negative
Comment: registered in RIKEN PlaSMA
Num Peaks: 13
94.97643	138
105.15418	244
108.01643	125
109.03271	112
121.0276	138
147.03621	100
147.04317	281
157.3013	156
159.04681	606
160.04956	506
160.06039	288
161.05717	1000
175.0761	175

NAME: Lariciresinol
PRECURSORMZ: 359.15001204783
PRECURSORTYPE: [M-H]-
INSTRUMENTTYPE: LC-ESI-QTOF
SMILES: COC1=C(O)C=CC(CC2COC(C2CO)C2=CC(OC)=C(O)C=C2)=C1
INCHIKEY: MHXCIKYXNYCMHY-UHFFFAOYNA-N
Ontology: 7,9'-epoxylignans
COLLISIONENERGY: 10
FORMULA: C20H24O6
RETENTIONTIME: 4.95795
IONMODE: Negative
Comment: registered in RIKEN PlaSMA
Num Peaks: 55
92.02375	9
122.03448	13
123.03647	11
123.0435	12
135.03906	9
137.06258	8
142.9165	11
147.03752	14
147.04588	22
148.04483	11
148.05356	10
149.05428	11
149.062	9
151.04333	15
158.03497	58
159.05101	8
160.05069	264
161.05351	29
161.06198	27
162.06696	9
162.59402	8
173.06174	46
174.0652	46
175.07486	107
176.04128	8
176.07742	21
178.06056	123
178.07143	20
179.05905	9
188.41666	10
189.09056	8
192.06821	31
192.07767	96
193.07231	8
193.08514	24
193.09326	24
213.04477	9
213.05841	9
227.03839	12
283.1127	9
296.10602	8
298.77045	10
299.08975	9
314.11429	10
314.13574	11
329.13824	1000
329.35489	8
330.13715	162
330.14752	118
331.13416	9
331.1467	25
358.12799	8
359.09988	13
359.12579	15
359.14771	51

NAME: Lariciresinol
PRECURSORMZ: 405.15549135183
PRECURSORTYPE: [M+FA-H]-
INSTRUMENTTYPE: LC-ESI-QTOF
SMILES: COC1=C(O)C=CC(CC2COC(C2CO)C2=CC(OC)=C(O)C=C2)=C1
INCHIKEY: MHXCIKYXNYCMHY-UHFFFAOYNA-N
Ontology: 7,9'-epoxylignans
COLLISIONENERGY: 10
FORMULA: C20H24O6
RETENTIONTIME: 4.95795
IONMODE: Negative
Comment: registered in RIKEN PlaSMA
Num Peaks: 26
122.03367	27
136.05072	47
160.05278	53
161.05751	93
161.06705	30
165.0533	27
174.06151	25
174.07516	32
175.07452	273
178.05782	151
178.07584	29
179.08679	27
191.07312	30
191.09865	34
192.07262	62
192.08728	25
193.07884	52
213.01553	30
329.13913	1000
330.14212	235
331.13416	71
331.1507	62
359.13837	121
359.15454	59
360.15582	36
361.15103	33

NAME: Lariciresinol
PRECURSORMZ: 359.15001204783
PRECURSORTYPE: [M-H]-
INSTRUMENTTYPE: LC-ESI-QTOF
SMILES: COC1=C(O)C=CC(CC2COC(C2CO)C2=CC(OC)=C(O)C=C2)=C1
INCHIKEY: MHXCIKYXNYCMHY-UHFFFAOYNA-N
Ontology: 7,9'-epoxylignans
COLLISIONENERGY: 10
FORMULA: C20H24O6
RETENTIONTIME: 4.95795
IONMODE: Negative
Comment: registered in RIKEN PlaSMA
Num Peaks: 8
329.13669	1000
330.13614	180
330.14752	93
330.1673	7
331.14294	28
359.10342	6
359.1178	9
359.14508	55

NAME: Lariciresinol
PRECURSORMZ: 405.15549135183
PRECURSORTYPE: [M+FA-H]-
INSTRUMENTTYPE: LC-ESI-QTOF
SMILES: COC1=C(O)C=CC(CC2COC(C2CO)C2=CC(OC)=C(O)C=C2)=C1
INCHIKEY: MHXCIKYXNYCMHY-UHFFFAOYNA-N
Ontology: 7,9'-epoxylignans
COLLISIONENERGY: 10
FORMULA: C20H24O6
RETENTIONTIME: 4.95795
IONMODE: Negative
Comment: registered in RIKEN PlaSMA
Num Peaks: 20
159.02751	18
174.06775	20
192.0809	40
275.11658	16
327.09543	15
329.13693	1000
329.16269	36
330.12762	37
330.14377	127
330.72202	17
331.14734	17
341.08286	18
358.14716	15
359.1517	554
360.14053	34
360.15601	167
360.78214	15
361.15488	35
405.1546	129
405.16498	34

NAME: Lariciresinol
PRECURSORMZ: 359.15001204783
PRECURSORTYPE: [M-H]-
INSTRUMENTTYPE: LC-ESI-QTOF
SMILES: COC1=C(O)C=CC(CC2COC(C2CO)C2=CC(OC)=C(O)C=C2)=C1
INCHIKEY: MHXCIKYXNYCMHY-UHFFFAOYNA-N
Ontology: 7,9'-epoxylignans
COLLISIONENERGY: 30
FORMULA: C20H24O6
RETENTIONTIME: 4.95795
IONMODE: Negative
Comment: registered in RIKEN PlaSMA
Num Peaks: 53
92.46964	18
109.03201	15
114.9495	14
121.03094	67
122.03793	42
123.03793	17
135.04211	11
135.04793	30
136.01999	12
136.05049	29
137.04967	11
143.04967	12
145.02837	25
147.03624	14
147.04544	34
148.04784	25
149.05196	18
149.0643	14
150.03175	14
151.03325	13
158.03133	13
159.04337	183
160.05113	1000
161.05823	156
161.06897	29
162.05205	15
162.06317	107
163.04518	12
165.06009	12
166.25385	14
173.06393	23
174.06111	47
174.06853	63
174.07693	22
175.07353	351
176.0408	23
176.04573	13
176.07494	12
176.09099	14
177.01398	12
177.05399	65
178.05925	258
179.06618	51
191.08356	12
192.078	249
193.07016	14
193.0909	16
201.02631	16
207.05376	12
208.6366	12
283.09561	12
296.06183	11
330.1395	14

NAME: Lariciresinol
PRECURSORMZ: 405.15549135183
PRECURSORTYPE: [M+FA-H]-
INSTRUMENTTYPE: LC-ESI-QTOF
SMILES: COC1=C(O)C=CC(CC2COC(C2CO)C2=CC(OC)=C(O)C=C2)=C1
INCHIKEY: MHXCIKYXNYCMHY-UHFFFAOYNA-N
Ontology: 7,9'-epoxylignans
COLLISIONENERGY: 30
FORMULA: C20H24O6
RETENTIONTIME: 4.95795
IONMODE: Negative
Comment: registered in RIKEN PlaSMA
Num Peaks: 19
109.022	46
111.84048	56
136.05461	48
143.04271	59
160.05043	1000
161.05936	56
173.05501	54
174.06978	51
175.07674	712
176.07483	51
176.08369	77
177.05475	51
178.06125	293
192.07858	306
193.08513	56
193.09505	51
316.13055	79
329.13809	546
330.1434	61

NAME: Lariciresinol
PRECURSORMZ: 359.15001204783
PRECURSORTYPE: [M-H]-
INSTRUMENTTYPE: LC-ESI-QTOF
SMILES: COC1=C(O)C=CC(CC2COC(C2CO)C2=CC(OC)=C(O)C=C2)=C1
INCHIKEY: MHXCIKYXNYCMHY-UHFFFAOYNA-N
Ontology: 7,9'-epoxylignans
COLLISIONENERGY: 50
FORMULA: C20H24O6
RETENTIONTIME: 4.95795
IONMODE: Negative
Comment: registered in RIKEN PlaSMA
Num Peaks: 28
87.36585	49
93.03635	41
109.02098	35
115.05167	55
119.05151	53
120.0154	55
120.02429	57
121.02734	205
121.03542	49
122.03059	35
125.02241	43
130.04073	51
131.04271	55
133.07014	37
147.03717	47
147.04631	199
158.03615	312
159.03722	348
159.04489	1000
160.04935	355
161.05591	371
161.06609	154
162.03156	70
162.05559	35
162.81728	43
173.05614	98
175.0687	39
175.07692	49

NAME: Lariciresinol
PRECURSORMZ: 405.15549135183
PRECURSORTYPE: [M+FA-H]-
INSTRUMENTTYPE: LC-ESI-QTOF
SMILES: COC1=C(O)C=CC(CC2COC(C2CO)C2=CC(OC)=C(O)C=C2)=C1
INCHIKEY: MHXCIKYXNYCMHY-UHFFFAOYNA-N
Ontology: 7,9'-epoxylignans
COLLISIONENERGY: 50
FORMULA: C20H24O6
RETENTIONTIME: 4.95795
IONMODE: Negative
Comment: registered in RIKEN PlaSMA
Num Peaks: 17
107.04907	104
109.0227	130
121.02802	94
130.03767	94
139.00653	120
143.04195	141
147.04082	219
157.03503	94
158.02634	109
159.03479	109
159.04648	224
160.05038	1000
161.05653	104
161.06541	104
162.06042	146
175.07207	94
175.08104	297

NAME: Matairesinol
PRECURSORMZ: 357.13436194783
PRECURSORTYPE: [M-H]-
INSTRUMENTTYPE: LC-ESI-QTOF
SMILES: COC1=C(O)C=CC(CC2COC(=O)C2CC2=CC(OC)=C(O)C=C2)=C1
INCHIKEY: MATGKVZWFZHCLI-UHFFFAOYNA-N
Ontology: Dibenzylbutyrolactone lignans
COLLISIONENERGY: 10
FORMULA: C20H22O6
RETENTIONTIME: 5.9634
IONMODE: Negative
Comment: registered in RIKEN PlaSMA
Num Peaks: 23
83.01116	105
121.02741	31
122.03477	77
123.04012	22
123.04823	12
136.05153	31
137.05786	89
138.06128	9
147.04402	36
161.05885	10
162.06117	10
162.0692	20
175.07166	6
191.07697	5
209.08005	26
221.07994	50
222.08835	6
298.11966	10
313.13324	16
342.10623	45
343.12256	8
357.13168	1000
357.18466	6

NAME: Matairesinol
PRECURSORMZ: 357.13436194783
PRECURSORTYPE: [M-H]-
INSTRUMENTTYPE: LC-ESI-QTOF
SMILES: COC1=C(O)C=CC(CC2COC(=O)C2CC2=CC(OC)=C(O)C=C2)=C1
INCHIKEY: MATGKVZWFZHCLI-UHFFFAOYNA-N
Ontology: Dibenzylbutyrolactone lignans
COLLISIONENERGY: 10
FORMULA: C20H22O6
RETENTIONTIME: 5.9634
IONMODE: Negative
Comment: registered in RIKEN PlaSMA
Num Peaks: 2
342.1088	6
357.13412	1000

NAME: Matairesinol
PRECURSORMZ: 357.13436194783
PRECURSORTYPE: [M-H]-
INSTRUMENTTYPE: LC-ESI-QTOF
SMILES: COC1=C(O)C=CC(CC2COC(=O)C2CC2=CC(OC)=C(O)C=C2)=C1
INCHIKEY: MATGKVZWFZHCLI-UHFFFAOYNA-N
Ontology: Dibenzylbutyrolactone lignans
COLLISIONENERGY: 30
FORMULA: C20H22O6
RETENTIONTIME: 5.9634
IONMODE: Negative
Comment: registered in RIKEN PlaSMA
Num Peaks: 90
83.01162	1000
84.01774	24
84.74312	6
85.01483	6
93.03133	14
103.0534	11
105.0342	6
105.06779	6
107.04466	9
109.02024	10
121.02794	185
122.03551	852
123.04427	173
124.04289	14
127.12183	6
129.03236	25
132.05339	7
133.06572	6
134.03313	8
135.03584	6
135.04285	6
136.05092	285
137.05872	379
137.07138	10
138.05637	6
138.06458	43
139.02866	6
144.05757	6
146.03224	15
147.03804	74
147.04503	177
148.0453	44
148.28134	8
149.05276	20
149.06081	24
150.06721	36
151.07417	7
152.05251	8
159.04305	15
159.08289	11
160.04387	15
160.05162	10
161.01758	15
161.05849	194
162.06633	289
163.0665	15
163.07668	9
163.08571	7
164.07417	6
173.05167	7
175.08075	24
176.03619	6
176.04738	52
177.08949	10
178.02776	8
188.04648	7
191.07059	16
195.06363	17
200.08563	6
204.03989	7
205.04221	21
205.05289	19
206.05409	20
206.06255	19
207.05829	12
209.08243	55
217.04768	9
219.06746	21
220.07864	6
221.08072	32
221.0955	6
229.05968	9
249.10724	9
256.10431	6
269.12039	8
271.1492	9
279.10144	17
282.07816	9
283.08856	39
283.12222	9
284.10516	8
297.11108	9
298.11292	15
299.24716	8
308.0976	6
342.09958	18
342.11218	33
342.13486	9
343.11691	15
357.16083	6

NAME: Matairesinol
PRECURSORMZ: 357.13436194783
PRECURSORTYPE: [M-H]-
INSTRUMENTTYPE: LC-ESI-QTOF
SMILES: COC1=C(O)C=CC(CC2COC(=O)C2CC2=CC(OC)=C(O)C=C2)=C1
INCHIKEY: MATGKVZWFZHCLI-UHFFFAOYNA-N
Ontology: Dibenzylbutyrolactone lignans
COLLISIONENERGY: 50
FORMULA: C20H22O6
RETENTIONTIME: 5.9634
IONMODE: Negative
Comment: registered in RIKEN PlaSMA
Num Peaks: 42
55.01677	22
56.0196	31
65.00201	18
77.03767	26
83.0128	717
84.0105	30
84.01585	18
93.03233	111
94.0392	24
108.01948	26
119.04904	25
121.02802	681
121.39843	27
122.03569	1000
123.04057	173
124.03795	44
127.05273	25
129.02834	42
131.04227	34
131.04997	23
132.05788	23
133.06065	28
133.06703	25
135.03545	18
135.045	18
136.05605	18
138.06259	20
143.04865	43
146.03175	75
147.04268	148
147.05064	46
148.05013	18
149.05367	18
159.04796	47
160.04813	24
161.05894	67
161.06801	36
162.06137	61
162.07036	24
176.04912	18
211.27364	19
271.10782	18

NAME: Matairesinol
PRECURSORMZ: 357.13436194783
PRECURSORTYPE: [M-H]-
INSTRUMENTTYPE: LC-ESI-QTOF
SMILES: COC1=C(O)C=CC(CC2COC(=O)C2CC2=CC(OC)=C(O)C=C2)=C1
INCHIKEY: MATGKVZWFZHCLI-UHFFFAOYNA-N
Ontology: Dibenzylbutyrolactone lignans
COLLISIONENERGY: 10
FORMULA: C20H22O6
RETENTIONTIME: 5.9634
IONMODE: Negative
Comment: registered in RIKEN PlaSMA
Num Peaks: 22
83.01202	130
84.01324	14
109.02891	7
121.02576	25
122.03557	74
123.04094	38
136.05176	34
137.05901	105
147.03835	12
147.04393	27
161.05739	10
162.06693	38
191.0751	7
206.05475	5
209.07916	30
210.08488	8
221.0818	51
295.12979	7
298.1163	14
313.14182	17
342.1105	41
357.13293	1000

NAME: Matairesinol
PRECURSORMZ: 357.13436194783
PRECURSORTYPE: [M-H]-
INSTRUMENTTYPE: LC-ESI-QTOF
SMILES: COC1=C(O)C=CC(CC2COC(=O)C2CC2=CC(OC)=C(O)C=C2)=C1
INCHIKEY: MATGKVZWFZHCLI-UHFFFAOYNA-N
Ontology: Dibenzylbutyrolactone lignans
COLLISIONENERGY: 10
FORMULA: C20H22O6
RETENTIONTIME: 5.9634
IONMODE: Negative
Comment: registered in RIKEN PlaSMA
Num Peaks: 4
221.08122	8
342.1069	5
357.13263	1000
357.18521	5

NAME: Matairesinol
PRECURSORMZ: 357.13436194783
PRECURSORTYPE: [M-H]-
INSTRUMENTTYPE: LC-ESI-QTOF
SMILES: COC1=C(O)C=CC(CC2COC(=O)C2CC2=CC(OC)=C(O)C=C2)=C1
INCHIKEY: MATGKVZWFZHCLI-UHFFFAOYNA-N
Ontology: Dibenzylbutyrolactone lignans
COLLISIONENERGY: 30
FORMULA: C20H22O6
RETENTIONTIME: 5.9634
IONMODE: Negative
Comment: registered in RIKEN PlaSMA
Num Peaks: 92
55.01276	7
55.0184	11
71.01411	5
83.0116	1000
84.01395	45
85.01627	31
85.0224	7
85.02741	7
93.035	15
95.04978	6
118.07021	5
119.05022	5
121.02762	270
121.56721	7
122.02229	7
122.03469	824
123.04173	210
124.04209	17
124.04919	22
129.03258	12
135.045	18
136.05078	239
137.0587	499
138.06197	19
145.02603	14
145.06467	7
146.03542	22
147.04298	212
147.05911	7
148.04437	11
149.05933	20
150.06578	19
151.06523	8
151.07675	22
153.49023	6
157.08905	7
159.04692	9
160.05119	5
161.02826	11
161.06056	102
162.06468	164
163.06854	31
165.08839	6
173.05844	18
175.0732	12
176.04305	7
176.05449	17
187.04321	6
188.04837	8
191.06715	6
192.07434	7
203.06367	6
204.02858	5
204.03958	5
205.04498	61
206.05373	28
209.08551	30
210.07587	6
219.06752	7
220.06918	6
221.07874	25
222.08148	5
225.04567	6
229.04152	7
232.05096	6
233.04459	7
240.07065	5
241.04251	8
248.07281	5
260.08359	6
262.1369	5
265.08606	9
266.0871	10
266.10431	7
269.0864	6
270.11868	9
280.10245	5
282.11621	6
283.09628	11
291.22968	6
295.12952	5
297.10553	13
297.11627	13
298.1142	6
298.12466	5
312.12787	7
313.09509	5
313.1413	21
322.02499	7
342.10922	32
342.90533	9
343.10263	6

NAME: Matairesinol
PRECURSORMZ: 357.13436194783
PRECURSORTYPE: [M-H]-
INSTRUMENTTYPE: LC-ESI-QTOF
SMILES: COC1=C(O)C=CC(CC2COC(=O)C2CC2=CC(OC)=C(O)C=C2)=C1
INCHIKEY: MATGKVZWFZHCLI-UHFFFAOYNA-N
Ontology: Dibenzylbutyrolactone lignans
COLLISIONENERGY: 50
FORMULA: C20H22O6
RETENTIONTIME: 5.9634
IONMODE: Negative
Comment: registered in RIKEN PlaSMA
Num Peaks: 35
55.01683	77
83.01232	642
84.01544	22
85.01738	24
93.02931	22
93.03698	29
101.03764	33
103.05974	19
105.03513	30
108.01866	61
109.02853	19
117.03847	33
121.02837	768
122.03438	1000
123.03834	112
123.04736	59
130.03889	28
135.03877	26
143.04872	19
145.06282	20
147.0433	149
148.04614	21
148.05846	23
153.06909	28
156.05943	31
159.04213	84
159.04974	24
161.02681	21
161.0593	107
161.06815	41
162.03284	26
162.06937	44
173.05676	21
175.04236	58
258.91324	19

NAME: Matairesinol
PRECURSORMZ: 357.13436194783
PRECURSORTYPE: [M-H]-
INSTRUMENTTYPE: LC-ESI-QTOF
SMILES: COC1=C(O)C=CC(CC2COC(=O)C2CC2=CC(OC)=C(O)C=C2)=C1
INCHIKEY: MATGKVZWFZHCLI-UHFFFAOYNA-N
Ontology: Dibenzylbutyrolactone lignans
COLLISIONENERGY: 10
FORMULA: C20H22O6
RETENTIONTIME: 5.9634
IONMODE: Negative
Comment: registered in RIKEN PlaSMA
Num Peaks: 24
83.01081	92
121.0272	41
122.03683	70
123.04037	35
123.04755	9
136.05223	33
137.05673	82
147.03877	11
147.04494	21
161.06284	16
162.06569	32
175.07658	7
192.07225	6
205.0486	6
209.08115	31
219.06891	6
221.07968	54
222.08832	13
281.11249	6
298.12485	8
313.14261	22
342.11139	69
343.11447	10
357.13266	1000

NAME: Matairesinol
PRECURSORMZ: 357.13436194783
PRECURSORTYPE: [M-H]-
INSTRUMENTTYPE: LC-ESI-QTOF
SMILES: COC1=C(O)C=CC(CC2COC(=O)C2CC2=CC(OC)=C(O)C=C2)=C1
INCHIKEY: MATGKVZWFZHCLI-UHFFFAOYNA-N
Ontology: Dibenzylbutyrolactone lignans
COLLISIONENERGY: 10
FORMULA: C20H22O6
RETENTIONTIME: 5.9634
IONMODE: Negative
Comment: registered in RIKEN PlaSMA
Num Peaks: 4
221.08086	9
342.1087	5
357.13306	1000
357.18689	6

NAME: Matairesinol
PRECURSORMZ: 357.13436194783
PRECURSORTYPE: [M-H]-
INSTRUMENTTYPE: LC-ESI-QTOF
SMILES: COC1=C(O)C=CC(CC2COC(=O)C2CC2=CC(OC)=C(O)C=C2)=C1
INCHIKEY: MATGKVZWFZHCLI-UHFFFAOYNA-N
Ontology: Dibenzylbutyrolactone lignans
COLLISIONENERGY: 30
FORMULA: C20H22O6
RETENTIONTIME: 5.9634
IONMODE: Negative
Comment: registered in RIKEN PlaSMA
Num Peaks: 86
55.01727	24
80.93623	10
83.0123	1000
84.01521	49
84.65001	7
93.02841	8
93.03282	5
93.03867	6
105.03879	7
105.06921	7
106.03609	7
109.02689	18
121.02771	270
122.03509	796
122.42636	6
123.04323	245
124.04707	20
130.04401	8
133.06186	5
135.03928	18
135.04559	21
136.04605	45
136.05276	199
137.06023	489
137.1545	6
138.06059	39
144.0657	8
146.02878	8
146.03661	11
146.04559	7
147.04102	96
148.05403	6
149.06628	27
150.06566	6
151.07826	10
159.04509	21
160.04636	19
160.05325	24
161.06047	185
162.03542	5
162.06267	121
162.07069	57
162.09053	7
163.0658	18
163.0748	7
163.20724	8
171.04832	8
173.06371	11
174.06973	7
175.07547	14
176.04788	32
176.07417	7
176.08253	7
187.08263	6
191.07034	7
204.03308	6
204.04407	22
205.04462	18
205.05447	25
206.04776	11
206.0582	19
209.07521	16
209.09203	9
210.08922	11
219.07245	13
221.07318	11
221.09067	18
240.08502	6
253.10713	7
255.12169	8
267.09683	9
268.11472	8
281.10825	12
283.09766	36
284.09256	6
296.13803	7
298.10657	5
298.155	5
299.1304	6
312.13962	9
313.14316	14
314.13144	6
342.11533	29
342.61359	5
343.12753	7
344.10507	7

NAME: Matairesinol
PRECURSORMZ: 357.13436194783
PRECURSORTYPE: [M-H]-
INSTRUMENTTYPE: LC-ESI-QTOF
SMILES: COC1=C(O)C=CC(CC2COC(=O)C2CC2=CC(OC)=C(O)C=C2)=C1
INCHIKEY: MATGKVZWFZHCLI-UHFFFAOYNA-N
Ontology: Dibenzylbutyrolactone lignans
COLLISIONENERGY: 50
FORMULA: C20H22O6
RETENTIONTIME: 5.9634
IONMODE: Negative
Comment: registered in RIKEN PlaSMA
Num Peaks: 38
55.01641	63
57.03444	16
65.0369	15
83.01088	350
84.0155	16
93.03442	94
106.03847	30
107.04901	14
108.02207	15
115.0555	13
121.03025	553
122.03623	1000
123.03804	91
127.05832	16
129.0336	28
129.85979	16
134.02843	16
134.03392	28
135.04645	13
137.0526	19
143.04976	33
146.03345	13
146.03925	19
147.04358	80
148.05331	37
158.03665	16
159.0462	81
160.04581	14
160.05365	18
161.02644	17
161.05977	151
162.06625	13
176.05173	21
181.06445	16
189.05177	16
202.99631	15
249.05478	17
251.07251	15

NAME: Secoisolariciresinol
PRECURSORMZ: 361.16566214783
PRECURSORTYPE: [M-H]-
INSTRUMENTTYPE: LC-ESI-QTOF
SMILES: COC1=C(O)C=CC(CC(CO)C(CO)CC2=CC(OC)=C(O)C=C2)=C1
INCHIKEY: PUETUDUXMCLALY-UHFFFAOYNA-N
Ontology: Dibenzylbutanediol lignans
COLLISIONENERGY: 10
FORMULA: C20H26O6
RETENTIONTIME: 4.77005
IONMODE: Negative
Comment: registered in RIKEN PlaSMA
Num Peaks: 33
109.02757	28
121.02011	7
121.02949	42
122.0353	87
123.04341	11
129.0311	8
136.05165	20
147.0423	34
148.04808	6
149.05286	6
161.05695	13
162.0676	13
164.0428	6
165.05438	199
166.05251	9
166.06012	7
167.05865	5
178.06766	7
179.07034	66
209.07622	7
209.08612	9
223.08467	7
285.10843	7
298.12686	5
301.10355	6
313.14261	6
315.11813	25
331.12088	6
346.14069	88
347.13693	5
347.14856	13
361.16275	1000
361.19861	6

NAME: Secoisolariciresinol
PRECURSORMZ: 407.17114145183
PRECURSORTYPE: [M+FA-H]-
INSTRUMENTTYPE: LC-ESI-QTOF
SMILES: COC1=C(O)C=CC(CC(CO)C(CO)CC2=CC(OC)=C(O)C=C2)=C1
INCHIKEY: PUETUDUXMCLALY-UHFFFAOYNA-N
Ontology: Dibenzylbutanediol lignans
COLLISIONENERGY: 10
FORMULA: C20H26O6
RETENTIONTIME: 4.77005
IONMODE: Negative
Comment: registered in RIKEN PlaSMA
Num Peaks: 34
122.02489	11
122.03516	25
123.04243	8
136.04831	13
149.05675	13
165.05138	177
166.05389	12
166.06465	9
179.06635	34
180.07413	11
191.06461	11
193.09271	8
210.08322	10
299.12064	10
299.14975	10
315.12399	16
316.11481	7
316.13165	22
346.13928	67
347.13272	9
347.14893	8
360.13992	13
360.15466	10
361.09949	22
361.16483	1000
361.19897	8
361.73721	7
362.15668	91
362.16943	178
362.92361	9
363.17349	17
363.3205	7
364.15829	8
407.18234	12

NAME: Secoisolariciresinol
PRECURSORMZ: 407.17114145183
PRECURSORTYPE: [M+FA-H]-
INSTRUMENTTYPE: LC-ESI-QTOF
SMILES: COC1=C(O)C=CC(CC(CO)C(CO)CC2=CC(OC)=C(O)C=C2)=C1
INCHIKEY: PUETUDUXMCLALY-UHFFFAOYNA-N
Ontology: Dibenzylbutanediol lignans
COLLISIONENERGY: 10
FORMULA: C20H26O6
RETENTIONTIME: 4.77005
IONMODE: Negative
Comment: registered in RIKEN PlaSMA
Num Peaks: 11
149.17992	9
151.26895	7
262.81815	8
360.1564	12
360.17065	7
361.16376	1000
362.16852	295
363.17529	47
364.1658	6
407.17032	24
407.18204	7

NAME: Secoisolariciresinol
PRECURSORMZ: 361.16566214783
PRECURSORTYPE: [M-H]-
INSTRUMENTTYPE: LC-ESI-QTOF
SMILES: COC1=C(O)C=CC(CC(CO)C(CO)CC2=CC(OC)=C(O)C=C2)=C1
INCHIKEY: PUETUDUXMCLALY-UHFFFAOYNA-N
Ontology: Dibenzylbutanediol lignans
COLLISIONENERGY: 30
FORMULA: C20H26O6
RETENTIONTIME: 4.77005
IONMODE: Negative
Comment: registered in RIKEN PlaSMA
Num Peaks: 78
85.02833	7
108.01846	11
109.02818	87
110.03298	15
110.03975	8
111.03452	10
116.38759	5
121.02827	395
122.03625	637
123.04049	118
124.04298	9
124.85297	5
129.03189	45
129.04095	7
130.03729	9
131.04794	7
135.04303	39
136.05167	95
136.76614	6
137.05589	39
137.06641	5
138.30438	7
145.06264	7
146.03377	40
147.0434	227
148.04768	75
149.05954	46
152.77727	6
161.05937	99
162.06418	35
162.07202	18
163.04012	6
164.04546	22
164.76208	5
165.05414	1000
166.05801	91
167.05667	17
173.05663	13
174.05963	10
175.07516	25
176.08051	21
177.05611	9
178.06544	75
179.04927	9
179.07004	315
180.07452	56
189.0793	7
190.06119	7
191.07169	17
193.06842	6
193.08598	9
208.07587	19
209.07266	15
209.08463	8
221.07776	6
223.09106	32
223.09869	11
224.09779	12
285.09906	9
285.11002	20
298.12048	15
301.0975	8
301.10999	9
301.11963	10
313.14578	5
315.1218	115
316.11713	15
316.12778	10
316.14114	5
317.1333	7
325.15399	5
331.12073	8
346.12708	6
346.14243	28
347.14658	8
348.1405	6
361.15652	10
361.17105	20

NAME: Secoisolariciresinol
PRECURSORMZ: 407.17114145183
PRECURSORTYPE: [M+FA-H]-
INSTRUMENTTYPE: LC-ESI-QTOF
SMILES: COC1=C(O)C=CC(CC(CO)C(CO)CC2=CC(OC)=C(O)C=C2)=C1
INCHIKEY: PUETUDUXMCLALY-UHFFFAOYNA-N
Ontology: Dibenzylbutanediol lignans
COLLISIONENERGY: 30
FORMULA: C20H26O6
RETENTIONTIME: 4.77005
IONMODE: Negative
Comment: registered in RIKEN PlaSMA
Num Peaks: 49
109.02772	75
121.02504	22
121.15724	38
122.03188	185
122.03676	302
122.0464	21
123.03658	27
135.04471	55
136.05354	96
147.0442	48
148.05498	25
149.05818	29
160.05093	27
164.04469	21
165.05544	1000
166.05991	55
173.05367	21
175.07756	54
177.08534	23
179.06711	252
180.0602	24
180.07242	48
186.07635	30
188.08356	22
191.07225	21
203.07944	23
208.07462	26
209.07806	41
211.09479	24
223.09206	74
298.11539	47
298.13083	32
299.12021	26
307.21136	23
308.02798	26
310.11279	33
313.14957	58
315.11508	78
315.12869	99
316.12305	22
318.13647	24
332.15704	21
345.12616	31
346.13611	154
346.15521	211
347.14929	23
351.93497	21
361.1637	490
362.16339	103

NAME: Secoisolariciresinol
PRECURSORMZ: 361.16566214783
PRECURSORTYPE: [M-H]-
INSTRUMENTTYPE: LC-ESI-QTOF
SMILES: COC1=C(O)C=CC(CC(CO)C(CO)CC2=CC(OC)=C(O)C=C2)=C1
INCHIKEY: PUETUDUXMCLALY-UHFFFAOYNA-N
Ontology: Dibenzylbutanediol lignans
COLLISIONENERGY: 50
FORMULA: C20H26O6
RETENTIONTIME: 4.77005
IONMODE: Negative
Comment: registered in RIKEN PlaSMA
Num Peaks: 79
53.03973	10
81.03368	18
91.05251	13
93.03167	281
93.03619	85
94.03309	10
94.03941	13
95.00931	10
95.04826	9
101.03839	78
101.47358	9
102.03954	11
105.02369	10
105.03283	20
107.04974	20
108.01979	26
108.05074	10
109.02769	79
110.03035	10
110.90421	12
117.07123	11
118.03689	11
119.04796	26
121.02806	1000
122.0346	305
123.04059	48
124.03979	11
124.0465	12
129.03244	110
129.06929	13
130.04376	10
131.04597	22
132.04907	10
132.05988	12
133.06094	17
133.06857	20
134.5518	9
135.03168	11
135.04062	19
136.03989	12
136.04678	9
137.05099	10
143.05223	29
145.03345	23
145.06213	22
146.033	94
146.03996	70
147.04323	246
148.04306	37
149.04973	11
149.05962	70
159.04253	106
159.05765	9
159.07626	9
160.05118	66
161.05821	198
162.05138	12
162.06865	38
163.04297	23
164.04681	20
165.05101	21
165.06091	14
166.05614	13
172.05641	11
173.05971	13
175.06793	10
177.05055	24
178.05902	53
179.06929	27
181.07076	10
189.05092	19
190.06503	10
193.09032	14
199.0672	12
208.07028	9
209.07678	9
225.05292	11
226.07532	11
270.08521	10

NAME: Secoisolariciresinol
PRECURSORMZ: 407.17114145183
PRECURSORTYPE: [M+FA-H]-
INSTRUMENTTYPE: LC-ESI-QTOF
SMILES: COC1=C(O)C=CC(CC(CO)C(CO)CC2=CC(OC)=C(O)C=C2)=C1
INCHIKEY: PUETUDUXMCLALY-UHFFFAOYNA-N
Ontology: Dibenzylbutanediol lignans
COLLISIONENERGY: 50
FORMULA: C20H26O6
RETENTIONTIME: 4.77005
IONMODE: Negative
Comment: registered in RIKEN PlaSMA
Num Peaks: 21
93.035	73
121.02847	1000
122.02951	430
122.038	145
123.04268	58
129.03197	188
135.04121	115
135.04892	64
146.03462	197
147.0416	303
147.05467	97
148.05681	55
149.05881	76
161.05737	161
162.06685	167
164.05031	109
165.05446	136
173.05716	118
179.07472	91
209.08287	58
286.12738	76

NAME: Secoisolariciresinol
PRECURSORMZ: 361.16566214783
PRECURSORTYPE: [M-H]-
INSTRUMENTTYPE: LC-ESI-QTOF
SMILES: COC1=C(O)C=CC(CC(CO)C(CO)CC2=CC(OC)=C(O)C=C2)=C1
INCHIKEY: PUETUDUXMCLALY-UHFFFAOYNA-N
Ontology: Dibenzylbutanediol lignans
COLLISIONENERGY: 10
FORMULA: C20H26O6
RETENTIONTIME: 4.77005
IONMODE: Negative
Comment: registered in RIKEN PlaSMA
Num Peaks: 31
109.0267	11
121.02854	72
122.03568	114
123.04263	14
135.04196	9
136.05173	17
146.03442	7
147.04401	49
148.04904	8
149.05661	13
161.0584	38
162.07352	5
164.04927	5
165.05367	228
166.05673	23
176.08118	5
178.06108	8
179.07005	62
180.07549	6
208.07965	6
223.09456	8
298.11047	12
313.14413	10
315.10858	8
315.12634	26
331.15759	6
345.13126	7
346.13947	88
347.13516	6
347.15137	9
361.16394	1000

NAME: Secoisolariciresinol
PRECURSORMZ: 407.17114145183
PRECURSORTYPE: [M+FA-H]-
INSTRUMENTTYPE: LC-ESI-QTOF
SMILES: COC1=C(O)C=CC(CC(CO)C(CO)CC2=CC(OC)=C(O)C=C2)=C1
INCHIKEY: PUETUDUXMCLALY-UHFFFAOYNA-N
Ontology: Dibenzylbutanediol lignans
COLLISIONENERGY: 10
FORMULA: C20H26O6
RETENTIONTIME: 4.77005
IONMODE: Negative
Comment: registered in RIKEN PlaSMA
Num Peaks: 42
54.30486	12
109.02187	7
121.02676	8
122.02967	13
122.03614	7
136.04755	23
148.05016	7
161.06004	5
161.06653	24
162.06137	6
164.04063	12
165.0545	147
165.06357	19
177.0984	8
179.06071	21
179.07089	23
180.08154	11
184.91132	7
189.0863	11
192.08105	7
209.08133	9
218.23755	6
249.27174	14
257.31335	12
271.13043	11
298.12302	31
298.13928	7
315.11612	6
315.12704	7
316.14346	8
346.13156	39
346.14801	8
346.62146	7
347.14221	14
360.16602	6
360.17813	13
361.16431	1000
361.20419	17
361.22528	7
361.55524	8
362.16412	201
363.16855	14

NAME: Secoisolariciresinol
PRECURSORMZ: 407.17114145183
PRECURSORTYPE: [M+FA-H]-
INSTRUMENTTYPE: LC-ESI-QTOF
SMILES: COC1=C(O)C=CC(CC(CO)C(CO)CC2=CC(OC)=C(O)C=C2)=C1
INCHIKEY: PUETUDUXMCLALY-UHFFFAOYNA-N
Ontology: Dibenzylbutanediol lignans
COLLISIONENERGY: 10
FORMULA: C20H26O6
RETENTIONTIME: 4.77005
IONMODE: Negative
Comment: registered in RIKEN PlaSMA
Num Peaks: 9
254.3378	7
360.14719	16
361.16418	1000
362.16934	209
363.1561	9
363.17047	18
363.19009	7
407.16479	16
407.17926	22

NAME: Secoisolariciresinol
PRECURSORMZ: 361.16566214783
PRECURSORTYPE: [M-H]-
INSTRUMENTTYPE: LC-ESI-QTOF
SMILES: COC1=C(O)C=CC(CC(CO)C(CO)CC2=CC(OC)=C(O)C=C2)=C1
INCHIKEY: PUETUDUXMCLALY-UHFFFAOYNA-N
Ontology: Dibenzylbutanediol lignans
COLLISIONENERGY: 30
FORMULA: C20H26O6
RETENTIONTIME: 4.77005
IONMODE: Negative
Comment: registered in RIKEN PlaSMA
Num Peaks: 77
92.05112	7
93.03279	10
101.03641	9
109.02637	87
110.03312	14
121.02737	380
122.02276	5
122.03503	672
123.03608	22
123.04223	104
124.04834	8
129.0316	49
130.04141	10
134.0321	8
135.04308	42
136.04956	87
137.05263	6
137.05896	21
146.03731	8
147.0287	5
147.04335	203
148.05069	56
149.06035	57
150.0648	11
159.07434	6
160.05278	26
160.08948	6
161.05655	50
161.06514	19
162.0647	25
164.04683	38
165.05351	1000
166.05611	61
166.06528	10
167.05615	10
173.05775	13
175.07932	8
176.08275	8
178.06277	74
179.06949	361
180.07231	19
187.03056	9
189.05057	6
191.06728	24
191.08104	7
192.07413	23
193.08327	25
207.10088	6
208.06273	5
208.0717	13
208.08127	9
209.07774	34
210.09201	10
221.07544	7
223.09523	45
223.10655	10
258.0921	9
279.10083	5
283.09772	27
284.09943	6
285.09766	9
285.12396	7
287.12537	5
297.11987	8
298.10977	8
301.10065	22
315.11575	42
316.11432	6
316.13235	27
317.14017	13
317.1503	7
331.11411	10
345.13464	12
346.13818	33
347.1449	10
347.15451	5
361.16812	45

NAME: Secoisolariciresinol
PRECURSORMZ: 407.17114145183
PRECURSORTYPE: [M+FA-H]-
INSTRUMENTTYPE: LC-ESI-QTOF
SMILES: COC1=C(O)C=CC(CC(CO)C(CO)CC2=CC(OC)=C(O)C=C2)=C1
INCHIKEY: PUETUDUXMCLALY-UHFFFAOYNA-N
Ontology: Dibenzylbutanediol lignans
COLLISIONENERGY: 30
FORMULA: C20H26O6
RETENTIONTIME: 4.77005
IONMODE: Negative
Comment: registered in RIKEN PlaSMA
Num Peaks: 45
106.86486	23
109.02433	32
109.03003	56
111.04159	25
121.02795	138
122.03548	332
123.04552	39
129.03139	18
136.04956	139
136.06052	34
137.0574	18
146.07089	33
148.04819	24
159.42879	25
162.05789	28
165.05405	1000
166.05795	191
177.04622	18
179.07129	368
180.07925	40
205.08383	27
209.07332	28
209.082	51
223.07672	19
223.09499	25
258.08765	47
271.09903	30
285.11557	73
298.11996	49
313.12775	18
315.11386	46
315.13525	80
328.13586	19
329.13956	18
331.17157	18
332.11914	18
345.1366	21
346.13788	205
346.15302	76
346.17209	22
348.13364	20
361.15292	227
361.16745	277
362.1521	127
362.17294	54

NAME: Secoisolariciresinol
PRECURSORMZ: 361.16566214783
PRECURSORTYPE: [M-H]-
INSTRUMENTTYPE: LC-ESI-QTOF
SMILES: COC1=C(O)C=CC(CC(CO)C(CO)CC2=CC(OC)=C(O)C=C2)=C1
INCHIKEY: PUETUDUXMCLALY-UHFFFAOYNA-N
Ontology: Dibenzylbutanediol lignans
COLLISIONENERGY: 50
FORMULA: C20H26O6
RETENTIONTIME: 4.77005
IONMODE: Negative
Comment: registered in RIKEN PlaSMA
Num Peaks: 67
69.09011	8
81.02695	7
81.03192	8
91.05165	10
91.05602	8
93.03146	240
94.03828	26
97.89283	10
101.03926	17
105.03007	10
105.07039	10
108.02123	11
108.02608	15
109.02544	55
110.02676	17
110.03151	7
115.05167	7
116.05861	8
118.03017	13
119.04869	26
121.02716	1000
122.03444	209
123.02834	7
123.04492	30
124.04725	8
125.05016	7
129.03278	117
131.05022	17
134.03404	24
135.03874	11
136.05156	7
137.0233	7
139.75226	7
143.04948	19
145.0276	11
145.04019	7
146.03252	61
146.0408	57
147.04417	184
148.04112	10
148.04958	35
149.05061	10
149.06477	10
151.06212	8
159.04544	122
160.04991	16
160.05634	9
161.05957	162
162.05515	21
162.06886	29
163.07632	13
164.0457	26
165.05444	18
166.0535	8
171.04611	11
172.04886	14
173.0567	34
173.06281	11
174.02588	10
178.06322	25
179.06908	69
187.38675	10
203.07254	8
209.08017	31
224.05196	9
264.06723	7
270.0867	8

NAME: Secoisolariciresinol
PRECURSORMZ: 407.17114145183
PRECURSORTYPE: [M+FA-H]-
INSTRUMENTTYPE: LC-ESI-QTOF
SMILES: COC1=C(O)C=CC(CC(CO)C(CO)CC2=CC(OC)=C(O)C=C2)=C1
INCHIKEY: PUETUDUXMCLALY-UHFFFAOYNA-N
Ontology: Dibenzylbutanediol lignans
COLLISIONENERGY: 50
FORMULA: C20H26O6
RETENTIONTIME: 4.77005
IONMODE: Negative
Comment: registered in RIKEN PlaSMA
Num Peaks: 28
93.03204	105
101.04427	86
102.40009	120
109.02806	134
121.02724	1000
122.02426	115
122.0364	263
123.03808	110
129.03415	86
129.03944	96
131.03964	163
131.04825	96
135.08342	86
146.03798	201
146.04646	124
147.04195	392
147.04933	258
148.05588	96
159.04773	144
160.04849	100
161.05101	86
161.06354	311
164.04832	105
165.05582	435
179.06868	493
181.07953	96
251.07561	105
281.0809	187

NAME: Secoisolariciresinol
PRECURSORMZ: 361.16566214783
PRECURSORTYPE: [M-H]-
INSTRUMENTTYPE: LC-ESI-QTOF
SMILES: COC1=C(O)C=CC(CC(CO)C(CO)CC2=CC(OC)=C(O)C=C2)=C1
INCHIKEY: PUETUDUXMCLALY-UHFFFAOYNA-N
Ontology: Dibenzylbutanediol lignans
COLLISIONENERGY: 10
FORMULA: C20H26O6
RETENTIONTIME: 4.77005
IONMODE: Negative
Comment: registered in RIKEN PlaSMA
Num Peaks: 26
93.03663	5
109.02663	15
121.0283	59
122.03497	97
123.03403	5
123.04336	23
129.03294	8
135.04434	5
136.05023	18
147.04185	31
161.05849	23
165.05363	170
166.05075	9
166.06029	7
178.07005	6
179.06964	63
285.10959	6
298.11868	7
313.1424	16
315.12006	14
316.12689	9
332.15186	6
345.13828	11
346.13867	59
347.14029	10
361.16385	1000

NAME: Secoisolariciresinol
PRECURSORMZ: 407.17114145183
PRECURSORTYPE: [M+FA-H]-
INSTRUMENTTYPE: LC-ESI-QTOF
SMILES: COC1=C(O)C=CC(CC(CO)C(CO)CC2=CC(OC)=C(O)C=C2)=C1
INCHIKEY: PUETUDUXMCLALY-UHFFFAOYNA-N
Ontology: Dibenzylbutanediol lignans
COLLISIONENERGY: 10
FORMULA: C20H26O6
RETENTIONTIME: 4.77005
IONMODE: Negative
Comment: registered in RIKEN PlaSMA
Num Peaks: 30
107.14971	8
109.02728	9
122.03603	30
147.04524	10
159.03851	8
164.04803	9
165.05177	149
165.42305	11
166.05258	9
175.07962	10
179.07217	9
180.07843	8
223.19109	10
299.13034	8
301.11288	8
313.15341	8
313.16595	10
314.14606	11
329.1376	9
334.12112	8
334.36722	8
346.14645	33
360.15897	22
361.16367	1000
362.16672	256
363.18463	8
376.11792	9
393.71994	8
401.69498	8
407.15814	20

NAME: Secoisolariciresinol
PRECURSORMZ: 361.16566214783
PRECURSORTYPE: [M-H]-
INSTRUMENTTYPE: LC-ESI-QTOF
SMILES: COC1=C(O)C=CC(CC(CO)C(CO)CC2=CC(OC)=C(O)C=C2)=C1
INCHIKEY: PUETUDUXMCLALY-UHFFFAOYNA-N
Ontology: Dibenzylbutanediol lignans
COLLISIONENERGY: 10
FORMULA: C20H26O6
RETENTIONTIME: 4.77005
IONMODE: Negative
Comment: registered in RIKEN PlaSMA
Num Peaks: 3
346.14056	6
361.16394	1000
361.20654	5

NAME: Secoisolariciresinol
PRECURSORMZ: 407.17114145183
PRECURSORTYPE: [M+FA-H]-
INSTRUMENTTYPE: LC-ESI-QTOF
SMILES: COC1=C(O)C=CC(CC(CO)C(CO)CC2=CC(OC)=C(O)C=C2)=C1
INCHIKEY: PUETUDUXMCLALY-UHFFFAOYNA-N
Ontology: Dibenzylbutanediol lignans
COLLISIONENERGY: 10
FORMULA: C20H26O6
RETENTIONTIME: 4.77005
IONMODE: Negative
Comment: registered in RIKEN PlaSMA
Num Peaks: 9
342.01669	7
360.13956	8
360.15421	22
361.16406	1000
362.16733	250
363.147	6
363.16931	41
363.18936	6
407.17328	23

NAME: Secoisolariciresinol
PRECURSORMZ: 361.16566214783
PRECURSORTYPE: [M-H]-
INSTRUMENTTYPE: LC-ESI-QTOF
SMILES: COC1=C(O)C=CC(CC(CO)C(CO)CC2=CC(OC)=C(O)C=C2)=C1
INCHIKEY: PUETUDUXMCLALY-UHFFFAOYNA-N
Ontology: Dibenzylbutanediol lignans
COLLISIONENERGY: 30
FORMULA: C20H26O6
RETENTIONTIME: 4.77005
IONMODE: Negative
Comment: registered in RIKEN PlaSMA
Num Peaks: 115
87.04266	6
93.0295	10
93.03589	15
94.03576	10
107.04757	9
109.02746	137
120.02412	6
121.02773	426
122.03606	713
123.04081	103
123.17641	8
124.05199	7
125.02912	5
129.03166	55
129.03903	27
134.03642	5
135.04379	86
136.05139	129
136.1487	6
137.01756	5
137.02806	6
137.05582	6
139.5733	13
139.66447	21
139.73143	10
139.82285	5
139.9082	16
139.95111	6
140.0658	22
140.12442	5
140.20148	10
140.28799	5
140.32846	7
140.36093	7
140.41693	8
140.45073	7
140.49446	17
140.56009	12
140.6032	12
140.64511	6
140.6736	6
141.0878	6
141.15111	8
141.21596	5
143.05321	5
144.0491	5
145.06445	8
146.0323	13
147.04373	295
148.04379	13
148.04973	45
149.05904	74
150.06741	5
159.04514	7
160.04713	9
160.05728	6
161.04845	5
161.06105	44
162.06525	34
164.04929	16
165.05434	1000
166.0584	83
167.05891	11
173.05818	12
175.07281	38
176.05167	5
176.0784	17
177.05354	12
178.04672	6
178.05278	9
178.06686	45
179.07008	365
179.08482	8
179.5966	6
180.07092	44
189.08455	5
190.05002	7
191.06863	47
191.07744	28
192.08098	5
193.08537	16
203.06981	6
205.08333	5
208.07462	19
209.078	10
209.08611	36
217.07855	6
223.09384	28
224.1019	8
225.05135	6
242.23122	5
245.13042	7
257.07614	5
268.08362	5
270.08997	5
273.11133	5
283.10626	5
284.11038	6
285.10794	5
290.91306	10
298.1123	13
298.12866	9
299.12439	6
301.10703	9
302.10406	8
315.12292	75
315.14154	13
316.11807	22
316.13055	37
316.1481	5
345.12683	10
345.13712	10
346.14072	20
361.15204	9
361.17502	14

NAME: Secoisolariciresinol
PRECURSORMZ: 407.17114145183
PRECURSORTYPE: [M+FA-H]-
INSTRUMENTTYPE: LC-ESI-QTOF
SMILES: COC1=C(O)C=CC(CC(CO)C(CO)CC2=CC(OC)=C(O)C=C2)=C1
INCHIKEY: PUETUDUXMCLALY-UHFFFAOYNA-N
Ontology: Dibenzylbutanediol lignans
COLLISIONENERGY: 30
FORMULA: C20H26O6
RETENTIONTIME: 4.77005
IONMODE: Negative
Comment: registered in RIKEN PlaSMA
Num Peaks: 51
109.0252	61
111.03878	24
119.05305	36
121.021	21
122.03373	404
123.03414	26
123.04107	23
123.04755	43
135.0405	30
136.04984	99
137.05174	25
148.04991	26
149.05737	44
151.77261	30
153.01767	29
162.0694	40
165.05196	1000
166.05771	73
167.05891	27
179.06932	158
180.06987	26
180.07732	43
192.07716	21
201.10243	39
204.0845	37
205.08119	24
208.07381	34
209.07484	39
209.08395	29
221.09375	40
223.10258	75
224.10623	23
281.10452	26
287.01831	30
295.13492	23
298.10849	27
298.12262	23
300.83487	31
309.11871	25
313.13675	24
315.12537	115
316.11969	55
316.13654	65
343.16324	34
346.10419	26
346.13113	102
347.14133	23
361.16504	346
362.15692	57
362.17331	68
363.17975	24

NAME: Secoisolariciresinol
PRECURSORMZ: 361.16566214783
PRECURSORTYPE: [M-H]-
INSTRUMENTTYPE: LC-ESI-QTOF
SMILES: COC1=C(O)C=CC(CC(CO)C(CO)CC2=CC(OC)=C(O)C=C2)=C1
INCHIKEY: PUETUDUXMCLALY-UHFFFAOYNA-N
Ontology: Dibenzylbutanediol lignans
COLLISIONENERGY: 50
FORMULA: C20H26O6
RETENTIONTIME: 4.77005
IONMODE: Negative
Comment: registered in RIKEN PlaSMA
Num Peaks: 62
81.03116	14
93.03193	241
94.03712	23
95.03725	12
101.03706	65
102.03646	24
107.05194	19
108.01801	12
109.02763	69
109.03522	27
117.06882	12
118.06567	13
119.04657	35
121.02819	1000
122.02999	64
122.03534	231
123.04279	115
124.01934	12
125.44001	11
125.75682	13
129.03279	111
129.06831	11
130.03046	14
130.04407	44
130.07248	15
133.06583	12
135.03459	15
135.04141	23
136.04468	21
138.05107	12
143.05043	32
144.05588	13
145.0287	16
146.03358	119
146.03925	35
147.04341	154
148.04771	71
149.05475	47
149.06592	37
157.06735	12
159.03621	15
159.04393	60
160.04576	49
161.04739	16
161.05876	167
161.0679	44
162.06622	26
162.2316	12
164.04306	96
165.05412	67
166.05505	14
171.04547	26
172.04919	16
173.05832	22
175.07884	12
177.04758	23
178.06	16
179.06744	46
198.07234	15
207.06781	13
285.112	12
324.16968	16

NAME: Secoisolariciresinol
PRECURSORMZ: 407.17114145183
PRECURSORTYPE: [M+FA-H]-
INSTRUMENTTYPE: LC-ESI-QTOF
SMILES: COC1=C(O)C=CC(CC(CO)C(CO)CC2=CC(OC)=C(O)C=C2)=C1
INCHIKEY: PUETUDUXMCLALY-UHFFFAOYNA-N
Ontology: Dibenzylbutanediol lignans
COLLISIONENERGY: 50
FORMULA: C20H26O6
RETENTIONTIME: 4.77005
IONMODE: Negative
Comment: registered in RIKEN PlaSMA
Num Peaks: 10
83.04969	97
121.02966	1000
122.03467	419
146.04004	73
148.05026	105
161.05576	77
172.04576	93
173.06279	77
175.02806	109
179.06998	73

NAME: Pinoresinol
PRECURSORMZ: 357.13436194783
PRECURSORTYPE: [M-H]-
INSTRUMENTTYPE: LC-ESI-QTOF
SMILES: COC1=C(O)C=CC(=C1)C1OCC2C1COC2C1=CC(OC)=C(O)C=C1
INCHIKEY: HGXBRUKMWQGOIE-UHFFFAOYNA-N
Ontology: Furanoid lignans
COLLISIONENERGY: 10
FORMULA: C20H22O6
RETENTIONTIME: 5.590617
IONMODE: Negative
Comment: registered in RIKEN PlaSMA
Num Peaks: 10
121.02405	152
136.01401	899
136.02055	278
151.03844	1000
151.04837	652
152.01155	133
160.03766	184
324.09918	133
342.09589	114
357.12842	184

NAME: Pinoresinol
PRECURSORMZ: 357.13436194783
PRECURSORTYPE: [M-H]-
INSTRUMENTTYPE: LC-ESI-QTOF
SMILES: COC1=C(O)C=CC(=C1)C1OCC2C1COC2C1=CC(OC)=C(O)C=C1
INCHIKEY: HGXBRUKMWQGOIE-UHFFFAOYNA-N
Ontology: Furanoid lignans
COLLISIONENERGY: 10
FORMULA: C20H22O6
RETENTIONTIME: 5.590617
IONMODE: Negative
Comment: registered in RIKEN PlaSMA
Num Peaks: 10
151.0331	162
151.04071	200
214.32936	34
296.37253	46
297.0719	53
311.13397	34
314.07999	34
329.11127	38
357.12976	1000
357.24585	34

NAME: Pinoresinol
PRECURSORMZ: 357.13436194783
PRECURSORTYPE: [M-H]-
INSTRUMENTTYPE: LC-ESI-QTOF
SMILES: COC1=C(O)C=CC(=C1)C1OCC2C1COC2C1=CC(OC)=C(O)C=C1
INCHIKEY: HGXBRUKMWQGOIE-UHFFFAOYNA-N
Ontology: Furanoid lignans
COLLISIONENERGY: 30
FORMULA: C20H22O6
RETENTIONTIME: 5.590617
IONMODE: Negative
Comment: registered in RIKEN PlaSMA
Num Peaks: 7
121.02872	74
121.03613	116
136.01509	1000
137.02356	116
151.03638	394
163.03786	88
177.05721	63

NAME: Pinoresinol
PRECURSORMZ: 357.13436194783
PRECURSORTYPE: [M-H]-
INSTRUMENTTYPE: LC-ESI-QTOF
SMILES: COC1=C(O)C=CC(=C1)C1OCC2C1COC2C1=CC(OC)=C(O)C=C1
INCHIKEY: HGXBRUKMWQGOIE-UHFFFAOYNA-N
Ontology: Furanoid lignans
COLLISIONENERGY: 50
FORMULA: C20H22O6
RETENTIONTIME: 5.590617
IONMODE: Negative
Comment: registered in RIKEN PlaSMA
Num Peaks: 4
136.01529	1000
147.04655	110
161.02232	110
163.03386	116

NAME: Pinoresinol
PRECURSORMZ: 357.13436194783
PRECURSORTYPE: [M-H]-
INSTRUMENTTYPE: LC-ESI-QTOF
SMILES: COC1=C(O)C=CC(=C1)C1OCC2C1COC2C1=CC(OC)=C(O)C=C1
INCHIKEY: HGXBRUKMWQGOIE-UHFFFAOYNA-N
Ontology: Furanoid lignans
COLLISIONENERGY: 10
FORMULA: C20H22O6
RETENTIONTIME: 5.590617
IONMODE: Negative
Comment: registered in RIKEN PlaSMA
Num Peaks: 8
92.02722	128
136.01338	407
151.04039	1000
152.04764	221
342.12439	157
353.90826	174
357.12543	110
357.14862	128

NAME: Pinoresinol
PRECURSORMZ: 357.13436194783
PRECURSORTYPE: [M-H]-
INSTRUMENTTYPE: LC-ESI-QTOF
SMILES: COC1=C(O)C=CC(=C1)C1OCC2C1COC2C1=CC(OC)=C(O)C=C1
INCHIKEY: HGXBRUKMWQGOIE-UHFFFAOYNA-N
Ontology: Furanoid lignans
COLLISIONENERGY: 10
FORMULA: C20H22O6
RETENTIONTIME: 5.590617
IONMODE: Negative
Comment: registered in RIKEN PlaSMA
Num Peaks: 7
76.68145	54
137.02338	64
151.03844	172
356.54929	51
357.08292	70
357.10413	67
357.13519	1000

NAME: Pinoresinol
PRECURSORMZ: 357.13436194783
PRECURSORTYPE: [M-H]-
INSTRUMENTTYPE: LC-ESI-QTOF
SMILES: COC1=C(O)C=CC(=C1)C1OCC2C1COC2C1=CC(OC)=C(O)C=C1
INCHIKEY: HGXBRUKMWQGOIE-UHFFFAOYNA-N
Ontology: Furanoid lignans
COLLISIONENERGY: 30
FORMULA: C20H22O6
RETENTIONTIME: 5.590617
IONMODE: Negative
Comment: registered in RIKEN PlaSMA
Num Peaks: 12
121.02694	322
122.0356	357
136.01738	1000
136.43297	78
146.06218	106
151.04393	576
159.04694	94
162.02747	94
163.04857	82
175.06903	102
184.87695	71
330.10831	90

NAME: Pinoresinol
PRECURSORMZ: 357.13436194783
PRECURSORTYPE: [M-H]-
INSTRUMENTTYPE: LC-ESI-QTOF
SMILES: COC1=C(O)C=CC(=C1)C1OCC2C1COC2C1=CC(OC)=C(O)C=C1
INCHIKEY: HGXBRUKMWQGOIE-UHFFFAOYNA-N
Ontology: Furanoid lignans
COLLISIONENERGY: 50
FORMULA: C20H22O6
RETENTIONTIME: 5.590617
IONMODE: Negative
Comment: registered in RIKEN PlaSMA
Num Peaks: 6
92.02411	182
121.03185	414
122.03566	182
136.01418	1000
136.01907	313
138.02689	293

NAME: Pinoresinol
PRECURSORMZ: 357.13436194783
PRECURSORTYPE: [M-H]-
INSTRUMENTTYPE: LC-ESI-QTOF
SMILES: COC1=C(O)C=CC(=C1)C1OCC2C1COC2C1=CC(OC)=C(O)C=C1
INCHIKEY: HGXBRUKMWQGOIE-UHFFFAOYNA-N
Ontology: Furanoid lignans
COLLISIONENERGY: 10
FORMULA: C20H22O6
RETENTIONTIME: 5.590617
IONMODE: Negative
Comment: registered in RIKEN PlaSMA
Num Peaks: 10
92.02763	103
108.01765	93
121.02938	88
122.03246	98
136.00937	98
151.03975	1000
297.11746	162
311.12967	127
357.13068	127
357.14252	98

NAME: Pinoresinol
PRECURSORMZ: 357.13436194783
PRECURSORTYPE: [M-H]-
INSTRUMENTTYPE: LC-ESI-QTOF
SMILES: COC1=C(O)C=CC(=C1)C1OCC2C1COC2C1=CC(OC)=C(O)C=C1
INCHIKEY: HGXBRUKMWQGOIE-UHFFFAOYNA-N
Ontology: Furanoid lignans
COLLISIONENERGY: 10
FORMULA: C20H22O6
RETENTIONTIME: 5.590617
IONMODE: Negative
Comment: registered in RIKEN PlaSMA
Num Peaks: 5
85.94613	30
151.03757	104
175.07867	52
311.13626	30
357.13171	1000

NAME: Pinoresinol
PRECURSORMZ: 357.13436194783
PRECURSORTYPE: [M-H]-
INSTRUMENTTYPE: LC-ESI-QTOF
SMILES: COC1=C(O)C=CC(=C1)C1OCC2C1COC2C1=CC(OC)=C(O)C=C1
INCHIKEY: HGXBRUKMWQGOIE-UHFFFAOYNA-N
Ontology: Furanoid lignans
COLLISIONENERGY: 30
FORMULA: C20H22O6
RETENTIONTIME: 5.590617
IONMODE: Negative
Comment: registered in RIKEN PlaSMA
Num Peaks: 10
110.03141	75
121.02489	75
134.03735	108
136.01654	1000
151.03964	779
152.0316	88
152.03882	96
162.03091	79
163.03424	125
183.01016	104

NAME: Pinoresinol
PRECURSORMZ: 357.13436194783
PRECURSORTYPE: [M-H]-
INSTRUMENTTYPE: LC-ESI-QTOF
SMILES: COC1=C(O)C=CC(=C1)C1OCC2C1COC2C1=CC(OC)=C(O)C=C1
INCHIKEY: HGXBRUKMWQGOIE-UHFFFAOYNA-N
Ontology: Furanoid lignans
COLLISIONENERGY: 50
FORMULA: C20H22O6
RETENTIONTIME: 5.590617
IONMODE: Negative
Comment: registered in RIKEN PlaSMA
Num Peaks: 8
92.0273	185
93.03226	141
93.03737	207
108.02177	133
121.02692	170
136.01312	1000
136.02122	178
161.06113	178

NAME: Arctiin
PRECURSORMZ: 533.20283544783
PRECURSORTYPE: [M-H]-
INSTRUMENTTYPE: LC-ESI-QTOF
SMILES: COC1=C(OC)C=C(CC2COC(=O)C2CC2=CC(OC)=C(OC3OC(CO)C(O)C(O)C3O)C=C2)C=C1
INCHIKEY: XOJVHLIYNSOZOO-UHFFFAOYNA-N
Ontology: Lignan glycosides
COLLISIONENERGY: 10
FORMULA: C27H34O11
RETENTIONTIME: 5.17965
IONMODE: Negative
Comment: registered in RIKEN PlaSMA
Num Peaks: 9
108.01868	123
121.02565	123
136.04974	146
295.12598	146
371.14581	1000
372.14279	131
373.15851	154
485.15884	138
533.18671	177

NAME: Arctiin
PRECURSORMZ: 579.20831475183
PRECURSORTYPE: [M+FA-H]-
INSTRUMENTTYPE: LC-ESI-QTOF
SMILES: COC1=C(OC)C=C(CC2COC(=O)C2CC2=CC(OC)=C(OC3OC(CO)C(O)C(O)C3O)C=C2)C=C1
INCHIKEY: XOJVHLIYNSOZOO-UHFFFAOYNA-N
Ontology: Lignan glycosides
COLLISIONENERGY: 10
FORMULA: C27H34O11
RETENTIONTIME: 5.17965
IONMODE: Negative
Comment: registered in RIKEN PlaSMA
Num Peaks: 12
83.01285	15
151.07466	17
207.04645	13
235.09787	13
356.12448	13
371.14917	469
372.15466	113
373.15289	26
533.20111	31
534.19861	7
536.20544	7
579.20685	1000

NAME: Enterolactone
PRECURSORMZ: 297.11323264783
PRECURSORTYPE: [M-H]-
INSTRUMENTTYPE: LC-ESI-QTOF
SMILES: OC1=CC=CC(CC2COC(=O)C2CC2=CC(O)=CC=C2)=C1
INCHIKEY: HVDGDHBAMCBBLR-UHFFFAOYNA-N
Ontology: Dibenzylbutyrolactone lignans
COLLISIONENERGY: 10
FORMULA: C18H18O4
RETENTIONTIME: 6.182066
IONMODE: Negative
Comment: registered in RIKEN PlaSMA
Num Peaks: 22
106.04166	26
107.04977	127
108.05089	9
119.04958	34
121.06484	98
130.04189	9
131.04903	28
132.06035	6
133.06554	30
143.04909	21
145.0656	40
146.07368	21
147.0433	13
165.05453	52
189.05507	75
190.05774	9
251.0984	8
251.10945	13
253.1221	199
254.12582	35
297.11331	1000
297.1647	9

NAME: Arctiin
PRECURSORMZ: 533.20283544783
PRECURSORTYPE: [M-H]-
INSTRUMENTTYPE: LC-ESI-QTOF
SMILES: COC1=C(OC)C=C(CC2COC(=O)C2CC2=CC(OC)=C(OC3OC(CO)C(O)C(O)C3O)C=C2)C=C1
INCHIKEY: XOJVHLIYNSOZOO-UHFFFAOYNA-N
Ontology: Lignan glycosides
COLLISIONENERGY: 10
FORMULA: C27H34O11
RETENTIONTIME: 5.17965
IONMODE: Negative
Comment: registered in RIKEN PlaSMA
Num Peaks: 9
358.47781	80
371.13858	700
371.15689	1000
372.14484	85
372.16183	440
373.16086	155
489.18225	175
501.12424	150
533.20105	95

NAME: Enterolactone
PRECURSORMZ: 297.11323264783
PRECURSORTYPE: [M-H]-
INSTRUMENTTYPE: LC-ESI-QTOF
SMILES: OC1=CC=CC(CC2COC(=O)C2CC2=CC(O)=CC=C2)=C1
INCHIKEY: HVDGDHBAMCBBLR-UHFFFAOYNA-N
Ontology: Dibenzylbutyrolactone lignans
COLLISIONENERGY: 10
FORMULA: C18H18O4
RETENTIONTIME: 6.182066
IONMODE: Negative
Comment: registered in RIKEN PlaSMA
Num Peaks: 3
253.1227	16
297.11279	1000
297.16101	16

NAME: Arctiin
PRECURSORMZ: 533.20283544783
PRECURSORTYPE: [M-H]-
INSTRUMENTTYPE: LC-ESI-QTOF
SMILES: COC1=C(OC)C=C(CC2COC(=O)C2CC2=CC(OC)=C(OC3OC(CO)C(O)C(O)C3O)C=C2)C=C1
INCHIKEY: XOJVHLIYNSOZOO-UHFFFAOYNA-N
Ontology: Lignan glycosides
COLLISIONENERGY: 30
FORMULA: C27H34O11
RETENTIONTIME: 5.17965
IONMODE: Negative
Comment: registered in RIKEN PlaSMA
Num Peaks: 9
61.23553	233
136.05052	633
226.87007	322
356.12006	522
357.14404	344
371.14194	1000
373.13412	222
374.16339	300
519.14343	189

NAME: Enterolactone
PRECURSORMZ: 297.11323264783
PRECURSORTYPE: [M-H]-
INSTRUMENTTYPE: LC-ESI-QTOF
SMILES: OC1=CC=CC(CC2COC(=O)C2CC2=CC(O)=CC=C2)=C1
INCHIKEY: HVDGDHBAMCBBLR-UHFFFAOYNA-N
Ontology: Dibenzylbutyrolactone lignans
COLLISIONENERGY: 30
FORMULA: C18H18O4
RETENTIONTIME: 6.182066
IONMODE: Negative
Comment: registered in RIKEN PlaSMA
Num Peaks: 53
91.05783	5
92.02423	20
93.03135	14
94.03645	7
103.05357	7
106.04181	388
107.04887	1000
108.05271	59
109.0641	11
109.06915	9
115.05449	5
119.04837	264
120.04665	8
120.0548	45
121.06451	501
122.06798	55
130.04129	48
131.04872	180
132.05582	76
133.06503	272
143.05016	96
144.05643	40
145.01981	7
145.02603	7
145.04034	8
145.06465	296
146.032	7
146.07143	92
147.04117	24
147.05096	10
147.0779	16
147.08398	6
148.05179	17
157.06339	8
159.0428	24
165.05334	9
189.05421	195
190.05286	18
190.06271	17
195.08269	9
197.08807	5
235.08005	5
237.09079	17
238.10022	6
249.10307	9
251.10413	75
252.10776	11
253.10446	6
253.12286	220
254.12032	30
254.13463	18
279.10086	9
297.11081	9

NAME: Arctiin
PRECURSORMZ: 533.20283544783
PRECURSORTYPE: [M-H]-
INSTRUMENTTYPE: LC-ESI-QTOF
SMILES: COC1=C(OC)C=C(CC2COC(=O)C2CC2=CC(OC)=C(OC3OC(CO)C(O)C(O)C3O)C=C2)C=C1
INCHIKEY: XOJVHLIYNSOZOO-UHFFFAOYNA-N
Ontology: Lignan glycosides
COLLISIONENERGY: 50
FORMULA: C27H34O11
RETENTIONTIME: 5.17965
IONMODE: Negative
Comment: registered in RIKEN PlaSMA
Num Peaks: 3
83.012	457
136.04883	1000
136.06039	329

NAME: Enterolactone
PRECURSORMZ: 297.11323264783
PRECURSORTYPE: [M-H]-
INSTRUMENTTYPE: LC-ESI-QTOF
SMILES: OC1=CC=CC(CC2COC(=O)C2CC2=CC(O)=CC=C2)=C1
INCHIKEY: HVDGDHBAMCBBLR-UHFFFAOYNA-N
Ontology: Dibenzylbutyrolactone lignans
COLLISIONENERGY: 50
FORMULA: C18H18O4
RETENTIONTIME: 6.182066
IONMODE: Negative
Comment: registered in RIKEN PlaSMA
Num Peaks: 55
65.03999	91
79.05515	84
89.04139	17
91.05318	13
92.02715	80
93.03273	17
93.06773	15
98.53867	13
103.05171	53
104.02174	13
106.04205	1000
106.06979	19
106.12144	13
107.03922	58
107.04929	750
108.05297	54
108.05864	28
119.04898	389
119.05907	25
120.05611	79
120.06491	13
121.06791	35
121.78127	13
129.03308	16
130.04128	205
130.05263	15
131.03705	92
131.04689	84
131.05307	118
132.05576	40
133.05989	13
133.06671	73
137.39252	13
143.04402	95
143.05054	282
144.05013	35
145.03067	78
145.05858	16
145.06987	95
147.04095	39
147.04657	95
151.6788	17
158.03923	27
159.04483	58
159.08008	47
159.15263	13
171.03944	21
182.06375	13
183.04636	15
189.05298	15
206.06471	17
209.08748	14
231.07585	21
236.07457	22
250.09261	13

NAME: Arctiin
PRECURSORMZ: 533.20283544783
PRECURSORTYPE: [M-H]-
INSTRUMENTTYPE: LC-ESI-QTOF
SMILES: COC1=C(OC)C=C(CC2COC(=O)C2CC2=CC(OC)=C(OC3OC(CO)C(O)C(O)C3O)C=C2)C=C1
INCHIKEY: XOJVHLIYNSOZOO-UHFFFAOYNA-N
Ontology: Lignan glycosides
COLLISIONENERGY: 10
FORMULA: C27H34O11
RETENTIONTIME: 5.17965
IONMODE: Negative
Comment: registered in RIKEN PlaSMA
Num Peaks: 14
83.01218	77
136.05453	135
137.05338	87
151.08005	77
159.02165	111
312.09915	82
328.13947	77
356.14114	77
371.12424	221
371.1528	1000
372.15778	250
372.17288	125
373.147	77
477.14685	82

NAME: Arctiin
PRECURSORMZ: 579.20831475183
PRECURSORTYPE: [M+FA-H]-
INSTRUMENTTYPE: LC-ESI-QTOF
SMILES: COC1=C(OC)C=C(CC2COC(=O)C2CC2=CC(OC)=C(OC3OC(CO)C(O)C(O)C3O)C=C2)C=C1
INCHIKEY: XOJVHLIYNSOZOO-UHFFFAOYNA-N
Ontology: Lignan glycosides
COLLISIONENERGY: 10
FORMULA: C27H34O11
RETENTIONTIME: 5.17965
IONMODE: Negative
Comment: registered in RIKEN PlaSMA
Num Peaks: 12
83.01418	13
136.05347	7
151.07332	6
207.04607	9
235.09755	6
356.11652	10
356.13019	8
371.14932	473
372.15359	100
373.15106	12
533.20441	27
579.20782	1000

NAME: Enterolactone
PRECURSORMZ: 297.11323264783
PRECURSORTYPE: [M-H]-
INSTRUMENTTYPE: LC-ESI-QTOF
SMILES: OC1=CC=CC(CC2COC(=O)C2CC2=CC(O)=CC=C2)=C1
INCHIKEY: HVDGDHBAMCBBLR-UHFFFAOYNA-N
Ontology: Dibenzylbutyrolactone lignans
COLLISIONENERGY: 10
FORMULA: C18H18O4
RETENTIONTIME: 6.182066
IONMODE: Negative
Comment: registered in RIKEN PlaSMA
Num Peaks: 25
106.04266	36
107.04933	114
108.05093	7
119.04914	28
120.05302	7
121.06525	74
122.06969	6
131.04855	17
132.05902	7
133.06436	26
143.04936	8
144.05791	5
145.06409	30
146.06963	12
146.0757	9
147.0442	10
165.05458	38
166.0551	7
189.05507	83
190.05975	8
251.10893	15
253.12196	213
254.12578	40
297.11279	1000
297.16165	8

NAME: Arctiin
PRECURSORMZ: 533.20283544783
PRECURSORTYPE: [M-H]-
INSTRUMENTTYPE: LC-ESI-QTOF
SMILES: COC1=C(OC)C=C(CC2COC(=O)C2CC2=CC(OC)=C(OC3OC(CO)C(O)C(O)C3O)C=C2)C=C1
INCHIKEY: XOJVHLIYNSOZOO-UHFFFAOYNA-N
Ontology: Lignan glycosides
COLLISIONENERGY: 10
FORMULA: C27H34O11
RETENTIONTIME: 5.17965
IONMODE: Negative
Comment: registered in RIKEN PlaSMA
Num Peaks: 11
210.51593	60
327.11456	50
371.11514	116
371.14993	1000
372.1409	173
372.15771	179
373.14893	264
501.12817	60
518.17285	110
533.16766	50
533.21667	135

NAME: Enterolactone
PRECURSORMZ: 297.11323264783
PRECURSORTYPE: [M-H]-
INSTRUMENTTYPE: LC-ESI-QTOF
SMILES: OC1=CC=CC(CC2COC(=O)C2CC2=CC(O)=CC=C2)=C1
INCHIKEY: HVDGDHBAMCBBLR-UHFFFAOYNA-N
Ontology: Dibenzylbutyrolactone lignans
COLLISIONENERGY: 10
FORMULA: C18H18O4
RETENTIONTIME: 6.182066
IONMODE: Negative
Comment: registered in RIKEN PlaSMA
Num Peaks: 4
189.0567	6
253.1219	13
297.11203	1000
297.16019	17

NAME: Arctiin
PRECURSORMZ: 533.20283544783
PRECURSORTYPE: [M-H]-
INSTRUMENTTYPE: LC-ESI-QTOF
SMILES: COC1=C(OC)C=C(CC2COC(=O)C2CC2=CC(OC)=C(OC3OC(CO)C(O)C(O)C3O)C=C2)C=C1
INCHIKEY: XOJVHLIYNSOZOO-UHFFFAOYNA-N
Ontology: Lignan glycosides
COLLISIONENERGY: 30
FORMULA: C27H34O11
RETENTIONTIME: 5.17965
IONMODE: Negative
Comment: registered in RIKEN PlaSMA
Num Peaks: 11
83.01073	612
83.01737	212
151.07343	262
220.076	588
235.09807	200
312.13055	212
327.11423	288
329.1452	225
356.1181	462
371.13669	1000
371.15305	838

NAME: Enterolactone
PRECURSORMZ: 297.11323264783
PRECURSORTYPE: [M-H]-
INSTRUMENTTYPE: LC-ESI-QTOF
SMILES: OC1=CC=CC(CC2COC(=O)C2CC2=CC(O)=CC=C2)=C1
INCHIKEY: HVDGDHBAMCBBLR-UHFFFAOYNA-N
Ontology: Dibenzylbutyrolactone lignans
COLLISIONENERGY: 30
FORMULA: C18H18O4
RETENTIONTIME: 6.182066
IONMODE: Negative
Comment: registered in RIKEN PlaSMA
Num Peaks: 55
79.05397	15
92.02383	5
93.03187	13
93.06537	6
103.05494	10
106.04139	388
107.0493	1000
108.05323	59
109.05341	6
109.06137	6
109.06757	6
119.04926	268
120.05069	24
120.05741	53
121.06493	493
122.06827	31
130.04053	63
131.04976	235
131.10103	6
132.04689	25
132.05708	38
133.06488	219
134.06683	16
135.07437	8
143.04832	93
144.05582	36
145.02385	8
145.03175	6
145.06529	289
146.03169	7
146.03917	11
146.07141	74
147.04298	63
147.08037	8
148.0498	5
149.05687	8
159.04057	5
159.07973	7
161.06172	13
165.05371	45
171.04306	5
181.0607	9
189.05508	235
190.05284	16
190.06361	5
196.08339	6
209.0966	7
237.0921	8
251.10516	75
252.11052	12
252.12621	5
253.12396	282
254.11969	23
254.13069	29
297.10696	9

NAME: Arctiin
PRECURSORMZ: 533.20283544783
PRECURSORTYPE: [M-H]-
INSTRUMENTTYPE: LC-ESI-QTOF
SMILES: COC1=C(OC)C=C(CC2COC(=O)C2CC2=CC(OC)=C(OC3OC(CO)C(O)C(O)C3O)C=C2)C=C1
INCHIKEY: XOJVHLIYNSOZOO-UHFFFAOYNA-N
Ontology: Lignan glycosides
COLLISIONENERGY: 50
FORMULA: C27H34O11
RETENTIONTIME: 5.17965
IONMODE: Negative
Comment: registered in RIKEN PlaSMA
Num Peaks: 11
83.01209	1000
121.02754	679
136.05402	768
161.01656	393
175.03844	357
176.04799	339
177.05496	732
187.03589	321
188.04529	464
220.02539	304
268.04694	446

NAME: Enterolactone
PRECURSORMZ: 297.11323264783
PRECURSORTYPE: [M-H]-
INSTRUMENTTYPE: LC-ESI-QTOF
SMILES: OC1=CC=CC(CC2COC(=O)C2CC2=CC(O)=CC=C2)=C1
INCHIKEY: HVDGDHBAMCBBLR-UHFFFAOYNA-N
Ontology: Dibenzylbutyrolactone lignans
COLLISIONENERGY: 50
FORMULA: C18H18O4
RETENTIONTIME: 6.182066
IONMODE: Negative
Comment: registered in RIKEN PlaSMA
Num Peaks: 45
65.03735	61
66.04288	21
79.05331	52
91.05534	24
92.02716	34
93.03432	17
102.04765	53
103.05523	46
105.06894	17
106.04234	1000
107.04987	924
108.05252	22
109.05454	20
115.05056	17
117.06508	23
118.03796	19
119.05001	415
119.5951	37
120.05621	16
121.06148	26
121.06827	21
129.03407	18
130.04187	312
131.04994	265
132.01805	54
132.05183	33
133.06245	106
134.07553	47
143.04564	251
144.04947	59
144.05869	25
145.02652	57
145.06151	73
145.06779	76
146.04243	24
146.07129	64
147.04134	29
147.58824	29
148.12532	17
156.0549	18
156.07208	17
173.06009	45
182.06084	31
189.05383	23
209.09906	20

NAME: Arctiin
PRECURSORMZ: 533.20283544783
PRECURSORTYPE: [M-H]-
INSTRUMENTTYPE: LC-ESI-QTOF
SMILES: COC1=C(OC)C=C(CC2COC(=O)C2CC2=CC(OC)=C(OC3OC(CO)C(O)C(O)C3O)C=C2)C=C1
INCHIKEY: XOJVHLIYNSOZOO-UHFFFAOYNA-N
Ontology: Lignan glycosides
COLLISIONENERGY: 10
FORMULA: C27H34O11
RETENTIONTIME: 5.17965
IONMODE: Negative
Comment: registered in RIKEN PlaSMA
Num Peaks: 11
83.01486	149
136.04732	88
236.09184	79
329.80014	116
341.09592	74
358.09567	102
364.8367	79
371.14951	1000
372.13849	107
372.15454	112
501.9292	84

NAME: Enterolactone
PRECURSORMZ: 297.11323264783
PRECURSORTYPE: [M-H]-
INSTRUMENTTYPE: LC-ESI-QTOF
SMILES: OC1=CC=CC(CC2COC(=O)C2CC2=CC(O)=CC=C2)=C1
INCHIKEY: HVDGDHBAMCBBLR-UHFFFAOYNA-N
Ontology: Dibenzylbutyrolactone lignans
COLLISIONENERGY: 10
FORMULA: C18H18O4
RETENTIONTIME: 6.182066
IONMODE: Negative
Comment: registered in RIKEN PlaSMA
Num Peaks: 24
106.04221	37
107.04946	99
108.05209	12
119.04896	26
120.05486	10
121.06487	90
122.06773	10
131.04939	20
132.05534	13
133.06543	23
143.04976	11
145.06563	47
146.0712	12
165.054	31
165.06168	8
189.05545	89
190.0555	6
251.09679	6
251.10994	12
253.12332	164
254.12296	23
254.13181	12
297.11255	1000
297.16113	16

NAME: Arctiin
PRECURSORMZ: 533.20283544783
PRECURSORTYPE: [M-H]-
INSTRUMENTTYPE: LC-ESI-QTOF
SMILES: COC1=C(OC)C=C(CC2COC(=O)C2CC2=CC(OC)=C(OC3OC(CO)C(O)C(O)C3O)C=C2)C=C1
INCHIKEY: XOJVHLIYNSOZOO-UHFFFAOYNA-N
Ontology: Lignan glycosides
COLLISIONENERGY: 10
FORMULA: C27H34O11
RETENTIONTIME: 5.17965
IONMODE: Negative
Comment: registered in RIKEN PlaSMA
Num Peaks: 9
161.04222	65
351.40631	73
371.14963	1000
372.14835	320
372.16437	58
373.15588	76
439.52774	73
533.17426	65
533.20752	215

NAME: Enterolactone
PRECURSORMZ: 297.11323264783
PRECURSORTYPE: [M-H]-
INSTRUMENTTYPE: LC-ESI-QTOF
SMILES: OC1=CC=CC(CC2COC(=O)C2CC2=CC(O)=CC=C2)=C1
INCHIKEY: HVDGDHBAMCBBLR-UHFFFAOYNA-N
Ontology: Dibenzylbutyrolactone lignans
COLLISIONENERGY: 10
FORMULA: C18H18O4
RETENTIONTIME: 6.182066
IONMODE: Negative
Comment: registered in RIKEN PlaSMA
Num Peaks: 3
253.12311	17
297.11307	1000
297.16199	18

NAME: Arctiin
PRECURSORMZ: 533.20283544783
PRECURSORTYPE: [M-H]-
INSTRUMENTTYPE: LC-ESI-QTOF
SMILES: COC1=C(OC)C=C(CC2COC(=O)C2CC2=CC(OC)=C(OC3OC(CO)C(O)C(O)C3O)C=C2)C=C1
INCHIKEY: XOJVHLIYNSOZOO-UHFFFAOYNA-N
Ontology: Lignan glycosides
COLLISIONENERGY: 30
FORMULA: C27H34O11
RETENTIONTIME: 5.17965
IONMODE: Negative
Comment: registered in RIKEN PlaSMA
Num Peaks: 10
83.01171	217
136.04645	325
151.08098	300
152.08105	183
176.04765	150
312.10641	175
312.14877	200
330.12988	133
371.15201	1000
373.11316	133

NAME: Arctiin
PRECURSORMZ: 579.20831475183
PRECURSORTYPE: [M+FA-H]-
INSTRUMENTTYPE: LC-ESI-QTOF
SMILES: COC1=C(OC)C=C(CC2COC(=O)C2CC2=CC(OC)=C(OC3OC(CO)C(O)C(O)C3O)C=C2)C=C1
INCHIKEY: XOJVHLIYNSOZOO-UHFFFAOYNA-N
Ontology: Lignan glycosides
COLLISIONENERGY: 30
FORMULA: C27H34O11
RETENTIONTIME: 5.17965
IONMODE: Negative
Comment: registered in RIKEN PlaSMA
Num Peaks: 23
83.01293	84
101.02219	5
113.01939	8
136.05063	14
137.0589	10
151.07239	33
151.0829	14
152.07695	7
161.04761	10
209.07675	10
235.09442	42
236.10744	5
295.13339	6
312.13574	13
313.13583	8
356.12482	85
357.12216	17
358.14026	7
371.14798	1000
372.15118	202
372.17606	7
373.14709	14
373.16522	17

NAME: Enterolactone
PRECURSORMZ: 297.11323264783
PRECURSORTYPE: [M-H]-
INSTRUMENTTYPE: LC-ESI-QTOF
SMILES: OC1=CC=CC(CC2COC(=O)C2CC2=CC(O)=CC=C2)=C1
INCHIKEY: HVDGDHBAMCBBLR-UHFFFAOYNA-N
Ontology: Dibenzylbutyrolactone lignans
COLLISIONENERGY: 30
FORMULA: C18H18O4
RETENTIONTIME: 6.182066
IONMODE: Negative
Comment: registered in RIKEN PlaSMA
Num Peaks: 52
93.03249	12
103.05393	12
106.04163	371
107.0496	1000
108.0538	95
109.06661	9
119.04961	291
120.05488	43
121.02884	11
121.06522	533
122.0684	49
130.04095	62
130.04765	17
131.0491	195
132.05632	52
133.06496	250
134.06763	22
143.04695	42
143.05254	52
144.04495	6
144.05606	33
145.03262	10
145.06528	277
146.03282	11
146.07138	83
147.0367	10
147.04602	52
147.08263	6
148.04549	13
157.06995	5
159.04156	6
159.05077	8
159.08109	8
161.06323	15
165.06415	6
166.05878	10
171.03638	5
171.0477	6
172.05135	12
173.0574	8
173.06355	6
187.03394	7
189.05521	244
190.05771	30
196.08841	7
235.06941	7
237.0864	7
249.08463	8
251.10768	70
253.1228	215
254.12457	46
297.11829	15

NAME: Arctiin
PRECURSORMZ: 533.20283544783
PRECURSORTYPE: [M-H]-
INSTRUMENTTYPE: LC-ESI-QTOF
SMILES: COC1=C(OC)C=C(CC2COC(=O)C2CC2=CC(OC)=C(OC3OC(CO)C(O)C(O)C3O)C=C2)C=C1
INCHIKEY: XOJVHLIYNSOZOO-UHFFFAOYNA-N
Ontology: Lignan glycosides
COLLISIONENERGY: 50
FORMULA: C27H34O11
RETENTIONTIME: 5.17965
IONMODE: Negative
Comment: registered in RIKEN PlaSMA
Num Peaks: 7
83.01381	464
84.0162	268
121.03016	145
122.03731	145
136.05063	1000
137.01625	174
173.06007	145

NAME: Enterolactone
PRECURSORMZ: 297.11323264783
PRECURSORTYPE: [M-H]-
INSTRUMENTTYPE: LC-ESI-QTOF
SMILES: OC1=CC=CC(CC2COC(=O)C2CC2=CC(O)=CC=C2)=C1
INCHIKEY: HVDGDHBAMCBBLR-UHFFFAOYNA-N
Ontology: Dibenzylbutyrolactone lignans
COLLISIONENERGY: 50
FORMULA: C18H18O4
RETENTIONTIME: 6.182066
IONMODE: Negative
Comment: registered in RIKEN PlaSMA
Num Peaks: 54
65.03765	50
67.01945	57
77.03612	14
77.04137	18
79.05521	77
79.06091	14
91.05338	12
92.02595	93
103.05536	103
106.04055	1000
106.054	12
107.04861	822
107.06467	12
108.04483	12
108.05022	29
108.05408	47
108.17713	14
109.30338	13
114.54142	12
117.03428	14
119.05006	494
119.06389	25
120.0518	27
121.06326	59
122.06664	12
130.04164	78
130.0529	14
131.05034	230
132.02484	12
132.04944	55
133.05667	23
133.06508	54
133.06993	30
133.08833	14
134.07349	18
143.04993	382
144.05481	44
144.06351	13
145.02573	80
145.06735	68
146.06836	19
147.04054	12
147.04797	17
156.05962	16
159.04301	43
159.05402	18
171.04771	15
189.04921	43
208.3089	20
232.08803	19
235.06841	12
235.95888	15
236.07423	12
258.0596	12

NAME: Phillyrin
PRECURSORMZ: 533.20283544783
PRECURSORTYPE: [M-H]-
INSTRUMENTTYPE: LC-ESI-QTOF
SMILES: COC1=C(OC)C=C(C=C1)C1OCC2C1COC2C1=CC(OC)=C(OC2OC(CO)C(O)C(O)C2O)C=C1
INCHIKEY: KFFCKOBAHMGTMW-UHFFFAOYNA-N
Ontology: Lignan glycosides
COLLISIONENERGY: 10
FORMULA: C27H34O11
RETENTIONTIME: 5.128117
IONMODE: Negative
Comment: registered in RIKEN PlaSMA
Num Peaks: 11
113.02123	158
121.0256	140
151.03963	219
161.03802	149
161.05318	272
178.01944	175
283.09851	263
356.13696	298
371.13223	316
371.15472	1000
372.14655	193

NAME: Phillyrin
PRECURSORMZ: 579.20831475183
PRECURSORTYPE: [M+FA-H]-
INSTRUMENTTYPE: LC-ESI-QTOF
SMILES: COC1=C(OC)C=C(C=C1)C1OCC2C1COC2C1=CC(OC)=C(OC2OC(CO)C(O)C(O)C2O)C=C1
INCHIKEY: KFFCKOBAHMGTMW-UHFFFAOYNA-N
Ontology: Lignan glycosides
COLLISIONENERGY: 10
FORMULA: C27H34O11
RETENTIONTIME: 5.128117
IONMODE: Negative
Comment: registered in RIKEN PlaSMA
Num Peaks: 11
161.04294	12
356.1221	30
356.14255	6
357.12305	7
358.13806	11
371.14999	151
372.15402	23
373.15216	8
533.19281	11
533.21466	11
579.20764	1000

NAME: Phillyrin
PRECURSORMZ: 533.20283544783
PRECURSORTYPE: [M-H]-
INSTRUMENTTYPE: LC-ESI-QTOF
SMILES: COC1=C(OC)C=C(C=C1)C1OCC2C1COC2C1=CC(OC)=C(OC2OC(CO)C(O)C(O)C2O)C=C1
INCHIKEY: KFFCKOBAHMGTMW-UHFFFAOYNA-N
Ontology: Lignan glycosides
COLLISIONENERGY: 10
FORMULA: C27H34O11
RETENTIONTIME: 5.128117
IONMODE: Negative
Comment: registered in RIKEN PlaSMA
Num Peaks: 5
161.04669	246
371.14188	1000
372.16089	186
373.17236	101
533.19415	101

NAME: Phillyrin
PRECURSORMZ: 579.20831475183
PRECURSORTYPE: [M+FA-H]-
INSTRUMENTTYPE: LC-ESI-QTOF
SMILES: COC1=C(OC)C=C(C=C1)C1OCC2C1COC2C1=CC(OC)=C(OC2OC(CO)C(O)C(O)C2O)C=C1
INCHIKEY: KFFCKOBAHMGTMW-UHFFFAOYNA-N
Ontology: Lignan glycosides
COLLISIONENERGY: 10
FORMULA: C27H34O11
RETENTIONTIME: 5.128117
IONMODE: Negative
Comment: registered in RIKEN PlaSMA
Num Peaks: 3
371.15219	16
533.19934	24
579.20782	1000

NAME: Phillyrin
PRECURSORMZ: 533.20283544783
PRECURSORTYPE: [M-H]-
INSTRUMENTTYPE: LC-ESI-QTOF
SMILES: COC1=C(OC)C=C(C=C1)C1OCC2C1COC2C1=CC(OC)=C(OC2OC(CO)C(O)C(O)C2O)C=C1
INCHIKEY: KFFCKOBAHMGTMW-UHFFFAOYNA-N
Ontology: Lignan glycosides
COLLISIONENERGY: 30
FORMULA: C27H34O11
RETENTIONTIME: 5.128117
IONMODE: Negative
Comment: registered in RIKEN PlaSMA
Num Peaks: 9
135.03957	168
136.0246	136
219.06491	160
328.09775	160
356.12775	464
356.14685	128
357.13248	144
371.14224	1000
372.14832	344

NAME: Phillyrin
PRECURSORMZ: 579.20831475183
PRECURSORTYPE: [M+FA-H]-
INSTRUMENTTYPE: LC-ESI-QTOF
SMILES: COC1=C(OC)C=C(C=C1)C1OCC2C1COC2C1=CC(OC)=C(OC2OC(CO)C(O)C(O)C2O)C=C1
INCHIKEY: KFFCKOBAHMGTMW-UHFFFAOYNA-N
Ontology: Lignan glycosides
COLLISIONENERGY: 30
FORMULA: C27H34O11
RETENTIONTIME: 5.128117
IONMODE: Negative
Comment: registered in RIKEN PlaSMA
Num Peaks: 19
73.03127	7
86.02906	13
101.02016	7
113.025	16
324.25107	9
341.1398	17
356.12268	194
356.15485	9
357.12332	75
357.13467	44
358.11731	7
358.14429	7
371.15073	1000
372.15222	154
372.16342	69
373.14893	10
373.16605	25
373.48532	7
374.16641	7

NAME: Phillyrin
PRECURSORMZ: 533.20283544783
PRECURSORTYPE: [M-H]-
INSTRUMENTTYPE: LC-ESI-QTOF
SMILES: COC1=C(OC)C=C(C=C1)C1OCC2C1COC2C1=CC(OC)=C(OC2OC(CO)C(O)C(O)C2O)C=C1
INCHIKEY: KFFCKOBAHMGTMW-UHFFFAOYNA-N
Ontology: Lignan glycosides
COLLISIONENERGY: 50
FORMULA: C27H34O11
RETENTIONTIME: 5.128117
IONMODE: Negative
Comment: registered in RIKEN PlaSMA
Num Peaks: 5
121.02837	1000
136.02122	400
176.04813	327
356.13184	964
357.12012	364

NAME: Phillyrin
PRECURSORMZ: 579.20831475183
PRECURSORTYPE: [M+FA-H]-
INSTRUMENTTYPE: LC-ESI-QTOF
SMILES: COC1=C(OC)C=C(C=C1)C1OCC2C1COC2C1=CC(OC)=C(OC2OC(CO)C(O)C(O)C2O)C=C1
INCHIKEY: KFFCKOBAHMGTMW-UHFFFAOYNA-N
Ontology: Lignan glycosides
COLLISIONENERGY: 50
FORMULA: C27H34O11
RETENTIONTIME: 5.128117
IONMODE: Negative
Comment: registered in RIKEN PlaSMA
Num Peaks: 30
53.60975	59
61.13527	23
71.01202	27
85.0267	34
94.50455	30
121.02848	372
122.03356	35
122.03973	74
123.47432	22
133.03262	38
135.0434	139
135.04875	72
147.04366	30
147.50128	30
151.03215	35
160.05203	32
160.05923	41
162.02621	27
163.03857	31
164.04655	66
165.04877	91
173.49861	24
177.05617	78
179.01973	32
179.03758	23
202.32834	22
272.09039	112
296.0737	55
356.12485	1000
357.13181	454

NAME: Phillyrin
PRECURSORMZ: 533.20283544783
PRECURSORTYPE: [M-H]-
INSTRUMENTTYPE: LC-ESI-QTOF
SMILES: COC1=C(OC)C=C(C=C1)C1OCC2C1COC2C1=CC(OC)=C(OC2OC(CO)C(O)C(O)C2O)C=C1
INCHIKEY: KFFCKOBAHMGTMW-UHFFFAOYNA-N
Ontology: Lignan glycosides
COLLISIONENERGY: 10
FORMULA: C27H34O11
RETENTIONTIME: 5.128117
IONMODE: Negative
Comment: registered in RIKEN PlaSMA
Num Peaks: 7
113.02655	279
121.03077	256
177.06165	198
357.13583	221
371.15552	1000
372.13577	279
372.15109	488

NAME: Phillyrin
PRECURSORMZ: 533.20283544783
PRECURSORTYPE: [M-H]-
INSTRUMENTTYPE: LC-ESI-QTOF
SMILES: COC1=C(OC)C=C(C=C1)C1OCC2C1COC2C1=CC(OC)=C(OC2OC(CO)C(O)C(O)C2O)C=C1
INCHIKEY: KFFCKOBAHMGTMW-UHFFFAOYNA-N
Ontology: Lignan glycosides
COLLISIONENERGY: 10
FORMULA: C27H34O11
RETENTIONTIME: 5.128117
IONMODE: Negative
Comment: registered in RIKEN PlaSMA
Num Peaks: 5
161.03358	84
371.14651	1000
372.14844	105
372.17206	95
533.20819	416

NAME: Phillyrin
PRECURSORMZ: 579.20831475183
PRECURSORTYPE: [M+FA-H]-
INSTRUMENTTYPE: LC-ESI-QTOF
SMILES: COC1=C(OC)C=C(C=C1)C1OCC2C1COC2C1=CC(OC)=C(OC2OC(CO)C(O)C(O)C2O)C=C1
INCHIKEY: KFFCKOBAHMGTMW-UHFFFAOYNA-N
Ontology: Lignan glycosides
COLLISIONENERGY: 10
FORMULA: C27H34O11
RETENTIONTIME: 5.128117
IONMODE: Negative
Comment: registered in RIKEN PlaSMA
Num Peaks: 5
161.04608	5
371.14832	18
372.15573	6
533.20569	15
579.20996	1000

NAME: Phillyrin
PRECURSORMZ: 533.20283544783
PRECURSORTYPE: [M-H]-
INSTRUMENTTYPE: LC-ESI-QTOF
SMILES: COC1=C(OC)C=C(C=C1)C1OCC2C1COC2C1=CC(OC)=C(OC2OC(CO)C(O)C(O)C2O)C=C1
INCHIKEY: KFFCKOBAHMGTMW-UHFFFAOYNA-N
Ontology: Lignan glycosides
COLLISIONENERGY: 30
FORMULA: C27H34O11
RETENTIONTIME: 5.128117
IONMODE: Negative
Comment: registered in RIKEN PlaSMA
Num Peaks: 11
71.01168	329
161.05109	228
275.62546	266
312.09427	215
356.08789	228
356.11566	1000
356.1391	215
359.13538	253
371.10577	215
371.14539	215
372.15686	278

NAME: Phillyrin
PRECURSORMZ: 579.20831475183
PRECURSORTYPE: [M+FA-H]-
INSTRUMENTTYPE: LC-ESI-QTOF
SMILES: COC1=C(OC)C=C(C=C1)C1OCC2C1COC2C1=CC(OC)=C(OC2OC(CO)C(O)C(O)C2O)C=C1
INCHIKEY: KFFCKOBAHMGTMW-UHFFFAOYNA-N
Ontology: Lignan glycosides
COLLISIONENERGY: 30
FORMULA: C27H34O11
RETENTIONTIME: 5.128117
IONMODE: Negative
Comment: registered in RIKEN PlaSMA
Num Peaks: 24
71.01183	9
96.65401	9
99.00835	9
101.02219	7
102.02716	9
113.02588	8
121.02945	11
159.03328	7
160.02919	9
161.04544	16
163.06871	9
228.3134	8
309.10529	8
326.08002	9
338.11392	13
355.98462	7
356.12698	326
357.12341	54
358.14719	10
362.23376	8
371.14972	1000
372.15338	150
372.1759	8
373.151	57

NAME: Phillyrin
PRECURSORMZ: 533.20283544783
PRECURSORTYPE: [M-H]-
INSTRUMENTTYPE: LC-ESI-QTOF
SMILES: COC1=C(OC)C=C(C=C1)C1OCC2C1COC2C1=CC(OC)=C(OC2OC(CO)C(O)C(O)C2O)C=C1
INCHIKEY: KFFCKOBAHMGTMW-UHFFFAOYNA-N
Ontology: Lignan glycosides
COLLISIONENERGY: 50
FORMULA: C27H34O11
RETENTIONTIME: 5.128117
IONMODE: Negative
Comment: registered in RIKEN PlaSMA
Num Peaks: 6
109.03236	382
121.03036	1000
162.03183	265
189.05692	250
241.05046	324
356.13086	471

NAME: Phillyrin
PRECURSORMZ: 579.20831475183
PRECURSORTYPE: [M+FA-H]-
INSTRUMENTTYPE: LC-ESI-QTOF
SMILES: COC1=C(OC)C=C(C=C1)C1OCC2C1COC2C1=CC(OC)=C(OC2OC(CO)C(O)C(O)C2O)C=C1
INCHIKEY: KFFCKOBAHMGTMW-UHFFFAOYNA-N
Ontology: Lignan glycosides
COLLISIONENERGY: 50
FORMULA: C27H34O11
RETENTIONTIME: 5.128117
IONMODE: Negative
Comment: registered in RIKEN PlaSMA
Num Peaks: 33
121.02759	507
121.41154	16
122.03017	28
122.03617	25
123.03962	20
133.03465	30
134.03586	38
135.04546	43
136.05222	17
150.03166	16
159.0392	20
160.04994	26
161.02094	25
163.04005	53
176.04396	18
189.05692	24
219.05006	24
219.07652	17
225.1881	16
241.0869	16
249.28061	18
255.07645	22
256.06534	20
280.08389	17
308.06152	19
312.83267	21
328.13388	17
356.12555	1000
356.16608	16
357.12546	292
358.14227	46
372.16028	16
533.43359	23

NAME: Phillyrin
PRECURSORMZ: 533.20283544783
PRECURSORTYPE: [M-H]-
INSTRUMENTTYPE: LC-ESI-QTOF
SMILES: COC1=C(OC)C=C(C=C1)C1OCC2C1COC2C1=CC(OC)=C(OC2OC(CO)C(O)C(O)C2O)C=C1
INCHIKEY: KFFCKOBAHMGTMW-UHFFFAOYNA-N
Ontology: Lignan glycosides
COLLISIONENERGY: 10
FORMULA: C27H34O11
RETENTIONTIME: 5.128117
IONMODE: Negative
Comment: registered in RIKEN PlaSMA
Num Peaks: 9
342.14041	129
356.12497	129
371.09964	161
371.13745	298
371.15146	1000
371.17422	137
372.14655	161
372.15805	129
533.21399	169

NAME: Phillyrin
PRECURSORMZ: 579.20831475183
PRECURSORTYPE: [M+FA-H]-
INSTRUMENTTYPE: LC-ESI-QTOF
SMILES: COC1=C(OC)C=C(C=C1)C1OCC2C1COC2C1=CC(OC)=C(OC2OC(CO)C(O)C(O)C2O)C=C1
INCHIKEY: KFFCKOBAHMGTMW-UHFFFAOYNA-N
Ontology: Lignan glycosides
COLLISIONENERGY: 10
FORMULA: C27H34O11
RETENTIONTIME: 5.128117
IONMODE: Negative
Comment: registered in RIKEN PlaSMA
Num Peaks: 10
161.04593	6
356.1261	66
357.13007	10
371.15076	150
372.14374	9
372.15646	19
533.1922	13
533.20996	11
579.20807	1000
579.24817	5

NAME: Phillyrin
PRECURSORMZ: 533.20283544783
PRECURSORTYPE: [M-H]-
INSTRUMENTTYPE: LC-ESI-QTOF
SMILES: COC1=C(OC)C=C(C=C1)C1OCC2C1COC2C1=CC(OC)=C(OC2OC(CO)C(O)C(O)C2O)C=C1
INCHIKEY: KFFCKOBAHMGTMW-UHFFFAOYNA-N
Ontology: Lignan glycosides
COLLISIONENERGY: 10
FORMULA: C27H34O11
RETENTIONTIME: 5.128117
IONMODE: Negative
Comment: registered in RIKEN PlaSMA
Num Peaks: 7
161.04294	161
371.14288	1000
371.16006	468
372.14398	331
372.16452	129
533.19666	129
533.21338	266

NAME: Phillyrin
PRECURSORMZ: 579.20831475183
PRECURSORTYPE: [M+FA-H]-
INSTRUMENTTYPE: LC-ESI-QTOF
SMILES: COC1=C(OC)C=C(C=C1)C1OCC2C1COC2C1=CC(OC)=C(OC2OC(CO)C(O)C(O)C2O)C=C1
INCHIKEY: KFFCKOBAHMGTMW-UHFFFAOYNA-N
Ontology: Lignan glycosides
COLLISIONENERGY: 10
FORMULA: C27H34O11
RETENTIONTIME: 5.128117
IONMODE: Negative
Comment: registered in RIKEN PlaSMA
Num Peaks: 4
161.04251	6
371.15073	20
533.2019	13
579.20782	1000

NAME: Phillyrin
PRECURSORMZ: 533.20283544783
PRECURSORTYPE: [M-H]-
INSTRUMENTTYPE: LC-ESI-QTOF
SMILES: COC1=C(OC)C=C(C=C1)C1OCC2C1COC2C1=CC(OC)=C(OC2OC(CO)C(O)C(O)C2O)C=C1
INCHIKEY: KFFCKOBAHMGTMW-UHFFFAOYNA-N
Ontology: Lignan glycosides
COLLISIONENERGY: 30
FORMULA: C27H34O11
RETENTIONTIME: 5.128117
IONMODE: Negative
Comment: registered in RIKEN PlaSMA
Num Peaks: 7
135.04208	333
356.11172	261
356.13077	1000
356.14374	348
358.13892	290
371.14993	725
374.18646	290

NAME: Phillyrin
PRECURSORMZ: 579.20831475183
PRECURSORTYPE: [M+FA-H]-
INSTRUMENTTYPE: LC-ESI-QTOF
SMILES: COC1=C(OC)C=C(C=C1)C1OCC2C1COC2C1=CC(OC)=C(OC2OC(CO)C(O)C(O)C2O)C=C1
INCHIKEY: KFFCKOBAHMGTMW-UHFFFAOYNA-N
Ontology: Lignan glycosides
COLLISIONENERGY: 30
FORMULA: C27H34O11
RETENTIONTIME: 5.128117
IONMODE: Negative
Comment: registered in RIKEN PlaSMA
Num Peaks: 27
71.01482	8
85.03396	8
101.02329	39
137.05888	9
161.04686	9
162.02847	7
182.05725	10
191.97327	9
203.62794	7
234.05402	11
356.12152	136
356.13303	122
356.15677	13
357.12042	50
357.1377	15
358.11444	10
358.16443	8
371.15118	1000
371.18155	9
372.04498	12
372.15335	183
372.40982	8
372.72626	7
373.14859	9
373.15979	29
375.32764	8
376.27002	7

NAME: Phillyrin
PRECURSORMZ: 533.20283544783
PRECURSORTYPE: [M-H]-
INSTRUMENTTYPE: LC-ESI-QTOF
SMILES: COC1=C(OC)C=C(C=C1)C1OCC2C1COC2C1=CC(OC)=C(OC2OC(CO)C(O)C(O)C2O)C=C1
INCHIKEY: KFFCKOBAHMGTMW-UHFFFAOYNA-N
Ontology: Lignan glycosides
COLLISIONENERGY: 50
FORMULA: C27H34O11
RETENTIONTIME: 5.128117
IONMODE: Negative
Comment: registered in RIKEN PlaSMA
Num Peaks: 3
121.0314	1000
163.03572	238
177.06073	171

NAME: Phillyrin
PRECURSORMZ: 579.20831475183
PRECURSORTYPE: [M+FA-H]-
INSTRUMENTTYPE: LC-ESI-QTOF
SMILES: COC1=C(OC)C=C(C=C1)C1OCC2C1COC2C1=CC(OC)=C(OC2OC(CO)C(O)C(O)C2O)C=C1
INCHIKEY: KFFCKOBAHMGTMW-UHFFFAOYNA-N
Ontology: Lignan glycosides
COLLISIONENERGY: 50
FORMULA: C27H34O11
RETENTIONTIME: 5.128117
IONMODE: Negative
Comment: registered in RIKEN PlaSMA
Num Peaks: 27
53.74781	20
104.57061	18
107.01447	20
113.02457	23
121.02975	397
122.03101	18
122.03996	40
135.0405	68
151.04526	32
152.01813	23
161.01759	24
163.04358	26
164.05714	20
176.04185	23
239.06241	18
241.08081	18
255.07526	18
281.08313	25
297.0777	32
307.0817	20
311.09183	48
313.10495	18
324.08057	18
356.12473	1000
357.12393	107
357.14294	40
358.12543	24

NAME: Eleutheroside E
PRECURSORMZ: 741.26113814783
PRECURSORTYPE: [M-H]-
INSTRUMENTTYPE: LC-ESI-QTOF
SMILES: COC1=CC(=CC(OC)=C1OC1OC(CO)C(O)C(O)C1O)C1OCC2C1COC2C1=CC(OC)=C(OC2OC(CO)C(O)C(O)C2O)C(OC)=C1
INCHIKEY: FFDULTAFAQRACT-UHFFFAOYNA-N
Ontology: Lignan glycosides
COLLISIONENERGY: 10
FORMULA: C34H46O18
RETENTIONTIME: 3.614533
IONMODE: Negative
Comment: registered in RIKEN PlaSMA
Num Peaks: 26
166.03432	5
181.04855	120
181.06207	18
182.04895	7
208.72382	5
218.27959	6
262.30667	9
360.75055	6
370.32419	5
402.13394	31
403.12869	7
409.78137	5
417.15396	1000
417.18387	11
418.15414	169
418.168	61
419.15622	28
419.1731	16
562.76746	5
579.20789	563
580.21057	182
581.1701	5
581.20715	43
581.22272	36
693.19843	5
741.26044	44

NAME: Eleutheroside E
PRECURSORMZ: 787.26661745183
PRECURSORTYPE: [M+FA-H]-
INSTRUMENTTYPE: LC-ESI-QTOF
SMILES: COC1=CC(=CC(OC)=C1OC1OC(CO)C(O)C(O)C1O)C1OCC2C1COC2C1=CC(OC)=C(OC2OC(CO)C(O)C(O)C2O)C(OC)=C1
INCHIKEY: FFDULTAFAQRACT-UHFFFAOYNA-N
Ontology: Lignan glycosides
COLLISIONENERGY: 10
FORMULA: C34H46O18
RETENTIONTIME: 3.614533
IONMODE: Negative
Comment: registered in RIKEN PlaSMA
Num Peaks: 13
181.04947	63
402.12238	10
417.15463	1000
418.15826	190
419.15689	40
579.20856	613
580.21185	191
581.21375	36
581.25079	8
741.25946	129
742.26538	65
743.25238	5
787.26831	79

NAME: Eleutheroside E
PRECURSORMZ: 741.26113814783
PRECURSORTYPE: [M-H]-
INSTRUMENTTYPE: LC-ESI-QTOF
SMILES: COC1=CC(=CC(OC)=C1OC1OC(CO)C(O)C(O)C1O)C1OCC2C1COC2C1=CC(OC)=C(OC2OC(CO)C(O)C(O)C2O)C(OC)=C1
INCHIKEY: FFDULTAFAQRACT-UHFFFAOYNA-N
Ontology: Lignan glycosides
COLLISIONENERGY: 10
FORMULA: C34H46O18
RETENTIONTIME: 3.614533
IONMODE: Negative
Comment: registered in RIKEN PlaSMA
Num Peaks: 12
417.14771	20
417.16235	22
475.59103	7
579.20862	1000
580.20953	321
581.20715	49
581.22571	44
582.20282	8
582.22284	12
741.2406	41
741.26514	69
741.29773	6

NAME: Eleutheroside E
PRECURSORMZ: 787.26661745183
PRECURSORTYPE: [M+FA-H]-
INSTRUMENTTYPE: LC-ESI-QTOF
SMILES: COC1=CC(=CC(OC)=C1OC1OC(CO)C(O)C(O)C1O)C1OCC2C1COC2C1=CC(OC)=C(OC2OC(CO)C(O)C(O)C2O)C(OC)=C1
INCHIKEY: FFDULTAFAQRACT-UHFFFAOYNA-N
Ontology: Lignan glycosides
COLLISIONENERGY: 10
FORMULA: C34H46O18
RETENTIONTIME: 3.614533
IONMODE: Negative
Comment: registered in RIKEN PlaSMA
Num Peaks: 12
417.13733	7
417.15582	10
579.20831	1000
579.25519	5
580.21094	286
581.20422	30
581.22034	36
582.22144	8
741.26031	589
742.26642	257
743.26892	67
787.26562	484

NAME: Eleutheroside E
PRECURSORMZ: 741.26113814783
PRECURSORTYPE: [M-H]-
INSTRUMENTTYPE: LC-ESI-QTOF
SMILES: COC1=CC(=CC(OC)=C1OC1OC(CO)C(O)C(O)C1O)C1OCC2C1COC2C1=CC(OC)=C(OC2OC(CO)C(O)C(O)C2O)C(OC)=C1
INCHIKEY: FFDULTAFAQRACT-UHFFFAOYNA-N
Ontology: Lignan glycosides
COLLISIONENERGY: 30
FORMULA: C34H46O18
RETENTIONTIME: 3.614533
IONMODE: Negative
Comment: registered in RIKEN PlaSMA
Num Peaks: 9
177.34024	8
181.05186	55
371.15009	10
387.14111	7
403.13785	6
417.15518	1000
418.15872	249
419.15961	51
420.16965	7

NAME: Eleutheroside E
PRECURSORMZ: 787.26661745183
PRECURSORTYPE: [M+FA-H]-
INSTRUMENTTYPE: LC-ESI-QTOF
SMILES: COC1=CC(=CC(OC)=C1OC1OC(CO)C(O)C(O)C1O)C1OCC2C1COC2C1=CC(OC)=C(OC2OC(CO)C(O)C(O)C2O)C(OC)=C1
INCHIKEY: FFDULTAFAQRACT-UHFFFAOYNA-N
Ontology: Lignan glycosides
COLLISIONENERGY: 30
FORMULA: C34H46O18
RETENTIONTIME: 3.614533
IONMODE: Negative
Comment: registered in RIKEN PlaSMA
Num Peaks: 6
181.05193	8
417.15436	1000
418.15836	231
419.16125	39
420.16296	5
579.22058	11

NAME: Eleutheroside E
PRECURSORMZ: 741.26113814783
PRECURSORTYPE: [M-H]-
INSTRUMENTTYPE: LC-ESI-QTOF
SMILES: COC1=CC(=CC(OC)=C1OC1OC(CO)C(O)C(O)C1O)C1OCC2C1COC2C1=CC(OC)=C(OC2OC(CO)C(O)C(O)C2O)C(OC)=C1
INCHIKEY: FFDULTAFAQRACT-UHFFFAOYNA-N
Ontology: Lignan glycosides
COLLISIONENERGY: 50
FORMULA: C34H46O18
RETENTIONTIME: 3.614533
IONMODE: Negative
Comment: registered in RIKEN PlaSMA
Num Peaks: 34
95.01778	9
137.02097	6
150.02541	5
152.04671	30
153.0528	15
166.02756	204
167.03331	20
175.07866	13
177.02007	8
181.0509	1000
182.05266	100
190.06169	15
191.05864	7
205.08757	36
206.05858	11
207.07054	10
209.04935	5
219.06781	13
316.0965	7
357.12262	7
359.11801	9
387.10971	97
388.11316	21
389.11157	9
402.13025	85
402.15149	20
403.12195	8
403.14215	29
404.15298	5
417.15952	74
418.15305	14
418.17627	7
419.16223	6
455.8266	7

NAME: Eleutheroside E
PRECURSORMZ: 787.26661745183
PRECURSORTYPE: [M+FA-H]-
INSTRUMENTTYPE: LC-ESI-QTOF
SMILES: COC1=CC(=CC(OC)=C1OC1OC(CO)C(O)C(O)C1O)C1OCC2C1COC2C1=CC(OC)=C(OC2OC(CO)C(O)C(O)C2O)C(OC)=C1
INCHIKEY: FFDULTAFAQRACT-UHFFFAOYNA-N
Ontology: Lignan glycosides
COLLISIONENERGY: 50
FORMULA: C34H46O18
RETENTIONTIME: 3.614533
IONMODE: Negative
Comment: registered in RIKEN PlaSMA
Num Peaks: 24
152.0108	5
152.04604	10
166.02406	42
166.03146	46
167.03247	10
181.05016	1000
182.05499	96
183.05264	17
205.08313	15
205.0925	11
206.09036	7
236.06754	6
341.09909	5
371.15601	10
387.10913	76
388.11426	21
402.13129	158
403.13669	36
404.12708	6
417.15573	299
418.16028	83
419.15039	6
419.16696	12
420.16376	6

NAME: Eleutheroside E
PRECURSORMZ: 741.26113814783
PRECURSORTYPE: [M-H]-
INSTRUMENTTYPE: LC-ESI-QTOF
SMILES: COC1=CC(=CC(OC)=C1OC1OC(CO)C(O)C(O)C1O)C1OCC2C1COC2C1=CC(OC)=C(OC2OC(CO)C(O)C(O)C2O)C(OC)=C1
INCHIKEY: FFDULTAFAQRACT-UHFFFAOYNA-N
Ontology: Lignan glycosides
COLLISIONENERGY: 10
FORMULA: C34H46O18
RETENTIONTIME: 3.614533
IONMODE: Negative
Comment: registered in RIKEN PlaSMA
Num Peaks: 23
179.06848	7
180.0744	7
181.04991	170
182.04802	14
182.05577	19
341.10782	5
402.1405	24
403.13589	7
403.14868	7
414.75684	6
417.15466	1000
418.15472	235
418.17191	50
419.15411	46
420.1586	5
579.20612	678
579.25238	8
580.20844	190
581.21387	52
581.2403	6
582.20532	8
741.25458	63
741.27283	33

NAME: Eleutheroside E
PRECURSORMZ: 787.26661745183
PRECURSORTYPE: [M+FA-H]-
INSTRUMENTTYPE: LC-ESI-QTOF
SMILES: COC1=CC(=CC(OC)=C1OC1OC(CO)C(O)C(O)C1O)C1OCC2C1COC2C1=CC(OC)=C(OC2OC(CO)C(O)C(O)C2O)C(OC)=C1
INCHIKEY: FFDULTAFAQRACT-UHFFFAOYNA-N
Ontology: Lignan glycosides
COLLISIONENERGY: 10
FORMULA: C34H46O18
RETENTIONTIME: 3.614533
IONMODE: Negative
Comment: registered in RIKEN PlaSMA
Num Peaks: 17
161.0446	13
181.04944	54
402.13205	13
417.15485	1000
418.15897	228
419.16287	38
420.16339	8
579.20703	644
580.2113	196
581.21344	52
581.24988	5
582.21271	9
741.26245	179
742.2569	56
742.29315	7
743.27368	10
787.2666	109

NAME: Eleutheroside E
PRECURSORMZ: 741.26113814783
PRECURSORTYPE: [M-H]-
INSTRUMENTTYPE: LC-ESI-QTOF
SMILES: COC1=CC(=CC(OC)=C1OC1OC(CO)C(O)C(O)C1O)C1OCC2C1COC2C1=CC(OC)=C(OC2OC(CO)C(O)C(O)C2O)C(OC)=C1
INCHIKEY: FFDULTAFAQRACT-UHFFFAOYNA-N
Ontology: Lignan glycosides
COLLISIONENERGY: 10
FORMULA: C34H46O18
RETENTIONTIME: 3.614533
IONMODE: Negative
Comment: registered in RIKEN PlaSMA
Num Peaks: 10
417.1525	60
418.15393	8
579.20721	1000
579.26044	6
580.2088	354
581.21295	80
582.20789	9
582.22253	5
741.25568	68
741.28479	26

NAME: Eleutheroside E
PRECURSORMZ: 787.26661745183
PRECURSORTYPE: [M+FA-H]-
INSTRUMENTTYPE: LC-ESI-QTOF
SMILES: COC1=CC(=CC(OC)=C1OC1OC(CO)C(O)C(O)C1O)C1OCC2C1COC2C1=CC(OC)=C(OC2OC(CO)C(O)C(O)C2O)C(OC)=C1
INCHIKEY: FFDULTAFAQRACT-UHFFFAOYNA-N
Ontology: Lignan glycosides
COLLISIONENERGY: 10
FORMULA: C34H46O18
RETENTIONTIME: 3.614533
IONMODE: Negative
Comment: registered in RIKEN PlaSMA
Num Peaks: 11
417.15567	21
579.20612	1000
580.21161	267
581.21442	63
582.22192	10
741.2619	570
742.2627	233
743.25049	24
743.27686	26
744.2746	9
787.26526	439

NAME: Eleutheroside E
PRECURSORMZ: 741.26113814783
PRECURSORTYPE: [M-H]-
INSTRUMENTTYPE: LC-ESI-QTOF
SMILES: COC1=CC(=CC(OC)=C1OC1OC(CO)C(O)C(O)C1O)C1OCC2C1COC2C1=CC(OC)=C(OC2OC(CO)C(O)C(O)C2O)C(OC)=C1
INCHIKEY: FFDULTAFAQRACT-UHFFFAOYNA-N
Ontology: Lignan glycosides
COLLISIONENERGY: 30
FORMULA: C34H46O18
RETENTIONTIME: 3.614533
IONMODE: Negative
Comment: registered in RIKEN PlaSMA
Num Peaks: 7
181.04971	46
182.05173	7
417.15561	1000
418.15698	235
418.18927	5
419.15982	39
420.15817	7

NAME: Eleutheroside E
PRECURSORMZ: 787.26661745183
PRECURSORTYPE: [M+FA-H]-
INSTRUMENTTYPE: LC-ESI-QTOF
SMILES: COC1=CC(=CC(OC)=C1OC1OC(CO)C(O)C(O)C1O)C1OCC2C1COC2C1=CC(OC)=C(OC2OC(CO)C(O)C(O)C2O)C(OC)=C1
INCHIKEY: FFDULTAFAQRACT-UHFFFAOYNA-N
Ontology: Lignan glycosides
COLLISIONENERGY: 30
FORMULA: C34H46O18
RETENTIONTIME: 3.614533
IONMODE: Negative
Comment: registered in RIKEN PlaSMA
Num Peaks: 6
161.04677	9
181.05061	9
417.15582	1000
418.15939	235
419.16125	48
579.20581	12

NAME: Eleutheroside E
PRECURSORMZ: 741.26113814783
PRECURSORTYPE: [M-H]-
INSTRUMENTTYPE: LC-ESI-QTOF
SMILES: COC1=CC(=CC(OC)=C1OC1OC(CO)C(O)C(O)C1O)C1OCC2C1COC2C1=CC(OC)=C(OC2OC(CO)C(O)C(O)C2O)C(OC)=C1
INCHIKEY: FFDULTAFAQRACT-UHFFFAOYNA-N
Ontology: Lignan glycosides
COLLISIONENERGY: 50
FORMULA: C34H46O18
RETENTIONTIME: 3.614533
IONMODE: Negative
Comment: registered in RIKEN PlaSMA
Num Peaks: 31
146.39929	6
150.0359	9
151.00122	9
152.04753	23
161.05679	6
166.02652	244
166.0629	6
175.08003	6
177.01529	7
179.06952	11
180.03879	6
181.04964	1000
182.05107	92
183.05597	8
190.06274	23
192.04147	14
206.05261	9
236.0661	16
316.09787	6
387.10251	83
387.11517	51
388.09811	6
388.11334	15
402.12283	47
402.13528	108
403.12418	16
403.13815	24
417.15552	78
418.14844	6
418.16422	10
605.8241	7

NAME: Eleutheroside E
PRECURSORMZ: 787.26661745183
PRECURSORTYPE: [M+FA-H]-
INSTRUMENTTYPE: LC-ESI-QTOF
SMILES: COC1=CC(=CC(OC)=C1OC1OC(CO)C(O)C(O)C1O)C1OCC2C1COC2C1=CC(OC)=C(OC2OC(CO)C(O)C(O)C2O)C(OC)=C1
INCHIKEY: FFDULTAFAQRACT-UHFFFAOYNA-N
Ontology: Lignan glycosides
COLLISIONENERGY: 50
FORMULA: C34H46O18
RETENTIONTIME: 3.614533
IONMODE: Negative
Comment: registered in RIKEN PlaSMA
Num Peaks: 22
152.04648	12
166.02586	106
167.02808	11
167.03484	8
181.05	1000
182.05333	97
190.05789	6
203.07079	5
205.08795	37
207.06346	6
357.12897	5
387.10571	52
388.10858	12
402.13025	174
403.12009	5
403.13287	18
403.14777	17
404.13998	13
417.15378	242
418.15521	44
418.16614	16
419.16681	12

NAME: Eleutheroside E
PRECURSORMZ: 741.26113814783
PRECURSORTYPE: [M-H]-
INSTRUMENTTYPE: LC-ESI-QTOF
SMILES: COC1=CC(=CC(OC)=C1OC1OC(CO)C(O)C(O)C1O)C1OCC2C1COC2C1=CC(OC)=C(OC2OC(CO)C(O)C(O)C2O)C(OC)=C1
INCHIKEY: FFDULTAFAQRACT-UHFFFAOYNA-N
Ontology: Lignan glycosides
COLLISIONENERGY: 10
FORMULA: C34H46O18
RETENTIONTIME: 3.614533
IONMODE: Negative
Comment: registered in RIKEN PlaSMA
Num Peaks: 20
181.04915	163
182.0497	6
236.06931	6
387.11258	6
402.13437	26
402.15201	7
403.12955	8
417.15494	1000
418.15619	245
419.15497	9
419.16937	7
420.15332	10
579.20734	525
580.20868	138
580.23248	21
581.20294	48
581.22809	19
582.23029	8
741.22626	7
741.263	40

NAME: Eleutheroside E
PRECURSORMZ: 787.26661745183
PRECURSORTYPE: [M+FA-H]-
INSTRUMENTTYPE: LC-ESI-QTOF
SMILES: COC1=CC(=CC(OC)=C1OC1OC(CO)C(O)C(O)C1O)C1OCC2C1COC2C1=CC(OC)=C(OC2OC(CO)C(O)C(O)C2O)C(OC)=C1
INCHIKEY: FFDULTAFAQRACT-UHFFFAOYNA-N
Ontology: Lignan glycosides
COLLISIONENERGY: 10
FORMULA: C34H46O18
RETENTIONTIME: 3.614533
IONMODE: Negative
Comment: registered in RIKEN PlaSMA
Num Peaks: 18
161.04243	8
181.05042	68
402.12631	14
403.13492	6
417.15411	1000
418.15744	210
419.16708	34
420.16318	5
579.20776	667
580.20972	174
581.21252	31
581.23126	14
582.2132	6
741.25995	160
742.24902	35
742.26855	21
743.25323	9
787.26434	110

NAME: Eleutheroside E
PRECURSORMZ: 741.26113814783
PRECURSORTYPE: [M-H]-
INSTRUMENTTYPE: LC-ESI-QTOF
SMILES: COC1=CC(=CC(OC)=C1OC1OC(CO)C(O)C(O)C1O)C1OCC2C1COC2C1=CC(OC)=C(OC2OC(CO)C(O)C(O)C2O)C(OC)=C1
INCHIKEY: FFDULTAFAQRACT-UHFFFAOYNA-N
Ontology: Lignan glycosides
COLLISIONENERGY: 10
FORMULA: C34H46O18
RETENTIONTIME: 3.614533
IONMODE: Negative
Comment: registered in RIKEN PlaSMA
Num Peaks: 9
417.15488	54
417.19119	6
418.14493	6
579.20752	1000
580.21118	325
581.20715	60
582.20923	7
741.2572	97
741.27985	29

NAME: Eleutheroside E
PRECURSORMZ: 787.26661745183
PRECURSORTYPE: [M+FA-H]-
INSTRUMENTTYPE: LC-ESI-QTOF
SMILES: COC1=CC(=CC(OC)=C1OC1OC(CO)C(O)C(O)C1O)C1OCC2C1COC2C1=CC(OC)=C(OC2OC(CO)C(O)C(O)C2O)C(OC)=C1
INCHIKEY: FFDULTAFAQRACT-UHFFFAOYNA-N
Ontology: Lignan glycosides
COLLISIONENERGY: 10
FORMULA: C34H46O18
RETENTIONTIME: 3.614533
IONMODE: Negative
Comment: registered in RIKEN PlaSMA
Num Peaks: 9
417.15997	11
579.20795	1000
580.21356	288
581.21826	79
582.20526	10
741.26331	574
742.26483	244
743.26318	65
787.26862	433

NAME: Eleutheroside E
PRECURSORMZ: 741.26113814783
PRECURSORTYPE: [M-H]-
INSTRUMENTTYPE: LC-ESI-QTOF
SMILES: COC1=CC(=CC(OC)=C1OC1OC(CO)C(O)C(O)C1O)C1OCC2C1COC2C1=CC(OC)=C(OC2OC(CO)C(O)C(O)C2O)C(OC)=C1
INCHIKEY: FFDULTAFAQRACT-UHFFFAOYNA-N
Ontology: Lignan glycosides
COLLISIONENERGY: 30
FORMULA: C34H46O18
RETENTIONTIME: 3.614533
IONMODE: Negative
Comment: registered in RIKEN PlaSMA
Num Peaks: 9
161.03969	7
181.05046	52
182.05362	8
402.12619	5
417.15515	1000
417.19702	8
418.16043	246
419.16266	62
420.16116	13

NAME: Eleutheroside E
PRECURSORMZ: 787.26661745183
PRECURSORTYPE: [M+FA-H]-
INSTRUMENTTYPE: LC-ESI-QTOF
SMILES: COC1=CC(=CC(OC)=C1OC1OC(CO)C(O)C(O)C1O)C1OCC2C1COC2C1=CC(OC)=C(OC2OC(CO)C(O)C(O)C2O)C(OC)=C1
INCHIKEY: FFDULTAFAQRACT-UHFFFAOYNA-N
Ontology: Lignan glycosides
COLLISIONENERGY: 30
FORMULA: C34H46O18
RETENTIONTIME: 3.614533
IONMODE: Negative
Comment: registered in RIKEN PlaSMA
Num Peaks: 8
161.04318	5
181.04858	7
417.15411	1000
418.15854	236
419.16193	38
420.16241	8
579.19806	8
579.21594	11

NAME: Eleutheroside E
PRECURSORMZ: 741.26113814783
PRECURSORTYPE: [M-H]-
INSTRUMENTTYPE: LC-ESI-QTOF
SMILES: COC1=CC(=CC(OC)=C1OC1OC(CO)C(O)C(O)C1O)C1OCC2C1COC2C1=CC(OC)=C(OC2OC(CO)C(O)C(O)C2O)C(OC)=C1
INCHIKEY: FFDULTAFAQRACT-UHFFFAOYNA-N
Ontology: Lignan glycosides
COLLISIONENERGY: 50
FORMULA: C34H46O18
RETENTIONTIME: 3.614533
IONMODE: Negative
Comment: registered in RIKEN PlaSMA
Num Peaks: 28
71.01407	5
85.02712	6
137.02725	7
152.0443	21
152.05179	6
159.04626	9
166.02634	209
167.03099	17
181.04964	1000
182.05283	98
183.05797	12
190.06752	14
192.04414	7
205.08743	14
207.02408	5
219.06831	7
236.06549	13
325.1062	5
387.1066	116
387.13257	6
388.11484	39
389.09726	6
390.11649	6
402.12714	127
403.13397	28
404.13623	22
417.15549	51
418.15582	17

NAME: Eleutheroside E
PRECURSORMZ: 787.26661745183
PRECURSORTYPE: [M+FA-H]-
INSTRUMENTTYPE: LC-ESI-QTOF
SMILES: COC1=CC(=CC(OC)=C1OC1OC(CO)C(O)C(O)C1O)C1OCC2C1COC2C1=CC(OC)=C(OC2OC(CO)C(O)C(O)C2O)C(OC)=C1
INCHIKEY: FFDULTAFAQRACT-UHFFFAOYNA-N
Ontology: Lignan glycosides
COLLISIONENERGY: 50
FORMULA: C34H46O18
RETENTIONTIME: 3.614533
IONMODE: Negative
Comment: registered in RIKEN PlaSMA
Num Peaks: 29
85.02582	7
166.02626	92
167.03168	17
167.0386	6
181.04996	1000
182.05415	117
183.04773	5
183.05727	9
190.06268	17
205.08315	18
205.09895	7
206.08827	7
207.06592	6
208.06943	8
210.04697	5
356.12622	11
371.14069	14
387.10272	47
387.11819	35
388.09686	5
388.11066	9
402.12759	170
402.13928	58
403.1272	32
403.13757	13
404.14359	9
417.15448	327
418.15778	71
419.15421	17

NAME: Luteolinidin
PRECURSORMZ: 269.04554694783
PRECURSORTYPE: [M-H]-
INSTRUMENTTYPE: LC-ESI-QTOF
SMILES: OC1=CC(O)=C2C=CC(=[O+]C2=C1)C1=CC([O-])=C(O)C=C1
INCHIKEY: GDNIGMNXEKGFIP-UHFFFAOYSA-N
Ontology: 7-hydroxyflavonoids
COLLISIONENERGY: 10
FORMULA: C15H10O5
RETENTIONTIME: 3.586583
IONMODE: Negative
Comment: registered in RIKEN PlaSMA
Num Peaks: 32
105.03056	11
109.02962	13
130.03325	13
133.03053	33
134.02583	14
146.0321	13
155.04863	11
157.02399	12
159.04919	12
167.05057	11
169.03407	15
169.06355	13
171.06676	12
179.05394	16
182.03874	34
184.04857	12
185.05592	11
186.05232	12
195.03929	16
196.04689	12
197.05321	12
201.04507	11
201.06606	12
208.05072	11
213.05643	12
224.05624	12
225.05382	11
227.03264	11
228.03595	12
241.04921	11
259.05612	11
269.04446	1000

NAME: p-Coumaraldehyde
PRECURSORMZ: 147.04515304783
PRECURSORTYPE: [M-H]-
INSTRUMENTTYPE: LC-ESI-QTOF
SMILES: OC1=CC=C(C=CC=O)C=C1
INCHIKEY: CJXMVKYNVIGQBS-UHFFFAOYSA-N
Ontology: Cinnamaldehydes
COLLISIONENERGY: 10
FORMULA: C9H8O2
RETENTIONTIME: 4.522483
IONMODE: Negative
Comment: registered in RIKEN PlaSMA
Num Peaks: 2
119.04928	19
147.0434	1000

NAME: Luteolinidin
PRECURSORMZ: 269.04554694783
PRECURSORTYPE: [M-H]-
INSTRUMENTTYPE: LC-ESI-QTOF
SMILES: OC1=CC(O)=C2C=CC(=[O+]C2=C1)C1=CC([O-])=C(O)C=C1
INCHIKEY: GDNIGMNXEKGFIP-UHFFFAOYSA-N
Ontology: 7-hydroxyflavonoids
COLLISIONENERGY: 30
FORMULA: C15H10O5
RETENTIONTIME: 3.586583
IONMODE: Negative
Comment: registered in RIKEN PlaSMA
Num Peaks: 44
95.01466	74
127.0545	99
130.04338	79
131.58441	74
132.01775	95
133.02972	1000
144.04863	83
154.04715	87
154.24242	116
155.05215	343
156.05634	95
157.0228	107
159.04131	174
159.04947	248
169.03006	124
169.06187	161
171.04649	165
171.07619	87
173.05882	83
174.03725	99
178.0519	74
179.04347	79
180.0542	74
182.03372	99
182.04221	174
183.03482	87
183.05327	157
186.5529	74
196.06578	74
199.04317	165
200.0484	186
207.03369	112
208.05128	252
211.03209	83
211.05103	112
213.06143	74
224.04912	236
224.05595	87
225.04733	74
226.01851	79
226.05569	79
237.02303	95
241.05342	74
269.03284	74

NAME: p-Coumaraldehyde
PRECURSORMZ: 147.04515304783
PRECURSORTYPE: [M-H]-
INSTRUMENTTYPE: LC-ESI-QTOF
SMILES: OC1=CC=C(C=CC=O)C=C1
INCHIKEY: CJXMVKYNVIGQBS-UHFFFAOYSA-N
Ontology: Cinnamaldehydes
COLLISIONENERGY: 30
FORMULA: C9H8O2
RETENTIONTIME: 4.522483
IONMODE: Negative
Comment: registered in RIKEN PlaSMA
Num Peaks: 7
93.03015	474
103.01916	189
117.03329	1000
119.04724	926
129.0318	295
129.03975	411
147.04755	200

NAME: Luteolinidin
PRECURSORMZ: 269.04554694783
PRECURSORTYPE: [M-H]-
INSTRUMENTTYPE: LC-ESI-QTOF
SMILES: OC1=CC(O)=C2C=CC(=[O+]C2=C1)C1=CC([O-])=C(O)C=C1
INCHIKEY: GDNIGMNXEKGFIP-UHFFFAOYSA-N
Ontology: 7-hydroxyflavonoids
COLLISIONENERGY: 50
FORMULA: C15H10O5
RETENTIONTIME: 3.586583
IONMODE: Negative
Comment: registered in RIKEN PlaSMA
Num Peaks: 3
109.02676	254
133.02847	1000
182.03893	620

NAME: p-Coumaraldehyde
PRECURSORMZ: 147.04515304783
PRECURSORTYPE: [M-H]-
INSTRUMENTTYPE: LC-ESI-QTOF
SMILES: OC1=CC=C(C=CC=O)C=C1
INCHIKEY: CJXMVKYNVIGQBS-UHFFFAOYSA-N
Ontology: Cinnamaldehydes
COLLISIONENERGY: 50
FORMULA: C9H8O2
RETENTIONTIME: 4.522483
IONMODE: Negative
Comment: registered in RIKEN PlaSMA
Num Peaks: 2
93.03405	704
147.04185	1000

NAME: Luteolinidin
PRECURSORMZ: 269.04554694783
PRECURSORTYPE: [M-H]-
INSTRUMENTTYPE: LC-ESI-QTOF
SMILES: OC1=CC(O)=C2C=CC(=[O+]C2=C1)C1=CC([O-])=C(O)C=C1
INCHIKEY: GDNIGMNXEKGFIP-UHFFFAOYSA-N
Ontology: 7-hydroxyflavonoids
COLLISIONENERGY: 10
FORMULA: C15H10O5
RETENTIONTIME: 3.586583
IONMODE: Negative
Comment: registered in RIKEN PlaSMA
Num Peaks: 38
91.00034	13
130.04041	12
133.0285	12
155.04922	24
158.04242	11
160.01585	11
161.02428	11
167.04866	11
169.02159	20
169.05823	10
170.04176	11
171.04721	12
173.05605	11
180.05107	10
180.06213	10
182.03304	23
183.03166	10
183.04062	12
184.0585	10
185.04486	12
185.06029	10
185.06883	18
187.03528	22
195.04378	13
196.0537	13
197.05875	52
199.02597	21
200.04585	15
201.04593	10
209.04623	11
211.04037	10
211.0547	16
212.04729	10
213.05754	12
226.02428	36
227.03281	12
241.05022	10
269.04495	1000

NAME: p-Coumaraldehyde
PRECURSORMZ: 147.04515304783
PRECURSORTYPE: [M-H]-
INSTRUMENTTYPE: LC-ESI-QTOF
SMILES: OC1=CC=C(C=CC=O)C=C1
INCHIKEY: CJXMVKYNVIGQBS-UHFFFAOYSA-N
Ontology: Cinnamaldehydes
COLLISIONENERGY: 10
FORMULA: C9H8O2
RETENTIONTIME: 4.522483
IONMODE: Negative
Comment: registered in RIKEN PlaSMA
Num Peaks: 6
117.03487	6
118.04369	5
119.05174	9
129.03532	11
146.03343	6
147.04367	1000

NAME: p-Coumaraldehyde
PRECURSORMZ: 147.04515304783
PRECURSORTYPE: [M-H]-
INSTRUMENTTYPE: LC-ESI-QTOF
SMILES: OC1=CC=C(C=CC=O)C=C1
INCHIKEY: CJXMVKYNVIGQBS-UHFFFAOYSA-N
Ontology: Cinnamaldehydes
COLLISIONENERGY: 10
FORMULA: C9H8O2
RETENTIONTIME: 4.522483
IONMODE: Negative
Comment: registered in RIKEN PlaSMA
Num Peaks: 2
119.05216	7
147.04372	1000

NAME: Luteolinidin
PRECURSORMZ: 269.04554694783
PRECURSORTYPE: [M-H]-
INSTRUMENTTYPE: LC-ESI-QTOF
SMILES: OC1=CC(O)=C2C=CC(=[O+]C2=C1)C1=CC([O-])=C(O)C=C1
INCHIKEY: GDNIGMNXEKGFIP-UHFFFAOYSA-N
Ontology: 7-hydroxyflavonoids
COLLISIONENERGY: 30
FORMULA: C15H10O5
RETENTIONTIME: 3.586583
IONMODE: Negative
Comment: registered in RIKEN PlaSMA
Num Peaks: 43
91.01561	100
109.02623	132
115.05299	100
129.03316	91
129.06898	173
131.04295	127
133.01782	68
133.02747	1000
145.05792	82
145.06796	132
151.05295	82
153.06853	82
154.03641	127
155.04866	91
156.02299	91
158.03897	195
159.04298	341
160.01668	91
171.04456	191
180.05925	86
182.03258	441
182.04344	91
183.03981	100
183.04895	95
184.05193	191
185.05885	205
186.03804	91
196.0513	355
197.01709	118
198.02785	377
199.03209	100
199.04286	82
201.04932	259
208.05653	82
213.05847	100
224.0488	195
225.05235	173
225.06749	95
226.0257	241
226.03761	91
241.05368	82
250.03497	86
269.0408	109

NAME: p-Coumaraldehyde
PRECURSORMZ: 147.04515304783
PRECURSORTYPE: [M-H]-
INSTRUMENTTYPE: LC-ESI-QTOF
SMILES: OC1=CC=C(C=CC=O)C=C1
INCHIKEY: CJXMVKYNVIGQBS-UHFFFAOYSA-N
Ontology: Cinnamaldehydes
COLLISIONENERGY: 30
FORMULA: C9H8O2
RETENTIONTIME: 4.522483
IONMODE: Negative
Comment: registered in RIKEN PlaSMA
Num Peaks: 7
93.03228	579
101.03441	539
117.02856	553
117.03558	1000
119.04218	355
121.03065	237
131.03568	276

NAME: Luteolinidin
PRECURSORMZ: 269.04554694783
PRECURSORTYPE: [M-H]-
INSTRUMENTTYPE: LC-ESI-QTOF
SMILES: OC1=CC(O)=C2C=CC(=[O+]C2=C1)C1=CC([O-])=C(O)C=C1
INCHIKEY: GDNIGMNXEKGFIP-UHFFFAOYSA-N
Ontology: 7-hydroxyflavonoids
COLLISIONENERGY: 50
FORMULA: C15H10O5
RETENTIONTIME: 3.586583
IONMODE: Negative
Comment: registered in RIKEN PlaSMA
Num Peaks: 7
108.02422	323
109.03059	1000
131.00945	277
133.02519	677
171.04832	292
185.02974	308
224.00838	323

NAME: p-Coumaraldehyde
PRECURSORMZ: 147.04515304783
PRECURSORTYPE: [M-H]-
INSTRUMENTTYPE: LC-ESI-QTOF
SMILES: OC1=CC=C(C=CC=O)C=C1
INCHIKEY: CJXMVKYNVIGQBS-UHFFFAOYSA-N
Ontology: Cinnamaldehydes
COLLISIONENERGY: 50
FORMULA: C9H8O2
RETENTIONTIME: 4.522483
IONMODE: Negative
Comment: registered in RIKEN PlaSMA
Num Peaks: 3
104.02056	295
117.03224	377
117.03921	1000

NAME: Luteolinidin
PRECURSORMZ: 269.04554694783
PRECURSORTYPE: [M-H]-
INSTRUMENTTYPE: LC-ESI-QTOF
SMILES: OC1=CC(O)=C2C=CC(=[O+]C2=C1)C1=CC([O-])=C(O)C=C1
INCHIKEY: GDNIGMNXEKGFIP-UHFFFAOYSA-N
Ontology: 7-hydroxyflavonoids
COLLISIONENERGY: 10
FORMULA: C15H10O5
RETENTIONTIME: 3.586583
IONMODE: Negative
Comment: registered in RIKEN PlaSMA
Num Peaks: 33
126.04969	15
132.02046	12
133.02507	33
143.05327	10
145.02348	11
154.03654	13
158.03844	20
159.04877	9
160.01042	9
160.04799	9
167.04408	11
170.03452	19
171.04794	20
172.05183	11
182.03491	51
183.04144	9
184.04201	9
185.06454	9
187.0434	11
196.04649	10
196.06351	9
197.02411	11
199.04073	10
201.05383	42
208.04813	22
214.0621	14
224.04309	10
225.03731	9
226.03947	9
226.05852	10
229.0327	11
241.03847	9
269.04358	1000

NAME: p-Coumaraldehyde
PRECURSORMZ: 147.04515304783
PRECURSORTYPE: [M-H]-
INSTRUMENTTYPE: LC-ESI-QTOF
SMILES: OC1=CC=C(C=CC=O)C=C1
INCHIKEY: CJXMVKYNVIGQBS-UHFFFAOYSA-N
Ontology: Cinnamaldehydes
COLLISIONENERGY: 10
FORMULA: C9H8O2
RETENTIONTIME: 4.522483
IONMODE: Negative
Comment: registered in RIKEN PlaSMA
Num Peaks: 3
119.04827	19
129.03336	10
147.04382	1000

NAME: p-Coumaraldehyde
PRECURSORMZ: 147.04515304783
PRECURSORTYPE: [M-H]-
INSTRUMENTTYPE: LC-ESI-QTOF
SMILES: OC1=CC=C(C=CC=O)C=C1
INCHIKEY: CJXMVKYNVIGQBS-UHFFFAOYSA-N
Ontology: Cinnamaldehydes
COLLISIONENERGY: 10
FORMULA: C9H8O2
RETENTIONTIME: 4.522483
IONMODE: Negative
Comment: registered in RIKEN PlaSMA
Num Peaks: 2
119.04667	10
147.04324	1000

NAME: Luteolinidin
PRECURSORMZ: 269.04554694783
PRECURSORTYPE: [M-H]-
INSTRUMENTTYPE: LC-ESI-QTOF
SMILES: OC1=CC(O)=C2C=CC(=[O+]C2=C1)C1=CC([O-])=C(O)C=C1
INCHIKEY: GDNIGMNXEKGFIP-UHFFFAOYSA-N
Ontology: 7-hydroxyflavonoids
COLLISIONENERGY: 30
FORMULA: C15H10O5
RETENTIONTIME: 3.586583
IONMODE: Negative
Comment: registered in RIKEN PlaSMA
Num Peaks: 60
79.65084	55
89.04017	70
105.03465	58
105.0394	70
108.0227	55
127.05314	76
133.02788	1000
142.04562	92
154.03383	58
157.07301	76
159.04276	183
160.04646	61
167.04773	125
167.16507	55
169.05745	52
169.0647	58
171.03902	61
172.05257	131
173.05019	61
173.06189	61
174.0632	58
175.03728	58
179.04364	64
180.0529	55
180.06203	61
182.0296	122
182.03876	413
183.02866	80
183.03838	61
183.04958	61
183.10803	80
184.05528	61
185.05594	141
185.06496	83
187.03648	76
195.04114	159
196.05696	125
197.01906	138
197.03415	104
197.04878	64
197.06181	190
197.82881	61
198.03325	183
199.03712	55
201.0562	330
206.02774	58
206.03682	55
208.05716	73
211.03857	67
212.05367	64
224.03989	61
226.0152	92
226.02341	199
226.03583	61
227.02682	61
238.0262	70
239.03519	55
242.02206	58
268.03201	64
269.04541	309

NAME: p-Coumaraldehyde
PRECURSORMZ: 147.04515304783
PRECURSORTYPE: [M-H]-
INSTRUMENTTYPE: LC-ESI-QTOF
SMILES: OC1=CC=C(C=CC=O)C=C1
INCHIKEY: CJXMVKYNVIGQBS-UHFFFAOYSA-N
Ontology: Cinnamaldehydes
COLLISIONENERGY: 30
FORMULA: C9H8O2
RETENTIONTIME: 4.522483
IONMODE: Negative
Comment: registered in RIKEN PlaSMA
Num Peaks: 8
93.02841	188
103.01396	229
104.02219	198
117.03369	1000
117.04166	208
129.02742	573
129.03625	604
145.03223	312

NAME: Luteolinidin
PRECURSORMZ: 269.04554694783
PRECURSORTYPE: [M-H]-
INSTRUMENTTYPE: LC-ESI-QTOF
SMILES: OC1=CC(O)=C2C=CC(=[O+]C2=C1)C1=CC([O-])=C(O)C=C1
INCHIKEY: GDNIGMNXEKGFIP-UHFFFAOYSA-N
Ontology: 7-hydroxyflavonoids
COLLISIONENERGY: 50
FORMULA: C15H10O5
RETENTIONTIME: 3.586583
IONMODE: Negative
Comment: registered in RIKEN PlaSMA
Num Peaks: 15
108.02068	229
116.01399	219
133.02695	1000
139.05298	208
143.05396	354
169.02559	188
172.04825	188
177.74269	208
178.05296	208
182.02875	208
183.04156	208
193.02878	198
195.0416	208
208.03984	229
211.0359	208

NAME: p-Coumaraldehyde
PRECURSORMZ: 147.04515304783
PRECURSORTYPE: [M-H]-
INSTRUMENTTYPE: LC-ESI-QTOF
SMILES: OC1=CC=C(C=CC=O)C=C1
INCHIKEY: CJXMVKYNVIGQBS-UHFFFAOYSA-N
Ontology: Cinnamaldehydes
COLLISIONENERGY: 50
FORMULA: C9H8O2
RETENTIONTIME: 4.522483
IONMODE: Negative
Comment: registered in RIKEN PlaSMA
Num Peaks: 1
117.03323	1000

NAME: p-Coumaryl alcohol
PRECURSORMZ: 149.06080314783
PRECURSORTYPE: [M-H]-
INSTRUMENTTYPE: LC-ESI-QTOF
SMILES: OCC=CC1=CC=C(O)C=C1
INCHIKEY: PTNLHDGQWUGONS-UHFFFAOYSA-N
Ontology: Cinnamyl alcohols
COLLISIONENERGY: 10
FORMULA: C9H10O2
RETENTIONTIME: 3.75965
IONMODE: Negative
Comment: registered in RIKEN PlaSMA
Num Peaks: 6
103.05254	106
130.03946	330
131.04709	1000
132.05661	96
149.05351	112
149.06421	96

NAME: Indole-3-acetyl-L-valine
PRECURSORMZ: 273.12446594783
PRECURSORTYPE: [M-H]-
INSTRUMENTTYPE: LC-ESI-QTOF
SMILES: CC(C)C(N=C(O)CC1=CNC2=CC=CC=C12)C(O)=O
INCHIKEY: AZEGJHGXTSUPPG-UHFFFAOYNA-N
Ontology: Valine and derivatives
COLLISIONENERGY: 10
FORMULA: C15H18N2O3
RETENTIONTIME: 5.59285
IONMODE: Negative
Comment: registered in RIKEN PlaSMA
Num Peaks: 6
116.06995	1000
117.07394	54
128.05113	22
156.04074	19
156.04906	14
273.12323	488

NAME: Indole-3-acetyl-L-valine
PRECURSORMZ: 273.12446594783
PRECURSORTYPE: [M-H]-
INSTRUMENTTYPE: LC-ESI-QTOF
SMILES: CC(C)C(N=C(O)CC1=CNC2=CC=CC=C12)C(O)=O
INCHIKEY: AZEGJHGXTSUPPG-UHFFFAOYNA-N
Ontology: Valine and derivatives
COLLISIONENERGY: 10
FORMULA: C15H18N2O3
RETENTIONTIME: 5.59285
IONMODE: Negative
Comment: registered in RIKEN PlaSMA
Num Peaks: 5
116.07033	348
117.07543	18
156.04402	18
229.13472	5
273.12372	1000

NAME: p-Coumaryl alcohol
PRECURSORMZ: 149.06080314783
PRECURSORTYPE: [M-H]-
INSTRUMENTTYPE: LC-ESI-QTOF
SMILES: OCC=CC1=CC=C(O)C=C1
INCHIKEY: PTNLHDGQWUGONS-UHFFFAOYSA-N
Ontology: Cinnamyl alcohols
COLLISIONENERGY: 30
FORMULA: C9H10O2
RETENTIONTIME: 3.75965
IONMODE: Negative
Comment: registered in RIKEN PlaSMA
Num Peaks: 3
102.04482	524
103.05334	500
130.03838	1000

NAME: Indole-3-acetyl-L-valine
PRECURSORMZ: 273.12446594783
PRECURSORTYPE: [M-H]-
INSTRUMENTTYPE: LC-ESI-QTOF
SMILES: CC(C)C(N=C(O)CC1=CNC2=CC=CC=C12)C(O)=O
INCHIKEY: AZEGJHGXTSUPPG-UHFFFAOYNA-N
Ontology: Valine and derivatives
COLLISIONENERGY: 30
FORMULA: C15H18N2O3
RETENTIONTIME: 5.59285
IONMODE: Negative
Comment: registered in RIKEN PlaSMA
Num Peaks: 6
116.06992	1000
117.07279	29
118.07397	17
128.05008	38
129.04977	6
130.06494	12

NAME: p-Coumaryl alcohol
PRECURSORMZ: 149.06080314783
PRECURSORTYPE: [M-H]-
INSTRUMENTTYPE: LC-ESI-QTOF
SMILES: OCC=CC1=CC=C(O)C=C1
INCHIKEY: PTNLHDGQWUGONS-UHFFFAOYSA-N
Ontology: Cinnamyl alcohols
COLLISIONENERGY: 50
FORMULA: C9H10O2
RETENTIONTIME: 3.75965
IONMODE: Negative
Comment: registered in RIKEN PlaSMA
Num Peaks: 1
92.0121	1000

NAME: Indole-3-acetyl-L-valine
PRECURSORMZ: 273.12446594783
PRECURSORTYPE: [M-H]-
INSTRUMENTTYPE: LC-ESI-QTOF
SMILES: CC(C)C(N=C(O)CC1=CNC2=CC=CC=C12)C(O)=O
INCHIKEY: AZEGJHGXTSUPPG-UHFFFAOYNA-N
Ontology: Valine and derivatives
COLLISIONENERGY: 50
FORMULA: C15H18N2O3
RETENTIONTIME: 5.59285
IONMODE: Negative
Comment: registered in RIKEN PlaSMA
Num Peaks: 6
116.04881	134
116.07246	1000
128.04776	82
156.04422	75
273.11453	75
273.1279	71

NAME: p-Coumaryl alcohol
PRECURSORMZ: 149.06080314783
PRECURSORTYPE: [M-H]-
INSTRUMENTTYPE: LC-ESI-QTOF
SMILES: OCC=CC1=CC=C(O)C=C1
INCHIKEY: PTNLHDGQWUGONS-UHFFFAOYSA-N
Ontology: Cinnamyl alcohols
COLLISIONENERGY: 10
FORMULA: C9H10O2
RETENTIONTIME: 3.75965
IONMODE: Negative
Comment: registered in RIKEN PlaSMA
Num Peaks: 5
103.06746	80
130.03679	72
131.04802	1000
132.05219	72
149.06006	416

NAME: Indole-3-acetyl-L-valine
PRECURSORMZ: 273.12446594783
PRECURSORTYPE: [M-H]-
INSTRUMENTTYPE: LC-ESI-QTOF
SMILES: CC(C)C(N=C(O)CC1=CNC2=CC=CC=C12)C(O)=O
INCHIKEY: AZEGJHGXTSUPPG-UHFFFAOYNA-N
Ontology: Valine and derivatives
COLLISIONENERGY: 10
FORMULA: C15H18N2O3
RETENTIONTIME: 5.59285
IONMODE: Negative
Comment: registered in RIKEN PlaSMA
Num Peaks: 6
116.0704	1000
117.07278	50
128.04828	11
156.04378	27
157.04836	7
273.12393	450

NAME: Indole-3-acetyl-L-valine
PRECURSORMZ: 273.12446594783
PRECURSORTYPE: [M-H]-
INSTRUMENTTYPE: LC-ESI-QTOF
SMILES: CC(C)C(N=C(O)CC1=CNC2=CC=CC=C12)C(O)=O
INCHIKEY: AZEGJHGXTSUPPG-UHFFFAOYNA-N
Ontology: Valine and derivatives
COLLISIONENERGY: 10
FORMULA: C15H18N2O3
RETENTIONTIME: 5.59285
IONMODE: Negative
Comment: registered in RIKEN PlaSMA
Num Peaks: 4
116.07017	390
117.0738	12
156.04353	18
273.12262	1000

NAME: p-Coumaryl alcohol
PRECURSORMZ: 149.06080314783
PRECURSORTYPE: [M-H]-
INSTRUMENTTYPE: LC-ESI-QTOF
SMILES: OCC=CC1=CC=C(O)C=C1
INCHIKEY: PTNLHDGQWUGONS-UHFFFAOYSA-N
Ontology: Cinnamyl alcohols
COLLISIONENERGY: 30
FORMULA: C9H10O2
RETENTIONTIME: 3.75965
IONMODE: Negative
Comment: registered in RIKEN PlaSMA
Num Peaks: 2
102.05116	1000
128.67863	1000

NAME: Indole-3-acetyl-L-valine
PRECURSORMZ: 273.12446594783
PRECURSORTYPE: [M-H]-
INSTRUMENTTYPE: LC-ESI-QTOF
SMILES: CC(C)C(N=C(O)CC1=CNC2=CC=CC=C12)C(O)=O
INCHIKEY: AZEGJHGXTSUPPG-UHFFFAOYNA-N
Ontology: Valine and derivatives
COLLISIONENERGY: 30
FORMULA: C15H18N2O3
RETENTIONTIME: 5.59285
IONMODE: Negative
Comment: registered in RIKEN PlaSMA
Num Peaks: 4
116.07019	1000
117.07341	57
118.07339	5
128.04927	30

NAME: p-Coumaryl alcohol
PRECURSORMZ: 149.06080314783
PRECURSORTYPE: [M-H]-
INSTRUMENTTYPE: LC-ESI-QTOF
SMILES: OCC=CC1=CC=C(O)C=C1
INCHIKEY: PTNLHDGQWUGONS-UHFFFAOYSA-N
Ontology: Cinnamyl alcohols
COLLISIONENERGY: 50
FORMULA: C9H10O2
RETENTIONTIME: 3.75965
IONMODE: Negative
Comment: registered in RIKEN PlaSMA
Num Peaks: 1
137.01074	1000

NAME: Indole-3-acetyl-L-valine
PRECURSORMZ: 273.12446594783
PRECURSORTYPE: [M-H]-
INSTRUMENTTYPE: LC-ESI-QTOF
SMILES: CC(C)C(N=C(O)CC1=CNC2=CC=CC=C12)C(O)=O
INCHIKEY: AZEGJHGXTSUPPG-UHFFFAOYNA-N
Ontology: Valine and derivatives
COLLISIONENERGY: 50
FORMULA: C15H18N2O3
RETENTIONTIME: 5.59285
IONMODE: Negative
Comment: registered in RIKEN PlaSMA
Num Peaks: 4
116.06423	373
116.07073	1000
220.97272	65
273.11737	72

NAME: p-Coumaryl alcohol
PRECURSORMZ: 149.06080314783
PRECURSORTYPE: [M-H]-
INSTRUMENTTYPE: LC-ESI-QTOF
SMILES: OCC=CC1=CC=C(O)C=C1
INCHIKEY: PTNLHDGQWUGONS-UHFFFAOYSA-N
Ontology: Cinnamyl alcohols
COLLISIONENERGY: 10
FORMULA: C9H10O2
RETENTIONTIME: 3.75965
IONMODE: Negative
Comment: registered in RIKEN PlaSMA
Num Peaks: 7
103.05078	169
129.03815	78
130.0407	78
131.04965	1000
132.04863	74
149.05632	132
149.06287	243

NAME: Indole-3-acetyl-L-valine
PRECURSORMZ: 273.12446594783
PRECURSORTYPE: [M-H]-
INSTRUMENTTYPE: LC-ESI-QTOF
SMILES: CC(C)C(N=C(O)CC1=CNC2=CC=CC=C12)C(O)=O
INCHIKEY: AZEGJHGXTSUPPG-UHFFFAOYNA-N
Ontology: Valine and derivatives
COLLISIONENERGY: 10
FORMULA: C15H18N2O3
RETENTIONTIME: 5.59285
IONMODE: Negative
Comment: registered in RIKEN PlaSMA
Num Peaks: 7
116.07078	1000
117.07327	50
128.04677	9
156.0435	19
156.0524	8
157.05038	5
273.12366	446

NAME: p-Coumaryl alcohol
PRECURSORMZ: 149.06080314783
PRECURSORTYPE: [M-H]-
INSTRUMENTTYPE: LC-ESI-QTOF
SMILES: OCC=CC1=CC=C(O)C=C1
INCHIKEY: PTNLHDGQWUGONS-UHFFFAOYSA-N
Ontology: Cinnamyl alcohols
COLLISIONENERGY: 10
FORMULA: C9H10O2
RETENTIONTIME: 3.75965
IONMODE: Negative
Comment: registered in RIKEN PlaSMA
Num Peaks: 5
103.05186	54
130.04213	136
131.04903	1000
132.05385	39
149.06052	344

NAME: Indole-3-acetyl-L-valine
PRECURSORMZ: 273.12446594783
PRECURSORTYPE: [M-H]-
INSTRUMENTTYPE: LC-ESI-QTOF
SMILES: CC(C)C(N=C(O)CC1=CNC2=CC=CC=C12)C(O)=O
INCHIKEY: AZEGJHGXTSUPPG-UHFFFAOYNA-N
Ontology: Valine and derivatives
COLLISIONENERGY: 10
FORMULA: C15H18N2O3
RETENTIONTIME: 5.59285
IONMODE: Negative
Comment: registered in RIKEN PlaSMA
Num Peaks: 4
116.07023	432
117.07384	16
156.04411	29
273.12381	1000

NAME: p-Coumaryl alcohol
PRECURSORMZ: 149.06080314783
PRECURSORTYPE: [M-H]-
INSTRUMENTTYPE: LC-ESI-QTOF
SMILES: OCC=CC1=CC=C(O)C=C1
INCHIKEY: PTNLHDGQWUGONS-UHFFFAOYSA-N
Ontology: Cinnamyl alcohols
COLLISIONENERGY: 30
FORMULA: C9H10O2
RETENTIONTIME: 3.75965
IONMODE: Negative
Comment: registered in RIKEN PlaSMA
Num Peaks: 1
131.04861	1000

NAME: Indole-3-acetyl-L-valine
PRECURSORMZ: 273.12446594783
PRECURSORTYPE: [M-H]-
INSTRUMENTTYPE: LC-ESI-QTOF
SMILES: CC(C)C(N=C(O)CC1=CNC2=CC=CC=C12)C(O)=O
INCHIKEY: AZEGJHGXTSUPPG-UHFFFAOYNA-N
Ontology: Valine and derivatives
COLLISIONENERGY: 30
FORMULA: C15H18N2O3
RETENTIONTIME: 5.59285
IONMODE: Negative
Comment: registered in RIKEN PlaSMA
Num Peaks: 6
116.07018	1000
117.07306	55
128.04834	52
129.05344	7
130.06291	15
156.04581	10

NAME: Indole-3-acetyl-L-valine
PRECURSORMZ: 273.12446594783
PRECURSORTYPE: [M-H]-
INSTRUMENTTYPE: LC-ESI-QTOF
SMILES: CC(C)C(N=C(O)CC1=CNC2=CC=CC=C12)C(O)=O
INCHIKEY: AZEGJHGXTSUPPG-UHFFFAOYNA-N
Ontology: Valine and derivatives
COLLISIONENERGY: 50
FORMULA: C15H18N2O3
RETENTIONTIME: 5.59285
IONMODE: Negative
Comment: registered in RIKEN PlaSMA
Num Peaks: 2
116.04941	59
116.06978	1000

NAME: Caffeyl alcohol
PRECURSORMZ: 165.05571774783
PRECURSORTYPE: [M-H]-
INSTRUMENTTYPE: LC-ESI-QTOF
SMILES: OCC=CC1=CC(O)=C(O)C=C1
INCHIKEY: ZCKDCRKBURQZPT-UHFFFAOYSA-N
Ontology: Cinnamyl alcohols
COLLISIONENERGY: 10
FORMULA: C9H10O3
RETENTIONTIME: 3.1751
IONMODE: Negative
Comment: registered in RIKEN PlaSMA
Num Peaks: 16
70.93232	12
101.03785	217
117.58766	16
119.0481	64
129.03304	731
130.03954	67
131.04704	14
136.04202	14
146.03532	53
146.04996	20
147.04501	1000
148.04558	65
148.05135	79
149.05479	13
163.0414	28
165.05424	816

NAME: Dihydrokaempferol
PRECURSORMZ: 287.05611164783
PRECURSORTYPE: [M-H]-
INSTRUMENTTYPE: LC-ESI-QTOF
SMILES: OC1C(OC2=CC(O)=CC(O)=C2C1=O)C1=CC=C(O)C=C1
INCHIKEY: PADQINQHPQKXNL-UHFFFAOYNA-N
Ontology: Flavanonols
COLLISIONENERGY: 10
FORMULA: C15H12O6
RETENTIONTIME: 4.796183
IONMODE: Negative
Comment: registered in RIKEN PlaSMA
Num Peaks: 54
57.03455	5
65.00174	5
83.01071	8
91.01629	5
107.00664	8
107.01378	19
124.01501	18
125.02265	666
126.027	21
131.04822	28
133.0233	13
135.04701	9
137.02019	13
150.99686	14
151.00471	48
152.00871	81
153.01508	14
153.02393	6
156.06544	9
157.06284	8
159.04306	8
169.01111	6
173.06033	27
173.15103	6
176.0466	5
177.05495	140
180.005	41
181.00565	12
197.05431	5
199.03734	8
199.07542	25
201.05174	70
201.06572	10
203.03384	10
213.04897	9
215.06201	8
215.07294	20
216.07471	13
219.05228	5
241.04378	8
241.05414	10
243.06342	132
243.08322	5
244.06404	9
244.0733	5
245.07811	9
259.06009	1000
260.06375	157
261.0545	5
261.07077	37
269.04285	14
270.04611	9
277.17651	6
287.05481	768

NAME: Caffeyl alcohol
PRECURSORMZ: 165.05571774783
PRECURSORTYPE: [M-H]-
INSTRUMENTTYPE: LC-ESI-QTOF
SMILES: OCC=CC1=CC(O)=C(O)C=C1
INCHIKEY: ZCKDCRKBURQZPT-UHFFFAOYSA-N
Ontology: Cinnamyl alcohols
COLLISIONENERGY: 10
FORMULA: C9H10O3
RETENTIONTIME: 3.1751
IONMODE: Negative
Comment: registered in RIKEN PlaSMA
Num Peaks: 10
101.03729	10
119.0431	7
119.04906	7
129.03284	262
130.03716	31
146.03748	15
147.04391	798
148.04607	61
163.03966	6
165.05428	1000

NAME: Dihydrokaempferol
PRECURSORMZ: 287.05611164783
PRECURSORTYPE: [M-H]-
INSTRUMENTTYPE: LC-ESI-QTOF
SMILES: OC1C(OC2=CC(O)=CC(O)=C2C1=O)C1=CC=C(O)C=C1
INCHIKEY: PADQINQHPQKXNL-UHFFFAOYNA-N
Ontology: Flavanonols
COLLISIONENERGY: 10
FORMULA: C15H12O6
RETENTIONTIME: 4.796183
IONMODE: Negative
Comment: registered in RIKEN PlaSMA
Num Peaks: 12
125.02371	40
180.00146	12
180.00983	7
199.07539	7
201.05453	18
243.06468	61
244.06738	6
259.06015	595
260.06378	90
261.06741	17
269.04382	6
287.0546	1000

NAME: Caffeyl alcohol
PRECURSORMZ: 165.05571774783
PRECURSORTYPE: [M-H]-
INSTRUMENTTYPE: LC-ESI-QTOF
SMILES: OCC=CC1=CC(O)=C(O)C=C1
INCHIKEY: ZCKDCRKBURQZPT-UHFFFAOYSA-N
Ontology: Cinnamyl alcohols
COLLISIONENERGY: 30
FORMULA: C9H10O3
RETENTIONTIME: 3.1751
IONMODE: Negative
Comment: registered in RIKEN PlaSMA
Num Peaks: 8
91.00111	144
101.04128	1000
102.04182	144
103.05714	144
129.03197	640
130.02982	192
130.03908	176
146.03001	192

NAME: Dihydrokaempferol
PRECURSORMZ: 287.05611164783
PRECURSORTYPE: [M-H]-
INSTRUMENTTYPE: LC-ESI-QTOF
SMILES: OC1C(OC2=CC(O)=CC(O)=C2C1=O)C1=CC=C(O)C=C1
INCHIKEY: PADQINQHPQKXNL-UHFFFAOYNA-N
Ontology: Flavanonols
COLLISIONENERGY: 30
FORMULA: C15H12O6
RETENTIONTIME: 4.796183
IONMODE: Negative
Comment: registered in RIKEN PlaSMA
Num Peaks: 101
57.03094	23
58.03673	6
63.02135	28
64.99833	15
77.03931	18
81.03547	24
83.01201	109
93.03368	5
95.0132	13
96.01648	6
96.02411	16
97.02255	6
97.03236	10
105.03226	51
105.03887	25
106.03805	10
107.0128	119
107.04574	15
108.01454	14
108.02041	32
109.99734	5
111.00311	11
117.03098	15
118.03392	6
119.04644	6
121.03203	9
123.03691	6
124.01434	41
125.02304	1000
126.02721	38
130.04056	22
131.04874	104
132.04967	20
133.02823	69
134.03487	32
135.00317	5
135.04433	58
136.01572	6
137.02873	12
143.05017	5
144.05775	5
145.06033	8
145.07291	15
146.03854	7
147.00763	6
149.02071	10
149.05408	9
149.06355	33
150.05765	11
150.06837	5
151.00316	193
152.01065	153
153.01717	56
153.03273	5
155.04503	6
156.05774	11
157.0667	49
158.03482	11
158.04477	5
158.06856	11
159.0415	33
160.0453	5
162.03094	29
164.03972	5
169.05919	12
169.06955	13
170.03848	6
170.06804	12
171.03465	12
171.04236	5
172.03822	5
172.05231	31
173.05615	79
173.0677	12
174.06813	6
175.03952	10
176.01376	5
177.05363	268
178.05647	11
179.05476	6
180.05312	5
180.06514	5
181.07253	5
182.0135	5
183.0442	5
184.05367	5
187.07269	14
187.08174	6
195.04408	16
197.05826	6
198.03134	6
199.03944	22
201.05307	23
212.03786	5
213.05591	29
214.05786	14
215.06717	31
225.04266	7
225.05667	10
241.04764	15
259.06448	10

NAME: Caffeyl alcohol
PRECURSORMZ: 165.05571774783
PRECURSORTYPE: [M-H]-
INSTRUMENTTYPE: LC-ESI-QTOF
SMILES: OCC=CC1=CC(O)=C(O)C=C1
INCHIKEY: ZCKDCRKBURQZPT-UHFFFAOYSA-N
Ontology: Cinnamyl alcohols
COLLISIONENERGY: 50
FORMULA: C9H10O3
RETENTIONTIME: 3.1751
IONMODE: Negative
Comment: registered in RIKEN PlaSMA
Num Peaks: 1
145.02711	1000

NAME: Dihydrokaempferol
PRECURSORMZ: 287.05611164783
PRECURSORTYPE: [M-H]-
INSTRUMENTTYPE: LC-ESI-QTOF
SMILES: OC1C(OC2=CC(O)=CC(O)=C2C1=O)C1=CC=C(O)C=C1
INCHIKEY: PADQINQHPQKXNL-UHFFFAOYNA-N
Ontology: Flavanonols
COLLISIONENERGY: 50
FORMULA: C15H12O6
RETENTIONTIME: 4.796183
IONMODE: Negative
Comment: registered in RIKEN PlaSMA
Num Peaks: 29
57.03556	223
63.01952	161
64.99641	179
65.00195	366
67.01981	223
77.0361	277
81.03673	161
83.01298	366
83.02131	170
86.10225	161
96.01807	179
107.01513	161
109.02808	330
115.06162	179
117.03257	1000
119.04037	170
121.02718	500
125.01597	670
129.03099	241
130.03743	214
130.04356	339
132.02002	179
133.02618	375
133.0325	161
134.03123	464
151.00002	161
154.03427	161
181.03221	161
195.04776	188

NAME: Caffeyl alcohol
PRECURSORMZ: 165.05571774783
PRECURSORTYPE: [M-H]-
INSTRUMENTTYPE: LC-ESI-QTOF
SMILES: OCC=CC1=CC(O)=C(O)C=C1
INCHIKEY: ZCKDCRKBURQZPT-UHFFFAOYSA-N
Ontology: Cinnamyl alcohols
COLLISIONENERGY: 10
FORMULA: C9H10O3
RETENTIONTIME: 3.1751
IONMODE: Negative
Comment: registered in RIKEN PlaSMA
Num Peaks: 20
91.04961	12
93.03032	11
100.18028	12
101.03844	125
119.0451	25
119.05137	24
123.03197	11
129.03252	460
130.03641	52
130.04524	33
145.02469	11
146.03035	16
146.0378	27
147.04428	1000
147.06093	14
148.048	46
153.10104	10
163.0367	10
163.04654	25
165.05458	616

NAME: Dihydrokaempferol
PRECURSORMZ: 287.05611164783
PRECURSORTYPE: [M-H]-
INSTRUMENTTYPE: LC-ESI-QTOF
SMILES: OC1C(OC2=CC(O)=CC(O)=C2C1=O)C1=CC=C(O)C=C1
INCHIKEY: PADQINQHPQKXNL-UHFFFAOYNA-N
Ontology: Flavanonols
COLLISIONENERGY: 10
FORMULA: C15H12O6
RETENTIONTIME: 4.796183
IONMODE: Negative
Comment: registered in RIKEN PlaSMA
Num Peaks: 64
57.03264	14
63.02093	13
65.00449	9
81.03461	13
83.01325	25
93.03156	10
105.03126	12
106.00938	6
107.00907	14
107.01527	11
108.01751	10
125.02332	677
126.02697	47
128.0293	6
131.04735	45
131.05847	6
133.02519	10
133.03557	12
134.03458	9
135.03363	10
135.04623	25
137.02528	7
143.05449	10
149.06078	13
151.00153	92
152.00955	127
153.01971	9
154.04086	5
156.05078	5
156.05815	10
157.05728	5
158.03384	14
159.03813	9
159.04724	10
165.01736	9
167.02641	5
170.07478	9
171.0475	9
172.0571	5
173.05936	42
175.04031	15
175.07591	9
177.05502	101
178.05612	9
180.004	78
187.68362	6
199.07562	41
201.05299	56
203.03307	12
215.06802	42
215.08797	5
216.06834	10
216.07726	17
224.04718	6
241.05457	18
243.06462	119
244.06221	16
244.08124	8
259.06039	1000
260.06479	159
261.0654	6
269.0354	18
269.05161	18
287.0553	926

NAME: Caffeyl alcohol
PRECURSORMZ: 165.05571774783
PRECURSORTYPE: [M-H]-
INSTRUMENTTYPE: LC-ESI-QTOF
SMILES: OCC=CC1=CC(O)=C(O)C=C1
INCHIKEY: ZCKDCRKBURQZPT-UHFFFAOYSA-N
Ontology: Cinnamyl alcohols
COLLISIONENERGY: 10
FORMULA: C9H10O3
RETENTIONTIME: 3.1751
IONMODE: Negative
Comment: registered in RIKEN PlaSMA
Num Peaks: 9
101.03992	20
129.03262	276
130.037	37
146.03896	6
147.04333	793
148.04677	84
149.05298	11
164.03851	8
165.05402	1000

NAME: Dihydrokaempferol
PRECURSORMZ: 287.05611164783
PRECURSORTYPE: [M-H]-
INSTRUMENTTYPE: LC-ESI-QTOF
SMILES: OC1C(OC2=CC(O)=CC(O)=C2C1=O)C1=CC=C(O)C=C1
INCHIKEY: PADQINQHPQKXNL-UHFFFAOYNA-N
Ontology: Flavanonols
COLLISIONENERGY: 10
FORMULA: C15H12O6
RETENTIONTIME: 4.796183
IONMODE: Negative
Comment: registered in RIKEN PlaSMA
Num Peaks: 11
125.02322	61
151.00313	8
180.00742	10
201.05394	11
215.0705	5
243.06609	63
244.06294	6
259.06042	616
260.06531	71
269.05109	9
287.0553	1000

NAME: Caffeyl alcohol
PRECURSORMZ: 165.05571774783
PRECURSORTYPE: [M-H]-
INSTRUMENTTYPE: LC-ESI-QTOF
SMILES: OCC=CC1=CC(O)=C(O)C=C1
INCHIKEY: ZCKDCRKBURQZPT-UHFFFAOYSA-N
Ontology: Cinnamyl alcohols
COLLISIONENERGY: 30
FORMULA: C9H10O3
RETENTIONTIME: 3.1751
IONMODE: Negative
Comment: registered in RIKEN PlaSMA
Num Peaks: 3
101.03036	158
101.03816	1000
129.03404	383

NAME: Dihydrokaempferol
PRECURSORMZ: 287.05611164783
PRECURSORTYPE: [M-H]-
INSTRUMENTTYPE: LC-ESI-QTOF
SMILES: OC1C(OC2=CC(O)=CC(O)=C2C1=O)C1=CC=C(O)C=C1
INCHIKEY: PADQINQHPQKXNL-UHFFFAOYNA-N
Ontology: Flavanonols
COLLISIONENERGY: 30
FORMULA: C15H12O6
RETENTIONTIME: 4.796183
IONMODE: Negative
Comment: registered in RIKEN PlaSMA
Num Peaks: 118
57.0318	6
65.00265	44
77.04195	11
80.02101	6
80.0322	7
81.03059	21
81.03705	12
82.03554	6
83.00936	22
83.01241	58
84.01645	14
85.03087	12
93.03569	7
96.01881	44
97.01844	6
105.03104	41
106.034	11
107.01304	150
107.04763	43
108.01554	23
108.02217	12
109.03065	6
110.03076	8
111.00053	8
111.00702	6
117.03255	8
119.04865	18
120.94003	6
121.36333	6
123.00719	6
124.01418	82
125.02322	1000
126.02634	56
126.03553	12
130.04138	15
131.04358	32
131.05011	58
132.0471	11
132.05351	25
133.02867	20
134.0321	22
135.04308	59
137.02345	13
138.03389	6
143.04529	23
143.05627	12
144.05283	6
144.06049	7
145.05869	6
145.06537	9
149.05933	26
149.06668	10
151.00313	167
152.01039	142
153.01781	22
154.0118	8
154.02374	7
155.04388	13
156.04817	12
156.05679	33
157.0611	19
158.03572	12
159.04463	43
162.02533	10
162.03224	16
162.04106	5
162.791	6
165.01904	8
169.06259	22
170.07133	6
171.04961	9
171.08112	6
172.04941	18
172.05867	15
173.05716	33
173.06451	28
174.06067	11
176.00531	13
176.01341	10
176.04369	7
177.01389	7
177.0555	341
177.07059	7
178.05618	58
179.05191	6
180.00681	8
180.05382	7
181.05617	8
181.06685	6
183.0414	6
184.04695	8
184.05644	6
186.0675	7
187.07318	14
195.03661	6
196.05124	12
197.05615	18
198.06212	7
199.05043	7
200.05881	9
201.04944	37
201.0605	29
203.02835	6
211.03262	8
213.05263	40
213.07094	19
214.05043	6
214.06044	13
215.07262	20
216.06825	6
219.06987	6
225.05849	6
226.01604	6
241.03879	12
241.05362	20
259.05432	13
269.03403	10
269.04562	12

NAME: Dihydrokaempferol
PRECURSORMZ: 287.05611164783
PRECURSORTYPE: [M-H]-
INSTRUMENTTYPE: LC-ESI-QTOF
SMILES: OC1C(OC2=CC(O)=CC(O)=C2C1=O)C1=CC=C(O)C=C1
INCHIKEY: PADQINQHPQKXNL-UHFFFAOYNA-N
Ontology: Flavanonols
COLLISIONENERGY: 50
FORMULA: C15H12O6
RETENTIONTIME: 4.796183
IONMODE: Negative
Comment: registered in RIKEN PlaSMA
Num Peaks: 32
63.02246	492
83.01009	242
83.0145	461
93.03351	172
96.02617	180
104.02809	555
105.02959	281
107.01284	156
107.0444	188
107.05288	195
107.84277	172
117.03239	188
119.0506	141
121.02618	195
121.03183	188
125.02305	1000
127.02419	203
128.02449	188
129.04033	156
130.03873	141
132.04662	164
133.02695	430
135.00099	141
135.03847	148
144.05782	156
155.04941	188
158.03355	148
171.04747	172
172.0489	141
182.03368	203
195.05121	172
212.05103	172

NAME: Caffeyl alcohol
PRECURSORMZ: 165.05571774783
PRECURSORTYPE: [M-H]-
INSTRUMENTTYPE: LC-ESI-QTOF
SMILES: OCC=CC1=CC(O)=C(O)C=C1
INCHIKEY: ZCKDCRKBURQZPT-UHFFFAOYSA-N
Ontology: Cinnamyl alcohols
COLLISIONENERGY: 10
FORMULA: C9H10O3
RETENTIONTIME: 3.1751
IONMODE: Negative
Comment: registered in RIKEN PlaSMA
Num Peaks: 19
101.03905	71
101.04678	10
102.03908	34
117.03299	13
119.05016	33
129.03395	676
130.03125	25
130.03896	121
130.04745	28
131.04137	10
131.16597	10
146.03302	22
146.04167	22
147.04443	1000
147.92357	9
148.05287	74
153.11688	9
163.03639	22
165.05405	795

NAME: Dihydrokaempferol
PRECURSORMZ: 287.05611164783
PRECURSORTYPE: [M-H]-
INSTRUMENTTYPE: LC-ESI-QTOF
SMILES: OC1C(OC2=CC(O)=CC(O)=C2C1=O)C1=CC=C(O)C=C1
INCHIKEY: PADQINQHPQKXNL-UHFFFAOYNA-N
Ontology: Flavanonols
COLLISIONENERGY: 10
FORMULA: C15H12O6
RETENTIONTIME: 4.796183
IONMODE: Negative
Comment: registered in RIKEN PlaSMA
Num Peaks: 59
57.03141	9
57.03631	7
65.00038	11
65.03538	5
81.03272	5
83.01151	16
107.01114	28
107.01547	16
108.99525	5
124.01559	18
125.02312	596
126.02023	9
126.02869	31
127.02648	7
131.05031	20
133.02551	14
133.03351	12
134.02942	21
135.04578	9
136.01884	8
145.06638	12
151.0024	85
152.00813	90
153.01469	31
156.05792	19
157.06505	8
158.03429	5
159.04362	8
172.05162	14
172.06053	7
173.05452	14
173.06265	28
175.0735	6
177.05534	114
178.05585	23
180.00659	57
181.01378	6
199.07321	25
199.08377	14
201.05588	61
202.05315	9
203.03551	13
213.05898	7
214.06488	5
215.06752	27
215.07591	19
216.07228	12
219.06276	31
242.05206	8
243.06525	131
244.07018	12
245.05196	7
259.06009	1000
260.06036	72
260.06812	35
261.06644	8
269.02988	10
269.04715	11
287.05615	869

NAME: Caffeyl alcohol
PRECURSORMZ: 165.05571774783
PRECURSORTYPE: [M-H]-
INSTRUMENTTYPE: LC-ESI-QTOF
SMILES: OCC=CC1=CC(O)=C(O)C=C1
INCHIKEY: ZCKDCRKBURQZPT-UHFFFAOYSA-N
Ontology: Cinnamyl alcohols
COLLISIONENERGY: 10
FORMULA: C9H10O3
RETENTIONTIME: 3.1751
IONMODE: Negative
Comment: registered in RIKEN PlaSMA
Num Peaks: 14
101.03526	9
101.04183	5
103.05417	11
129.03265	276
130.03706	32
145.02417	7
146.03197	7
146.03825	6
147.04361	765
148.03584	6
148.04559	36
149.05339	6
163.0401	16
165.05476	1000

NAME: Dihydrokaempferol
PRECURSORMZ: 287.05611164783
PRECURSORTYPE: [M-H]-
INSTRUMENTTYPE: LC-ESI-QTOF
SMILES: OC1C(OC2=CC(O)=CC(O)=C2C1=O)C1=CC=C(O)C=C1
INCHIKEY: PADQINQHPQKXNL-UHFFFAOYNA-N
Ontology: Flavanonols
COLLISIONENERGY: 10
FORMULA: C15H12O6
RETENTIONTIME: 4.796183
IONMODE: Negative
Comment: registered in RIKEN PlaSMA
Num Peaks: 10
125.02196	66
151.00259	14
180.00705	23
201.05368	18
243.06619	63
259.0603	610
260.06326	87
261.06375	10
269.04184	12
287.0553	1000

NAME: Caffeyl alcohol
PRECURSORMZ: 165.05571774783
PRECURSORTYPE: [M-H]-
INSTRUMENTTYPE: LC-ESI-QTOF
SMILES: OCC=CC1=CC(O)=C(O)C=C1
INCHIKEY: ZCKDCRKBURQZPT-UHFFFAOYSA-N
Ontology: Cinnamyl alcohols
COLLISIONENERGY: 30
FORMULA: C9H10O3
RETENTIONTIME: 3.1751
IONMODE: Negative
Comment: registered in RIKEN PlaSMA
Num Peaks: 7
91.0564	110
101.03701	1000
103.05021	133
129.03114	221
129.04051	99
134.03967	116
147.03551	99

NAME: Dihydrokaempferol
PRECURSORMZ: 287.05611164783
PRECURSORTYPE: [M-H]-
INSTRUMENTTYPE: LC-ESI-QTOF
SMILES: OC1C(OC2=CC(O)=CC(O)=C2C1=O)C1=CC=C(O)C=C1
INCHIKEY: PADQINQHPQKXNL-UHFFFAOYNA-N
Ontology: Flavanonols
COLLISIONENERGY: 30
FORMULA: C15H12O6
RETENTIONTIME: 4.796183
IONMODE: Negative
Comment: registered in RIKEN PlaSMA
Num Peaks: 100
57.03206	39
63.02375	6
65.00256	20
80.0246	10
81.03403	13
83.00854	12
83.0139	52
93.03078	7
93.03735	6
94.03802	5
96.01968	16
104.02686	6
105.03636	17
106.03819	9
106.04607	7
107.0123	151
107.04869	25
108.00896	10
109.02888	33
111.00551	22
117.02767	12
117.03479	5
121.02917	10
124.01654	63
125.02305	1000
125.44161	5
126.0273	80
130.03996	38
131.04597	38
131.05322	40
132.04776	14
132.05908	11
132.79297	5
133.02866	43
133.03331	22
133.0594	8
134.03612	58
135.0414	45
136.01585	19
137.01726	9
137.02715	9
137.45071	7
138.02623	10
139.05954	5
143.04832	15
144.05577	5
145.06233	10
147.00084	6
148.0159	11
149.05998	29
150.06076	11
151.0025	131
152.00949	75
153.01735	14
155.04526	25
156.05336	25
156.05948	20
157.05888	5
157.06798	15
159.03979	24
159.04965	7
160.05063	6
162.02544	16
163.02826	6
166.0249	6
168.05725	5
169.06569	25
170.07637	8
171.04349	5
171.04982	11
172.04396	21
172.05307	17
173.05978	87
174.0672	9
175.03795	20
176.00581	10
176.01462	5
177.0542	337
178.05717	26
179.05641	6
179.16376	6
181.07794	5
183.04179	9
184.05028	6
186.06876	7
195.04486	9
197.05995	15
199.03426	6
199.04408	14
201.04652	15
201.06111	14
202.05939	9
213.05338	28
213.06044	10
215.07088	19
223.09081	7
226.18861	6
240.03543	11
241.04884	17
260.06451	9

NAME: Caffeyl alcohol
PRECURSORMZ: 165.05571774783
PRECURSORTYPE: [M-H]-
INSTRUMENTTYPE: LC-ESI-QTOF
SMILES: OCC=CC1=CC(O)=C(O)C=C1
INCHIKEY: ZCKDCRKBURQZPT-UHFFFAOYSA-N
Ontology: Cinnamyl alcohols
COLLISIONENERGY: 50
FORMULA: C9H10O3
RETENTIONTIME: 3.1751
IONMODE: Negative
Comment: registered in RIKEN PlaSMA
Num Peaks: 2
101.03319	1000
102.0387	625

NAME: Dihydrokaempferol
PRECURSORMZ: 287.05611164783
PRECURSORTYPE: [M-H]-
INSTRUMENTTYPE: LC-ESI-QTOF
SMILES: OC1C(OC2=CC(O)=CC(O)=C2C1=O)C1=CC=C(O)C=C1
INCHIKEY: PADQINQHPQKXNL-UHFFFAOYNA-N
Ontology: Flavanonols
COLLISIONENERGY: 50
FORMULA: C15H12O6
RETENTIONTIME: 4.796183
IONMODE: Negative
Comment: registered in RIKEN PlaSMA
Num Peaks: 33
57.03192	126
65.00212	699
77.04134	126
83.01353	580
84.0135	308
96.02439	140
103.0541	126
105.03046	657
107.04849	161
108.05125	189
113.10682	126
115.05394	126
117.03279	175
121.02619	140
124.01762	140
125.02277	1000
131.05107	343
132.01831	168
133.02377	168
133.03168	161
134.03114	147
134.03993	126
135.04558	196
149.05191	133
150.99875	133
158.03606	343
171.03911	140
185.05859	126
196.04453	133
196.06056	175
197.05673	140
211.04153	161
250.02995	126

NAME: Gallic acid
PRECURSORMZ: 169.01424684783
PRECURSORTYPE: [M-H]-
INSTRUMENTTYPE: LC-ESI-QTOF
SMILES: OC(=O)C1=CC(O)=C(O)C(O)=C1
INCHIKEY: LNTHITQWFMADLM-UHFFFAOYSA-N
Ontology: Gallic acids
COLLISIONENERGY: 10
FORMULA: C7H6O5
RETENTIONTIME: 2.042333
IONMODE: Negative
Comment: registered in RIKEN PlaSMA
Num Peaks: 7
81.03362	34
97.02914	21
107.01346	16
125.02283	1000
126.02262	38
127.02937	16
169.01292	671

NAME: Indole-3-acetyl-L-isoleucine
PRECURSORMZ: 287.14011604783
PRECURSORTYPE: [M-H]-
INSTRUMENTTYPE: LC-ESI-QTOF
SMILES: CCC(C)C(N=C(O)CC1=CNC2=CC=CC=C12)C(O)=O
INCHIKEY: WPTUQMUCTTVOFW-UHFFFAOYNA-N
Ontology: Isoleucine and derivatives
COLLISIONENERGY: 10
FORMULA: C16H20N2O3
RETENTIONTIME: 6.139517
IONMODE: Negative
Comment: registered in RIKEN PlaSMA
Num Peaks: 6
128.04987	6
130.08604	1000
131.09059	74
132.09285	12
156.04558	11
287.13919	434

NAME: Gallic acid
PRECURSORMZ: 169.01424684783
PRECURSORTYPE: [M-H]-
INSTRUMENTTYPE: LC-ESI-QTOF
SMILES: OC(=O)C1=CC(O)=C(O)C(O)=C1
INCHIKEY: LNTHITQWFMADLM-UHFFFAOYSA-N
Ontology: Gallic acids
COLLISIONENERGY: 10
FORMULA: C7H6O5
RETENTIONTIME: 2.042333
IONMODE: Negative
Comment: registered in RIKEN PlaSMA
Num Peaks: 8
81.03184	19
97.03137	6
123.00577	10
125.02283	682
126.02305	21
126.02819	43
126.18542	5
169.01216	1000

NAME: Indole-3-acetyl-L-isoleucine
PRECURSORMZ: 287.14011604783
PRECURSORTYPE: [M-H]-
INSTRUMENTTYPE: LC-ESI-QTOF
SMILES: CCC(C)C(N=C(O)CC1=CNC2=CC=CC=C12)C(O)=O
INCHIKEY: WPTUQMUCTTVOFW-UHFFFAOYNA-N
Ontology: Isoleucine and derivatives
COLLISIONENERGY: 10
FORMULA: C16H20N2O3
RETENTIONTIME: 6.139517
IONMODE: Negative
Comment: registered in RIKEN PlaSMA
Num Peaks: 4
130.08574	377
131.08937	25
156.04286	5
287.13849	1000

NAME: Gallic acid
PRECURSORMZ: 169.01424684783
PRECURSORTYPE: [M-H]-
INSTRUMENTTYPE: LC-ESI-QTOF
SMILES: OC(=O)C1=CC(O)=C(O)C(O)=C1
INCHIKEY: LNTHITQWFMADLM-UHFFFAOYSA-N
Ontology: Gallic acids
COLLISIONENERGY: 30
FORMULA: C7H6O5
RETENTIONTIME: 2.042333
IONMODE: Negative
Comment: registered in RIKEN PlaSMA
Num Peaks: 3
79.01623	209
124.02013	535
125.02309	1000

NAME: Indole-3-acetyl-L-isoleucine
PRECURSORMZ: 287.14011604783
PRECURSORTYPE: [M-H]-
INSTRUMENTTYPE: LC-ESI-QTOF
SMILES: CCC(C)C(N=C(O)CC1=CNC2=CC=CC=C12)C(O)=O
INCHIKEY: WPTUQMUCTTVOFW-UHFFFAOYNA-N
Ontology: Isoleucine and derivatives
COLLISIONENERGY: 30
FORMULA: C16H20N2O3
RETENTIONTIME: 6.139517
IONMODE: Negative
Comment: registered in RIKEN PlaSMA
Num Peaks: 5
128.0482	27
129.05252	7
130.08534	1000
131.08757	45
132.09148	5

NAME: Gallic acid
PRECURSORMZ: 169.01424684783
PRECURSORTYPE: [M-H]-
INSTRUMENTTYPE: LC-ESI-QTOF
SMILES: OC(=O)C1=CC(O)=C(O)C(O)=C1
INCHIKEY: LNTHITQWFMADLM-UHFFFAOYSA-N
Ontology: Gallic acids
COLLISIONENERGY: 50
FORMULA: C7H6O5
RETENTIONTIME: 2.042333
IONMODE: Negative
Comment: registered in RIKEN PlaSMA
Num Peaks: 1
91.00171	1000

NAME: Indole-3-acetyl-L-isoleucine
PRECURSORMZ: 287.14011604783
PRECURSORTYPE: [M-H]-
INSTRUMENTTYPE: LC-ESI-QTOF
SMILES: CCC(C)C(N=C(O)CC1=CNC2=CC=CC=C12)C(O)=O
INCHIKEY: WPTUQMUCTTVOFW-UHFFFAOYNA-N
Ontology: Isoleucine and derivatives
COLLISIONENERGY: 50
FORMULA: C16H20N2O3
RETENTIONTIME: 6.139517
IONMODE: Negative
Comment: registered in RIKEN PlaSMA
Num Peaks: 5
101.03819	173
130.05806	173
130.08456	1000
131.08913	173
167.06206	202

NAME: Gallic acid
PRECURSORMZ: 169.01424684783
PRECURSORTYPE: [M-H]-
INSTRUMENTTYPE: LC-ESI-QTOF
SMILES: OC(=O)C1=CC(O)=C(O)C(O)=C1
INCHIKEY: LNTHITQWFMADLM-UHFFFAOYSA-N
Ontology: Gallic acids
COLLISIONENERGY: 10
FORMULA: C7H6O5
RETENTIONTIME: 2.042333
IONMODE: Negative
Comment: registered in RIKEN PlaSMA
Num Peaks: 7
97.02463	17
122.6544	16
124.01929	15
125.0234	1000
127.02431	15
127.0326	28
169.01422	514

NAME: Indole-3-acetyl-L-isoleucine
PRECURSORMZ: 287.14011604783
PRECURSORTYPE: [M-H]-
INSTRUMENTTYPE: LC-ESI-QTOF
SMILES: CCC(C)C(N=C(O)CC1=CNC2=CC=CC=C12)C(O)=O
INCHIKEY: WPTUQMUCTTVOFW-UHFFFAOYNA-N
Ontology: Isoleucine and derivatives
COLLISIONENERGY: 10
FORMULA: C16H20N2O3
RETENTIONTIME: 6.139517
IONMODE: Negative
Comment: registered in RIKEN PlaSMA
Num Peaks: 7
128.04779	5
130.08617	1000
131.0892	58
156.04016	8
156.04669	14
243.14908	6
287.13852	423

NAME: Gallic acid
PRECURSORMZ: 169.01424684783
PRECURSORTYPE: [M-H]-
INSTRUMENTTYPE: LC-ESI-QTOF
SMILES: OC(=O)C1=CC(O)=C(O)C(O)=C1
INCHIKEY: LNTHITQWFMADLM-UHFFFAOYSA-N
Ontology: Gallic acids
COLLISIONENERGY: 10
FORMULA: C7H6O5
RETENTIONTIME: 2.042333
IONMODE: Negative
Comment: registered in RIKEN PlaSMA
Num Peaks: 8
79.01988	6
81.03371	7
123.01162	20
124.01428	16
125.0236	598
126.02489	54
127.02683	6
169.01321	1000

NAME: Indole-3-acetyl-L-isoleucine
PRECURSORMZ: 287.14011604783
PRECURSORTYPE: [M-H]-
INSTRUMENTTYPE: LC-ESI-QTOF
SMILES: CCC(C)C(N=C(O)CC1=CNC2=CC=CC=C12)C(O)=O
INCHIKEY: WPTUQMUCTTVOFW-UHFFFAOYNA-N
Ontology: Isoleucine and derivatives
COLLISIONENERGY: 10
FORMULA: C16H20N2O3
RETENTIONTIME: 6.139517
IONMODE: Negative
Comment: registered in RIKEN PlaSMA
Num Peaks: 4
130.08606	360
131.08963	17
156.04262	15
287.13818	1000

NAME: Gallic acid
PRECURSORMZ: 169.01424684783
PRECURSORTYPE: [M-H]-
INSTRUMENTTYPE: LC-ESI-QTOF
SMILES: OC(=O)C1=CC(O)=C(O)C(O)=C1
INCHIKEY: LNTHITQWFMADLM-UHFFFAOYSA-N
Ontology: Gallic acids
COLLISIONENERGY: 30
FORMULA: C7H6O5
RETENTIONTIME: 2.042333
IONMODE: Negative
Comment: registered in RIKEN PlaSMA
Num Peaks: 5
79.01868	400
85.02628	317
97.02697	317
124.0144	317
125.02055	1000

NAME: Indole-3-acetyl-L-isoleucine
PRECURSORMZ: 287.14011604783
PRECURSORTYPE: [M-H]-
INSTRUMENTTYPE: LC-ESI-QTOF
SMILES: CCC(C)C(N=C(O)CC1=CNC2=CC=CC=C12)C(O)=O
INCHIKEY: WPTUQMUCTTVOFW-UHFFFAOYNA-N
Ontology: Isoleucine and derivatives
COLLISIONENERGY: 30
FORMULA: C16H20N2O3
RETENTIONTIME: 6.139517
IONMODE: Negative
Comment: registered in RIKEN PlaSMA
Num Peaks: 4
128.05064	26
130.08592	1000
131.08896	64
156.04317	8

NAME: Gallic acid
PRECURSORMZ: 169.01424684783
PRECURSORTYPE: [M-H]-
INSTRUMENTTYPE: LC-ESI-QTOF
SMILES: OC(=O)C1=CC(O)=C(O)C(O)=C1
INCHIKEY: LNTHITQWFMADLM-UHFFFAOYSA-N
Ontology: Gallic acids
COLLISIONENERGY: 50
FORMULA: C7H6O5
RETENTIONTIME: 2.042333
IONMODE: Negative
Comment: registered in RIKEN PlaSMA
Num Peaks: 1
72.99293	1000

NAME: Indole-3-acetyl-L-isoleucine
PRECURSORMZ: 287.14011604783
PRECURSORTYPE: [M-H]-
INSTRUMENTTYPE: LC-ESI-QTOF
SMILES: CCC(C)C(N=C(O)CC1=CNC2=CC=CC=C12)C(O)=O
INCHIKEY: WPTUQMUCTTVOFW-UHFFFAOYNA-N
Ontology: Isoleucine and derivatives
COLLISIONENERGY: 50
FORMULA: C16H20N2O3
RETENTIONTIME: 6.139517
IONMODE: Negative
Comment: registered in RIKEN PlaSMA
Num Peaks: 6
116.04819	176
128.04533	312
130.05804	144
130.07848	368
130.08582	1000
153.04448	144

NAME: Gallic acid
PRECURSORMZ: 169.01424684783
PRECURSORTYPE: [M-H]-
INSTRUMENTTYPE: LC-ESI-QTOF
SMILES: OC(=O)C1=CC(O)=C(O)C(O)=C1
INCHIKEY: LNTHITQWFMADLM-UHFFFAOYSA-N
Ontology: Gallic acids
COLLISIONENERGY: 10
FORMULA: C7H6O5
RETENTIONTIME: 2.042333
IONMODE: Negative
Comment: registered in RIKEN PlaSMA
Num Peaks: 12
67.01739	15
69.03193	13
79.01694	47
81.0301	68
95.01212	14
123.00802	49
123.01527	15
124.01586	15
125.02258	1000
126.02565	46
127.02791	15
169.01219	514

NAME: Indole-3-acetyl-L-isoleucine
PRECURSORMZ: 287.14011604783
PRECURSORTYPE: [M-H]-
INSTRUMENTTYPE: LC-ESI-QTOF
SMILES: CCC(C)C(N=C(O)CC1=CNC2=CC=CC=C12)C(O)=O
INCHIKEY: WPTUQMUCTTVOFW-UHFFFAOYNA-N
Ontology: Isoleucine and derivatives
COLLISIONENERGY: 10
FORMULA: C16H20N2O3
RETENTIONTIME: 6.139517
IONMODE: Negative
Comment: registered in RIKEN PlaSMA
Num Peaks: 5
128.04492	8
130.08571	1000
131.09001	64
156.04498	20
287.13791	383

NAME: Gallic acid
PRECURSORMZ: 169.01424684783
PRECURSORTYPE: [M-H]-
INSTRUMENTTYPE: LC-ESI-QTOF
SMILES: OC(=O)C1=CC(O)=C(O)C(O)=C1
INCHIKEY: LNTHITQWFMADLM-UHFFFAOYSA-N
Ontology: Gallic acids
COLLISIONENERGY: 10
FORMULA: C7H6O5
RETENTIONTIME: 2.042333
IONMODE: Negative
Comment: registered in RIKEN PlaSMA
Num Peaks: 6
79.01949	5
81.03069	7
125.02242	676
126.02579	48
137.69197	5
169.01256	1000

NAME: Indole-3-acetyl-L-isoleucine
PRECURSORMZ: 287.14011604783
PRECURSORTYPE: [M-H]-
INSTRUMENTTYPE: LC-ESI-QTOF
SMILES: CCC(C)C(N=C(O)CC1=CNC2=CC=CC=C12)C(O)=O
INCHIKEY: WPTUQMUCTTVOFW-UHFFFAOYNA-N
Ontology: Isoleucine and derivatives
COLLISIONENERGY: 10
FORMULA: C16H20N2O3
RETENTIONTIME: 6.139517
IONMODE: Negative
Comment: registered in RIKEN PlaSMA
Num Peaks: 4
130.0869	368
131.09088	20
156.04971	7
287.14017	1000

NAME: Gallic acid
PRECURSORMZ: 169.01424684783
PRECURSORTYPE: [M-H]-
INSTRUMENTTYPE: LC-ESI-QTOF
SMILES: OC(=O)C1=CC(O)=C(O)C(O)=C1
INCHIKEY: LNTHITQWFMADLM-UHFFFAOYSA-N
Ontology: Gallic acids
COLLISIONENERGY: 30
FORMULA: C7H6O5
RETENTIONTIME: 2.042333
IONMODE: Negative
Comment: registered in RIKEN PlaSMA
Num Peaks: 3
79.01743	1000
107.0097	238
125.0202	286

NAME: Indole-3-acetyl-L-isoleucine
PRECURSORMZ: 287.14011604783
PRECURSORTYPE: [M-H]-
INSTRUMENTTYPE: LC-ESI-QTOF
SMILES: CCC(C)C(N=C(O)CC1=CNC2=CC=CC=C12)C(O)=O
INCHIKEY: WPTUQMUCTTVOFW-UHFFFAOYNA-N
Ontology: Isoleucine and derivatives
COLLISIONENERGY: 30
FORMULA: C16H20N2O3
RETENTIONTIME: 6.139517
IONMODE: Negative
Comment: registered in RIKEN PlaSMA
Num Peaks: 5
128.04965	31
130.06212	8
130.08594	1000
131.08298	10
131.09059	37

NAME: Gallic acid
PRECURSORMZ: 169.01424684783
PRECURSORTYPE: [M-H]-
INSTRUMENTTYPE: LC-ESI-QTOF
SMILES: OC(=O)C1=CC(O)=C(O)C(O)=C1
INCHIKEY: LNTHITQWFMADLM-UHFFFAOYSA-N
Ontology: Gallic acids
COLLISIONENERGY: 50
FORMULA: C7H6O5
RETENTIONTIME: 2.042333
IONMODE: Negative
Comment: registered in RIKEN PlaSMA
Num Peaks: 1
141.01653	1000

NAME: Indole-3-acetyl-L-isoleucine
PRECURSORMZ: 287.14011604783
PRECURSORTYPE: [M-H]-
INSTRUMENTTYPE: LC-ESI-QTOF
SMILES: CCC(C)C(N=C(O)CC1=CNC2=CC=CC=C12)C(O)=O
INCHIKEY: WPTUQMUCTTVOFW-UHFFFAOYNA-N
Ontology: Isoleucine and derivatives
COLLISIONENERGY: 50
FORMULA: C16H20N2O3
RETENTIONTIME: 6.139517
IONMODE: Negative
Comment: registered in RIKEN PlaSMA
Num Peaks: 3
130.08635	1000
131.09697	92
154.04718	74

NAME: Indole-3-acetyl-L-leucine
PRECURSORMZ: 287.14011604783
PRECURSORTYPE: [M-H]-
INSTRUMENTTYPE: LC-ESI-QTOF
SMILES: CC(C)CC(N=C(O)CC1=CNC2=CC=CC=C12)C(O)=O
INCHIKEY: HCZNPUHZYPPINM-UHFFFAOYNA-N
Ontology: Leucine and derivatives
COLLISIONENERGY: 10
FORMULA: C16H20N2O3
RETENTIONTIME: 6.2079
IONMODE: Negative
Comment: registered in RIKEN PlaSMA
Num Peaks: 8
128.04558	11
128.05124	6
130.08577	1000
131.08788	46
132.08998	5
156.04039	13
156.04852	15
287.13855	412

NAME: Indole-3-acetyl-L-leucine
PRECURSORMZ: 287.14011604783
PRECURSORTYPE: [M-H]-
INSTRUMENTTYPE: LC-ESI-QTOF
SMILES: CC(C)CC(N=C(O)CC1=CNC2=CC=CC=C12)C(O)=O
INCHIKEY: HCZNPUHZYPPINM-UHFFFAOYNA-N
Ontology: Leucine and derivatives
COLLISIONENERGY: 10
FORMULA: C16H20N2O3
RETENTIONTIME: 6.2079
IONMODE: Negative
Comment: registered in RIKEN PlaSMA
Num Peaks: 5
130.08575	397
131.08675	11
131.09283	18
156.04501	12
287.1391	1000

NAME: Indole-3-acetyl-L-leucine
PRECURSORMZ: 287.14011604783
PRECURSORTYPE: [M-H]-
INSTRUMENTTYPE: LC-ESI-QTOF
SMILES: CC(C)CC(N=C(O)CC1=CNC2=CC=CC=C12)C(O)=O
INCHIKEY: HCZNPUHZYPPINM-UHFFFAOYNA-N
Ontology: Leucine and derivatives
COLLISIONENERGY: 30
FORMULA: C16H20N2O3
RETENTIONTIME: 6.2079
IONMODE: Negative
Comment: registered in RIKEN PlaSMA
Num Peaks: 5
128.04904	38
129.05067	6
130.08612	1000
131.08894	68
132.091	6

NAME: Indole-3-acetyl-L-leucine
PRECURSORMZ: 287.14011604783
PRECURSORTYPE: [M-H]-
INSTRUMENTTYPE: LC-ESI-QTOF
SMILES: CC(C)CC(N=C(O)CC1=CNC2=CC=CC=C12)C(O)=O
INCHIKEY: HCZNPUHZYPPINM-UHFFFAOYNA-N
Ontology: Leucine and derivatives
COLLISIONENERGY: 50
FORMULA: C16H20N2O3
RETENTIONTIME: 6.2079
IONMODE: Negative
Comment: registered in RIKEN PlaSMA
Num Peaks: 6
128.04482	104
128.05841	104
130.08488	1000
130.09396	290
131.08731	212
153.04277	104

NAME: Indole-3-acetyl-L-leucine
PRECURSORMZ: 287.14011604783
PRECURSORTYPE: [M-H]-
INSTRUMENTTYPE: LC-ESI-QTOF
SMILES: CC(C)CC(N=C(O)CC1=CNC2=CC=CC=C12)C(O)=O
INCHIKEY: HCZNPUHZYPPINM-UHFFFAOYNA-N
Ontology: Leucine and derivatives
COLLISIONENERGY: 10
FORMULA: C16H20N2O3
RETENTIONTIME: 6.2079
IONMODE: Negative
Comment: registered in RIKEN PlaSMA
Num Peaks: 5
128.0497	7
130.08611	1000
131.08995	55
156.04364	8
287.13953	399

NAME: Indole-3-acetyl-L-leucine
PRECURSORMZ: 287.14011604783
PRECURSORTYPE: [M-H]-
INSTRUMENTTYPE: LC-ESI-QTOF
SMILES: CC(C)CC(N=C(O)CC1=CNC2=CC=CC=C12)C(O)=O
INCHIKEY: HCZNPUHZYPPINM-UHFFFAOYNA-N
Ontology: Leucine and derivatives
COLLISIONENERGY: 10
FORMULA: C16H20N2O3
RETENTIONTIME: 6.2079
IONMODE: Negative
Comment: registered in RIKEN PlaSMA
Num Peaks: 4
130.08575	400
131.08937	21
156.04268	10
287.1384	1000

NAME: Indole-3-acetyl-L-leucine
PRECURSORMZ: 287.14011604783
PRECURSORTYPE: [M-H]-
INSTRUMENTTYPE: LC-ESI-QTOF
SMILES: CC(C)CC(N=C(O)CC1=CNC2=CC=CC=C12)C(O)=O
INCHIKEY: HCZNPUHZYPPINM-UHFFFAOYNA-N
Ontology: Leucine and derivatives
COLLISIONENERGY: 30
FORMULA: C16H20N2O3
RETENTIONTIME: 6.2079
IONMODE: Negative
Comment: registered in RIKEN PlaSMA
Num Peaks: 4
128.04832	50
129.05339	5
130.0856	1000
131.08891	40

NAME: Indole-3-acetyl-L-leucine
PRECURSORMZ: 287.14011604783
PRECURSORTYPE: [M-H]-
INSTRUMENTTYPE: LC-ESI-QTOF
SMILES: CC(C)CC(N=C(O)CC1=CNC2=CC=CC=C12)C(O)=O
INCHIKEY: HCZNPUHZYPPINM-UHFFFAOYNA-N
Ontology: Leucine and derivatives
COLLISIONENERGY: 50
FORMULA: C16H20N2O3
RETENTIONTIME: 6.2079
IONMODE: Negative
Comment: registered in RIKEN PlaSMA
Num Peaks: 6
84.08198	90
130.06548	81
130.08511	1000
131.08984	336
131.09869	94
132.09032	81

NAME: Indole-3-acetyl-L-leucine
PRECURSORMZ: 287.14011604783
PRECURSORTYPE: [M-H]-
INSTRUMENTTYPE: LC-ESI-QTOF
SMILES: CC(C)CC(N=C(O)CC1=CNC2=CC=CC=C12)C(O)=O
INCHIKEY: HCZNPUHZYPPINM-UHFFFAOYNA-N
Ontology: Leucine and derivatives
COLLISIONENERGY: 10
FORMULA: C16H20N2O3
RETENTIONTIME: 6.2079
IONMODE: Negative
Comment: registered in RIKEN PlaSMA
Num Peaks: 5
128.05035	5
130.08641	1000
131.08943	77
156.04288	13
287.13864	386

NAME: Indole-3-acetyl-L-leucine
PRECURSORMZ: 287.14011604783
PRECURSORTYPE: [M-H]-
INSTRUMENTTYPE: LC-ESI-QTOF
SMILES: CC(C)CC(N=C(O)CC1=CNC2=CC=CC=C12)C(O)=O
INCHIKEY: HCZNPUHZYPPINM-UHFFFAOYNA-N
Ontology: Leucine and derivatives
COLLISIONENERGY: 10
FORMULA: C16H20N2O3
RETENTIONTIME: 6.2079
IONMODE: Negative
Comment: registered in RIKEN PlaSMA
Num Peaks: 4
130.08611	395
131.08867	25
156.04266	13
287.13885	1000

NAME: Indole-3-acetyl-L-leucine
PRECURSORMZ: 287.14011604783
PRECURSORTYPE: [M-H]-
INSTRUMENTTYPE: LC-ESI-QTOF
SMILES: CC(C)CC(N=C(O)CC1=CNC2=CC=CC=C12)C(O)=O
INCHIKEY: HCZNPUHZYPPINM-UHFFFAOYNA-N
Ontology: Leucine and derivatives
COLLISIONENERGY: 30
FORMULA: C16H20N2O3
RETENTIONTIME: 6.2079
IONMODE: Negative
Comment: registered in RIKEN PlaSMA
Num Peaks: 5
128.04248	8
128.04932	33
130.08612	1000
131.08897	48
132.09357	7

NAME: Indole-3-acetyl-L-leucine
PRECURSORMZ: 287.14011604783
PRECURSORTYPE: [M-H]-
INSTRUMENTTYPE: LC-ESI-QTOF
SMILES: CC(C)CC(N=C(O)CC1=CNC2=CC=CC=C12)C(O)=O
INCHIKEY: HCZNPUHZYPPINM-UHFFFAOYNA-N
Ontology: Leucine and derivatives
COLLISIONENERGY: 50
FORMULA: C16H20N2O3
RETENTIONTIME: 6.2079
IONMODE: Negative
Comment: registered in RIKEN PlaSMA
Num Peaks: 5
128.04716	153
129.05458	136
130.08716	1000
160.03633	61
287.13617	86

NAME: Indole-3-acetyl-L-glutamic acid
PRECURSORMZ: 303.09864514783
PRECURSORTYPE: [M-H]-
INSTRUMENTTYPE: LC-ESI-QTOF
SMILES: OC(=O)CCC(N=C(O)CC1=CNC2=CC=CC=C12)C(O)=O
INCHIKEY: YRKLGWOHYXIKSF-UHFFFAOYNA-N
Ontology: Glutamic acid and derivatives
COLLISIONENERGY: 10
FORMULA: C15H16N2O5
RETENTIONTIME: 4.117116
IONMODE: Negative
Comment: registered in RIKEN PlaSMA
Num Peaks: 30
82.03345	6
84.04308	5
102.05531	313
103.05699	16
116.04887	5
128.03442	631
128.05118	16
129.03935	5
129.04904	5
130.0419	5
130.06491	6
146.04477	874
147.04712	30
147.05461	12
156.04124	25
156.0506	10
173.03128	5
173.07014	6
174.05547	141
175.0563	18
175.0614	11
176.04947	15
176.06419	6
259.11023	10
260.10626	12
285.08289	61
285.10199	10
286.0726	5
286.0928	5
303.0972	1000

NAME: 3',5'-Dimethoxy-4'-hydroxyacetophenone
PRECURSORMZ: 195.06628244783
PRECURSORTYPE: [M-H]-
INSTRUMENTTYPE: LC-ESI-QTOF
SMILES: COC1=CC(=CC(OC)=C1O)C(C)=O
INCHIKEY: OJOBTAOGJIWAGB-UHFFFAOYSA-N
Ontology: Alkyl-phenylketones
COLLISIONENERGY: 10
FORMULA: C10H12O4
RETENTIONTIME: 4.32835
IONMODE: Negative
Comment: registered in RIKEN PlaSMA
Num Peaks: 16
67.01888	33
89.43118	18
91.85772	20
93.03187	18
109.02841	59
137.02397	112
137.03383	20
151.03845	29
165.0197	471
166.01967	21
166.03304	22
179.03705	19
180.04201	1000
181.03986	21
181.05144	19
195.06586	382

NAME: Indole-3-acetyl-L-glutamic acid
PRECURSORMZ: 303.09864514783
PRECURSORTYPE: [M-H]-
INSTRUMENTTYPE: LC-ESI-QTOF
SMILES: OC(=O)CCC(N=C(O)CC1=CNC2=CC=CC=C12)C(O)=O
INCHIKEY: YRKLGWOHYXIKSF-UHFFFAOYNA-N
Ontology: Glutamic acid and derivatives
COLLISIONENERGY: 10
FORMULA: C15H16N2O5
RETENTIONTIME: 4.117116
IONMODE: Negative
Comment: registered in RIKEN PlaSMA
Num Peaks: 10
102.05613	12
128.0336	126
146.04468	185
147.04642	11
174.0555	65
175.06055	6
259.10562	18
285.08716	80
286.09555	5
303.09802	1000

NAME: 3',5'-Dimethoxy-4'-hydroxyacetophenone
PRECURSORMZ: 195.06628244783
PRECURSORTYPE: [M-H]-
INSTRUMENTTYPE: LC-ESI-QTOF
SMILES: COC1=CC(=CC(OC)=C1O)C(C)=O
INCHIKEY: OJOBTAOGJIWAGB-UHFFFAOYSA-N
Ontology: Alkyl-phenylketones
COLLISIONENERGY: 10
FORMULA: C10H12O4
RETENTIONTIME: 4.32835
IONMODE: Negative
Comment: registered in RIKEN PlaSMA
Num Peaks: 10
92.27805	7
151.03531	9
162.84029	7
165.00661	8
165.01945	58
166.02803	13
180.04192	1000
181.04562	53
182.02159	9
195.06487	750

NAME: Indole-3-acetyl-L-glutamic acid
PRECURSORMZ: 303.09864514783
PRECURSORTYPE: [M-H]-
INSTRUMENTTYPE: LC-ESI-QTOF
SMILES: OC(=O)CCC(N=C(O)CC1=CNC2=CC=CC=C12)C(O)=O
INCHIKEY: YRKLGWOHYXIKSF-UHFFFAOYNA-N
Ontology: Glutamic acid and derivatives
COLLISIONENERGY: 30
FORMULA: C15H16N2O5
RETENTIONTIME: 4.117116
IONMODE: Negative
Comment: registered in RIKEN PlaSMA
Num Peaks: 18
84.04239	12
86.01952	5
102.05438	1000
103.05724	69
104.06013	16
116.04909	6
124.71202	6
128.03404	606
128.05202	21
129.01776	5
129.03841	31
129.05237	11
130.04247	6
146.04428	303
147.04649	20
156.04692	18
157.0511	6
165.09923	6

NAME: 3',5'-Dimethoxy-4'-hydroxyacetophenone
PRECURSORMZ: 195.06628244783
PRECURSORTYPE: [M-H]-
INSTRUMENTTYPE: LC-ESI-QTOF
SMILES: COC1=CC(=CC(OC)=C1O)C(C)=O
INCHIKEY: OJOBTAOGJIWAGB-UHFFFAOYSA-N
Ontology: Alkyl-phenylketones
COLLISIONENERGY: 30
FORMULA: C10H12O4
RETENTIONTIME: 4.32835
IONMODE: Negative
Comment: registered in RIKEN PlaSMA
Num Peaks: 12
93.02962	91
95.01096	63
97.02745	27
108.02151	61
109.02014	67
109.02657	344
137.02367	1000
138.02771	31
139.02405	31
165.01707	489
165.03358	28
166.01913	55

NAME: Indole-3-acetyl-L-glutamic acid
PRECURSORMZ: 303.09864514783
PRECURSORTYPE: [M-H]-
INSTRUMENTTYPE: LC-ESI-QTOF
SMILES: OC(=O)CCC(N=C(O)CC1=CNC2=CC=CC=C12)C(O)=O
INCHIKEY: YRKLGWOHYXIKSF-UHFFFAOYNA-N
Ontology: Glutamic acid and derivatives
COLLISIONENERGY: 50
FORMULA: C15H16N2O5
RETENTIONTIME: 4.117116
IONMODE: Negative
Comment: registered in RIKEN PlaSMA
Num Peaks: 7
102.05381	1000
102.06007	394
122.1489	63
128.03018	120
128.05408	60
129.04114	66
130.0677	60

NAME: 3',5'-Dimethoxy-4'-hydroxyacetophenone
PRECURSORMZ: 195.06628244783
PRECURSORTYPE: [M-H]-
INSTRUMENTTYPE: LC-ESI-QTOF
SMILES: COC1=CC(=CC(OC)=C1O)C(C)=O
INCHIKEY: OJOBTAOGJIWAGB-UHFFFAOYSA-N
Ontology: Alkyl-phenylketones
COLLISIONENERGY: 50
FORMULA: C10H12O4
RETENTIONTIME: 4.32835
IONMODE: Negative
Comment: registered in RIKEN PlaSMA
Num Peaks: 1
109.02522	1000

NAME: Indole-3-acetyl-L-glutamic acid
PRECURSORMZ: 303.09864514783
PRECURSORTYPE: [M-H]-
INSTRUMENTTYPE: LC-ESI-QTOF
SMILES: OC(=O)CCC(N=C(O)CC1=CNC2=CC=CC=C12)C(O)=O
INCHIKEY: YRKLGWOHYXIKSF-UHFFFAOYNA-N
Ontology: Glutamic acid and derivatives
COLLISIONENERGY: 10
FORMULA: C15H16N2O5
RETENTIONTIME: 4.117116
IONMODE: Negative
Comment: registered in RIKEN PlaSMA
Num Peaks: 25
82.03065	6
102.05536	349
103.05773	5
107.43254	5
128.03444	624
128.05008	15
128.66765	5
129.03703	38
129.05109	15
130.03629	12
131.5551	5
146.04454	880
146.08777	7
147.04134	10
147.05104	27
148.05208	26
156.0464	35
174.05476	222
175.05774	6
259.10382	32
259.11362	21
285.08411	59
285.09995	7
286.09149	19
303.09787	1000

NAME: 3',5'-Dimethoxy-4'-hydroxyacetophenone
PRECURSORMZ: 195.06628244783
PRECURSORTYPE: [M-H]-
INSTRUMENTTYPE: LC-ESI-QTOF
SMILES: COC1=CC(=CC(OC)=C1O)C(C)=O
INCHIKEY: OJOBTAOGJIWAGB-UHFFFAOYSA-N
Ontology: Alkyl-phenylketones
COLLISIONENERGY: 10
FORMULA: C10H12O4
RETENTIONTIME: 4.32835
IONMODE: Negative
Comment: registered in RIKEN PlaSMA
Num Peaks: 13
109.02905	39
137.02005	267
137.02869	89
138.02121	28
154.05496	43
165.01807	625
165.03445	26
166.02193	57
166.02711	25
180.04181	1000
181.04436	46
184.54924	32
195.06679	299

NAME: Indole-3-acetyl-L-glutamic acid
PRECURSORMZ: 303.09864514783
PRECURSORTYPE: [M-H]-
INSTRUMENTTYPE: LC-ESI-QTOF
SMILES: OC(=O)CCC(N=C(O)CC1=CNC2=CC=CC=C12)C(O)=O
INCHIKEY: YRKLGWOHYXIKSF-UHFFFAOYNA-N
Ontology: Glutamic acid and derivatives
COLLISIONENERGY: 10
FORMULA: C15H16N2O5
RETENTIONTIME: 4.117116
IONMODE: Negative
Comment: registered in RIKEN PlaSMA
Num Peaks: 10
128.03351	128
129.03479	6
146.04428	161
147.04527	7
174.05476	61
175.05881	8
259.10327	13
285.08591	70
286.08884	10
303.09732	1000

NAME: 3',5'-Dimethoxy-4'-hydroxyacetophenone
PRECURSORMZ: 195.06628244783
PRECURSORTYPE: [M-H]-
INSTRUMENTTYPE: LC-ESI-QTOF
SMILES: COC1=CC(=CC(OC)=C1O)C(C)=O
INCHIKEY: OJOBTAOGJIWAGB-UHFFFAOYSA-N
Ontology: Alkyl-phenylketones
COLLISIONENERGY: 10
FORMULA: C10H12O4
RETENTIONTIME: 4.32835
IONMODE: Negative
Comment: registered in RIKEN PlaSMA
Num Peaks: 8
165.01511	46
167.02557	6
180.04112	1000
181.03802	36
181.04855	70
182.46613	10
191.69249	7
195.06496	838

NAME: Indole-3-acetyl-L-glutamic acid
PRECURSORMZ: 303.09864514783
PRECURSORTYPE: [M-H]-
INSTRUMENTTYPE: LC-ESI-QTOF
SMILES: OC(=O)CCC(N=C(O)CC1=CNC2=CC=CC=C12)C(O)=O
INCHIKEY: YRKLGWOHYXIKSF-UHFFFAOYNA-N
Ontology: Glutamic acid and derivatives
COLLISIONENERGY: 30
FORMULA: C15H16N2O5
RETENTIONTIME: 4.117116
IONMODE: Negative
Comment: registered in RIKEN PlaSMA
Num Peaks: 14
84.03976	10
102.05412	1000
103.05208	14
103.0571	49
128.03435	714
129.04076	9
129.05032	17
130.06544	8
131.06987	10
146.04431	284
147.04317	7
147.05023	14
156.04536	16
177.5132	6

NAME: 3',5'-Dimethoxy-4'-hydroxyacetophenone
PRECURSORMZ: 195.06628244783
PRECURSORTYPE: [M-H]-
INSTRUMENTTYPE: LC-ESI-QTOF
SMILES: COC1=CC(=CC(OC)=C1O)C(C)=O
INCHIKEY: OJOBTAOGJIWAGB-UHFFFAOYSA-N
Ontology: Alkyl-phenylketones
COLLISIONENERGY: 30
FORMULA: C10H12O4
RETENTIONTIME: 4.32835
IONMODE: Negative
Comment: registered in RIKEN PlaSMA
Num Peaks: 13
65.03735	33
67.01647	125
81.03507	32
93.03477	89
95.01038	57
109.02825	439
137.02283	1000
138.02808	158
151.03656	48
165.01781	496
166.01549	32
167.02902	30
180.05409	52

NAME: Indole-3-acetyl-L-glutamic acid
PRECURSORMZ: 303.09864514783
PRECURSORTYPE: [M-H]-
INSTRUMENTTYPE: LC-ESI-QTOF
SMILES: OC(=O)CCC(N=C(O)CC1=CNC2=CC=CC=C12)C(O)=O
INCHIKEY: YRKLGWOHYXIKSF-UHFFFAOYNA-N
Ontology: Glutamic acid and derivatives
COLLISIONENERGY: 50
FORMULA: C15H16N2O5
RETENTIONTIME: 4.117116
IONMODE: Negative
Comment: registered in RIKEN PlaSMA
Num Peaks: 10
71.0095	66
82.02597	62
102.05392	1000
102.06421	87
116.04504	131
128.02948	73
128.03596	138
128.05072	149
129.05356	66
130.06616	62

NAME: Indole-3-acetyl-L-glutamic acid
PRECURSORMZ: 303.09864514783
PRECURSORTYPE: [M-H]-
INSTRUMENTTYPE: LC-ESI-QTOF
SMILES: OC(=O)CCC(N=C(O)CC1=CNC2=CC=CC=C12)C(O)=O
INCHIKEY: YRKLGWOHYXIKSF-UHFFFAOYNA-N
Ontology: Glutamic acid and derivatives
COLLISIONENERGY: 10
FORMULA: C15H16N2O5
RETENTIONTIME: 4.117116
IONMODE: Negative
Comment: registered in RIKEN PlaSMA
Num Peaks: 28
102.05452	307
116.05177	12
128.03421	766
128.04843	14
129.03957	28
130.03586	10
146.04427	858
147.04758	54
148.04727	5
156.0365	12
156.04523	62
157.04366	5
157.05052	7
165.37331	6
174.05469	142
175.05374	12
182.08047	6
231.07925	11
241.0925	6
242.10039	5
247.74606	5
259.10898	16
259.12338	5
285.08789	103
286.08524	10
287.08383	5
287.10117	5
303.09689	1000

NAME: 3',5'-Dimethoxy-4'-hydroxyacetophenone
PRECURSORMZ: 195.06628244783
PRECURSORTYPE: [M-H]-
INSTRUMENTTYPE: LC-ESI-QTOF
SMILES: COC1=CC(=CC(OC)=C1O)C(C)=O
INCHIKEY: OJOBTAOGJIWAGB-UHFFFAOYSA-N
Ontology: Alkyl-phenylketones
COLLISIONENERGY: 10
FORMULA: C10H12O4
RETENTIONTIME: 4.32835
IONMODE: Negative
Comment: registered in RIKEN PlaSMA
Num Peaks: 12
61.99074	34
93.03442	31
109.02728	75
125.87451	34
137.02611	172
149.45129	41
165.01808	845
166.02045	162
180.04216	1000
181.04561	136
195.06194	282
195.07184	146

NAME: Indole-3-acetyl-L-glutamic acid
PRECURSORMZ: 303.09864514783
PRECURSORTYPE: [M-H]-
INSTRUMENTTYPE: LC-ESI-QTOF
SMILES: OC(=O)CCC(N=C(O)CC1=CNC2=CC=CC=C12)C(O)=O
INCHIKEY: YRKLGWOHYXIKSF-UHFFFAOYNA-N
Ontology: Glutamic acid and derivatives
COLLISIONENERGY: 10
FORMULA: C15H16N2O5
RETENTIONTIME: 4.117116
IONMODE: Negative
Comment: registered in RIKEN PlaSMA
Num Peaks: 9
102.05527	15
128.03322	132
146.04483	169
147.04599	9
174.0537	68
259.10794	13
285.08658	66
286.08994	8
303.09708	1000

NAME: 3',5'-Dimethoxy-4'-hydroxyacetophenone
PRECURSORMZ: 195.06628244783
PRECURSORTYPE: [M-H]-
INSTRUMENTTYPE: LC-ESI-QTOF
SMILES: COC1=CC(=CC(OC)=C1O)C(C)=O
INCHIKEY: OJOBTAOGJIWAGB-UHFFFAOYSA-N
Ontology: Alkyl-phenylketones
COLLISIONENERGY: 10
FORMULA: C10H12O4
RETENTIONTIME: 4.32835
IONMODE: Negative
Comment: registered in RIKEN PlaSMA
Num Peaks: 13
83.859	9
98.60883	11
147.34093	10
151.9203	17
156.38142	8
165.01904	61
166.00813	9
180.04124	1000
180.09689	9
181.04573	74
182.04868	14
195.0656	839
195.13515	10

NAME: Indole-3-acetyl-L-glutamic acid
PRECURSORMZ: 303.09864514783
PRECURSORTYPE: [M-H]-
INSTRUMENTTYPE: LC-ESI-QTOF
SMILES: OC(=O)CCC(N=C(O)CC1=CNC2=CC=CC=C12)C(O)=O
INCHIKEY: YRKLGWOHYXIKSF-UHFFFAOYNA-N
Ontology: Glutamic acid and derivatives
COLLISIONENERGY: 30
FORMULA: C15H16N2O5
RETENTIONTIME: 4.117116
IONMODE: Negative
Comment: registered in RIKEN PlaSMA
Num Peaks: 25
74.0185	6
74.02422	5
84.04124	8
84.04615	18
93.42039	6
100.03934	16
102.05445	1000
103.03522	5
103.05228	5
103.05862	8
116.04796	9
128.03354	787
128.05292	26
128.1219	6
129.03242	11
129.039	19
129.05096	5
129.05753	10
130.06578	18
146.04338	277
146.85352	5
147.0488	26
147.0632	5
156.03784	15
156.04764	6

NAME: 3',5'-Dimethoxy-4'-hydroxyacetophenone
PRECURSORMZ: 195.06628244783
PRECURSORTYPE: [M-H]-
INSTRUMENTTYPE: LC-ESI-QTOF
SMILES: COC1=CC(=CC(OC)=C1O)C(C)=O
INCHIKEY: OJOBTAOGJIWAGB-UHFFFAOYSA-N
Ontology: Alkyl-phenylketones
COLLISIONENERGY: 30
FORMULA: C10H12O4
RETENTIONTIME: 4.32835
IONMODE: Negative
Comment: registered in RIKEN PlaSMA
Num Peaks: 8
67.01643	176
93.03417	83
108.01533	88
109.02203	111
110.03015	88
137.02266	1000
165.0143	176
166.01935	93

NAME: Indole-3-acetyl-L-glutamic acid
PRECURSORMZ: 303.09864514783
PRECURSORTYPE: [M-H]-
INSTRUMENTTYPE: LC-ESI-QTOF
SMILES: OC(=O)CCC(N=C(O)CC1=CNC2=CC=CC=C12)C(O)=O
INCHIKEY: YRKLGWOHYXIKSF-UHFFFAOYNA-N
Ontology: Glutamic acid and derivatives
COLLISIONENERGY: 50
FORMULA: C15H16N2O5
RETENTIONTIME: 4.117116
IONMODE: Negative
Comment: registered in RIKEN PlaSMA
Num Peaks: 8
74.02316	148
102.05502	1000
103.05833	114
104.06251	80
116.05419	106
128.03375	394
128.0463	76
130.0603	125

NAME: 3',5'-Dimethoxy-4'-hydroxyacetophenone
PRECURSORMZ: 195.06628244783
PRECURSORTYPE: [M-H]-
INSTRUMENTTYPE: LC-ESI-QTOF
SMILES: COC1=CC(=CC(OC)=C1O)C(C)=O
INCHIKEY: OJOBTAOGJIWAGB-UHFFFAOYSA-N
Ontology: Alkyl-phenylketones
COLLISIONENERGY: 50
FORMULA: C10H12O4
RETENTIONTIME: 4.32835
IONMODE: Negative
Comment: registered in RIKEN PlaSMA
Num Peaks: 1
109.02956	1000

NAME: cis-resveratrol
PRECURSORMZ: 227.07136774783
PRECURSORTYPE: [M-H]-
INSTRUMENTTYPE: LC-ESI-QTOF
SMILES: OC1=CC=C(C=CC2=CC(O)=CC(O)=C2)C=C1
INCHIKEY: LUKBXSAWLPMMSZ-UHFFFAOYSA-N
Ontology: Stilbenes
COLLISIONENERGY: 10
FORMULA: C14H12O3
RETENTIONTIME: 5.5891
IONMODE: Negative
Comment: registered in RIKEN PlaSMA
Num Peaks: 23
115.05165	6
115.05748	7
117.03465	13
119.04678	12
141.06636	7
141.07184	8
143.04865	156
144.04964	13
144.06194	6
156.0536	5
156.8495	5
157.06615	11
158.06271	7
159.08176	31
181.06319	13
182.06883	6
183.04565	6
183.07845	26
184.07782	6
185.05931	155
186.06087	13
186.06866	11
227.07048	1000

NAME: Indole-3-acetyl-L-phenylalanine
PRECURSORMZ: 321.12446594783
PRECURSORTYPE: [M-H]-
INSTRUMENTTYPE: LC-ESI-QTOF
SMILES: OC(CC1=CNC2=CC=CC=C12)=NC(CC1=CC=CC=C1)C(O)=O
INCHIKEY: BUGQHORRADGONS-UHFFFAOYNA-N
Ontology: Phenylalanine and derivatives
COLLISIONENERGY: 10
FORMULA: C19H18N2O3
RETENTIONTIME: 6.348617
IONMODE: Negative
Comment: registered in RIKEN PlaSMA
Num Peaks: 11
103.05319	50
147.04411	220
148.05128	24
156.04625	11
164.07019	1000
165.0739	95
166.06763	5
166.07674	8
173.06766	8
173.07527	5
321.12299	469

NAME: cis-resveratrol
PRECURSORMZ: 227.07136774783
PRECURSORTYPE: [M-H]-
INSTRUMENTTYPE: LC-ESI-QTOF
SMILES: OC1=CC=C(C=CC2=CC(O)=CC(O)=C2)C=C1
INCHIKEY: LUKBXSAWLPMMSZ-UHFFFAOYSA-N
Ontology: Stilbenes
COLLISIONENERGY: 10
FORMULA: C14H12O3
RETENTIONTIME: 5.5891
IONMODE: Negative
Comment: registered in RIKEN PlaSMA
Num Peaks: 2
185.05937	18
227.06999	1000

NAME: Indole-3-acetyl-L-phenylalanine
PRECURSORMZ: 321.12446594783
PRECURSORTYPE: [M-H]-
INSTRUMENTTYPE: LC-ESI-QTOF
SMILES: OC(CC1=CNC2=CC=CC=C12)=NC(CC1=CC=CC=C1)C(O)=O
INCHIKEY: BUGQHORRADGONS-UHFFFAOYNA-N
Ontology: Phenylalanine and derivatives
COLLISIONENERGY: 10
FORMULA: C19H18N2O3
RETENTIONTIME: 6.348617
IONMODE: Negative
Comment: registered in RIKEN PlaSMA
Num Peaks: 4
147.0441	6
164.07001	354
165.07343	38
321.12256	1000

NAME: cis-resveratrol
PRECURSORMZ: 227.07136774783
PRECURSORTYPE: [M-H]-
INSTRUMENTTYPE: LC-ESI-QTOF
SMILES: OC1=CC=C(C=CC2=CC(O)=CC(O)=C2)C=C1
INCHIKEY: LUKBXSAWLPMMSZ-UHFFFAOYSA-N
Ontology: Stilbenes
COLLISIONENERGY: 30
FORMULA: C14H12O3
RETENTIONTIME: 5.5891
IONMODE: Negative
Comment: registered in RIKEN PlaSMA
Num Peaks: 52
77.03758	12
93.03358	9
107.04688	7
114.04178	8
115.05219	70
116.05279	7
116.05782	7
116.0631	8
117.02638	16
117.03082	43
117.03651	30
117.04327	6
118.02677	7
119.04344	26
119.05099	6
126.04836	8
129.06917	7
138.93672	9
139.05272	9
141.06705	24
142.06902	7
143.04849	1000
144.05092	115
145.05688	7
153.07358	7
156.05927	25
157.0542	8
157.06201	22
158.07306	7
159.04236	8
159.07596	14
160.08026	14
160.089	9
161.06039	9
161.08154	7
167.04784	27
169.06911	7
180.04622	7
180.05667	17
181.05171	7
181.063	55
181.07172	13
182.07385	55
183.03192	9
183.04056	16
183.07498	19
184.04541	24
184.06136	7
185.0602	51
197.05064	10
197.05658	7
227.07532	7

NAME: Indole-3-acetyl-L-phenylalanine
PRECURSORMZ: 321.12446594783
PRECURSORTYPE: [M-H]-
INSTRUMENTTYPE: LC-ESI-QTOF
SMILES: OC(CC1=CNC2=CC=CC=C12)=NC(CC1=CC=CC=C1)C(O)=O
INCHIKEY: BUGQHORRADGONS-UHFFFAOYNA-N
Ontology: Phenylalanine and derivatives
COLLISIONENERGY: 30
FORMULA: C19H18N2O3
RETENTIONTIME: 6.348617
IONMODE: Negative
Comment: registered in RIKEN PlaSMA
Num Peaks: 16
72.00711	72
91.05233	7
103.05364	263
104.05238	10
104.06056	11
128.04218	10
128.04729	33
130.06506	21
146.06062	11
147.04303	1000
148.04712	74
149.04956	7
158.05817	10
164.06985	739
165.07436	58
169.0753	5

NAME: cis-resveratrol
PRECURSORMZ: 227.07136774783
PRECURSORTYPE: [M-H]-
INSTRUMENTTYPE: LC-ESI-QTOF
SMILES: OC1=CC=C(C=CC2=CC(O)=CC(O)=C2)C=C1
INCHIKEY: LUKBXSAWLPMMSZ-UHFFFAOYSA-N
Ontology: Stilbenes
COLLISIONENERGY: 50
FORMULA: C14H12O3
RETENTIONTIME: 5.5891
IONMODE: Negative
Comment: registered in RIKEN PlaSMA
Num Peaks: 6
77.03898	280
89.03298	256
93.03532	268
103.04962	305
115.05321	1000
117.02795	220

NAME: Indole-3-acetyl-L-phenylalanine
PRECURSORMZ: 321.12446594783
PRECURSORTYPE: [M-H]-
INSTRUMENTTYPE: LC-ESI-QTOF
SMILES: OC(CC1=CNC2=CC=CC=C12)=NC(CC1=CC=CC=C1)C(O)=O
INCHIKEY: BUGQHORRADGONS-UHFFFAOYNA-N
Ontology: Phenylalanine and derivatives
COLLISIONENERGY: 50
FORMULA: C19H18N2O3
RETENTIONTIME: 6.348617
IONMODE: Negative
Comment: registered in RIKEN PlaSMA
Num Peaks: 14
72.00229	69
72.00665	116
91.05162	53
103.05428	1000
128.04202	53
130.04318	53
130.06317	87
147.03403	61
147.04312	460
148.0417	66
157.04938	53
158.0562	53
165.07642	53
176.03398	48

NAME: cis-resveratrol
PRECURSORMZ: 227.07136774783
PRECURSORTYPE: [M-H]-
INSTRUMENTTYPE: LC-ESI-QTOF
SMILES: OC1=CC=C(C=CC2=CC(O)=CC(O)=C2)C=C1
INCHIKEY: LUKBXSAWLPMMSZ-UHFFFAOYSA-N
Ontology: Stilbenes
COLLISIONENERGY: 10
FORMULA: C14H12O3
RETENTIONTIME: 5.5891
IONMODE: Negative
Comment: registered in RIKEN PlaSMA
Num Peaks: 16
117.03178	8
119.04917	20
143.0491	175
144.0499	7
144.05847	10
145.02635	10
157.0638	16
159.07983	30
181.06311	11
182.07378	12
183.07944	46
185.05974	167
186.0659	14
225.05138	5
226.06398	7
227.07004	1000

NAME: Indole-3-acetyl-L-phenylalanine
PRECURSORMZ: 321.12446594783
PRECURSORTYPE: [M-H]-
INSTRUMENTTYPE: LC-ESI-QTOF
SMILES: OC(CC1=CNC2=CC=CC=C12)=NC(CC1=CC=CC=C1)C(O)=O
INCHIKEY: BUGQHORRADGONS-UHFFFAOYNA-N
Ontology: Phenylalanine and derivatives
COLLISIONENERGY: 10
FORMULA: C19H18N2O3
RETENTIONTIME: 6.348617
IONMODE: Negative
Comment: registered in RIKEN PlaSMA
Num Peaks: 12
103.05389	38
104.0611	10
147.04358	239
148.04156	9
148.04988	11
149.05284	6
156.04764	6
164.07054	1000
165.07243	90
166.07848	7
277.12973	7
321.12372	415

NAME: cis-resveratrol
PRECURSORMZ: 227.07136774783
PRECURSORTYPE: [M-H]-
INSTRUMENTTYPE: LC-ESI-QTOF
SMILES: OC1=CC=C(C=CC2=CC(O)=CC(O)=C2)C=C1
INCHIKEY: LUKBXSAWLPMMSZ-UHFFFAOYSA-N
Ontology: Stilbenes
COLLISIONENERGY: 10
FORMULA: C14H12O3
RETENTIONTIME: 5.5891
IONMODE: Negative
Comment: registered in RIKEN PlaSMA
Num Peaks: 5
183.08095	7
185.05434	7
185.06239	10
186.06001	5
227.06879	1000

NAME: Indole-3-acetyl-L-phenylalanine
PRECURSORMZ: 321.12446594783
PRECURSORTYPE: [M-H]-
INSTRUMENTTYPE: LC-ESI-QTOF
SMILES: OC(CC1=CNC2=CC=CC=C12)=NC(CC1=CC=CC=C1)C(O)=O
INCHIKEY: BUGQHORRADGONS-UHFFFAOYNA-N
Ontology: Phenylalanine and derivatives
COLLISIONENERGY: 10
FORMULA: C19H18N2O3
RETENTIONTIME: 6.348617
IONMODE: Negative
Comment: registered in RIKEN PlaSMA
Num Peaks: 4
147.04625	7
164.07027	366
165.07419	32
321.12323	1000

NAME: cis-resveratrol
PRECURSORMZ: 227.07136774783
PRECURSORTYPE: [M-H]-
INSTRUMENTTYPE: LC-ESI-QTOF
SMILES: OC1=CC=C(C=CC2=CC(O)=CC(O)=C2)C=C1
INCHIKEY: LUKBXSAWLPMMSZ-UHFFFAOYSA-N
Ontology: Stilbenes
COLLISIONENERGY: 30
FORMULA: C14H12O3
RETENTIONTIME: 5.5891
IONMODE: Negative
Comment: registered in RIKEN PlaSMA
Num Peaks: 43
64.99952	7
83.00963	6
93.03612	15
115.04917	59
115.0556	69
116.0587	21
117.03258	64
117.03981	30
118.0434	8
119.05013	51
121.02879	7
128.06186	7
129.06995	8
141.0636	13
142.03548	6
142.07318	6
143.04854	1000
144.04405	30
144.05295	115
145.93297	8
153.07274	7
156.05502	8
157.06514	47
157.07509	11
158.06813	6
159.08321	39
160.08237	7
167.05055	26
180.05623	7
181.06683	62
182.07071	29
182.07808	29
183.04488	14
183.07751	17
183.08546	9
184.04561	8
184.08598	8
185.04994	11
185.05988	59
186.06848	7
208.05682	7
225.06761	6
226.05743	7

NAME: Indole-3-acetyl-L-phenylalanine
PRECURSORMZ: 321.12446594783
PRECURSORTYPE: [M-H]-
INSTRUMENTTYPE: LC-ESI-QTOF
SMILES: OC(CC1=CNC2=CC=CC=C12)=NC(CC1=CC=CC=C1)C(O)=O
INCHIKEY: BUGQHORRADGONS-UHFFFAOYNA-N
Ontology: Phenylalanine and derivatives
COLLISIONENERGY: 30
FORMULA: C19H18N2O3
RETENTIONTIME: 6.348617
IONMODE: Negative
Comment: registered in RIKEN PlaSMA
Num Peaks: 13
72.00815	66
91.05334	15
103.05416	309
104.05997	18
128.04906	25
130.06416	9
146.06519	8
147.04388	1000
148.04759	102
156.04195	5
158.04904	5
164.07025	682
165.07423	47

NAME: cis-resveratrol
PRECURSORMZ: 227.07136774783
PRECURSORTYPE: [M-H]-
INSTRUMENTTYPE: LC-ESI-QTOF
SMILES: OC1=CC=C(C=CC2=CC(O)=CC(O)=C2)C=C1
INCHIKEY: LUKBXSAWLPMMSZ-UHFFFAOYSA-N
Ontology: Stilbenes
COLLISIONENERGY: 50
FORMULA: C14H12O3
RETENTIONTIME: 5.5891
IONMODE: Negative
Comment: registered in RIKEN PlaSMA
Num Peaks: 7
93.03328	273
115.05583	165
116.03156	182
117.03122	298
119.04732	174
143.0495	1000
143.05942	198

NAME: Indole-3-acetyl-L-phenylalanine
PRECURSORMZ: 321.12446594783
PRECURSORTYPE: [M-H]-
INSTRUMENTTYPE: LC-ESI-QTOF
SMILES: OC(CC1=CNC2=CC=CC=C12)=NC(CC1=CC=CC=C1)C(O)=O
INCHIKEY: BUGQHORRADGONS-UHFFFAOYNA-N
Ontology: Phenylalanine and derivatives
COLLISIONENERGY: 50
FORMULA: C19H18N2O3
RETENTIONTIME: 6.348617
IONMODE: Negative
Comment: registered in RIKEN PlaSMA
Num Peaks: 18
72.00743	313
91.05441	43
103.05419	1000
104.05826	83
105.06365	39
117.0549	35
118.0582	33
128.04604	119
128.05222	57
128.06331	33
130.06114	33
142.06216	33
147.04208	317
147.0509	63
148.05193	39
158.06042	33
228.82887	37
314.26096	37

NAME: cis-resveratrol
PRECURSORMZ: 227.07136774783
PRECURSORTYPE: [M-H]-
INSTRUMENTTYPE: LC-ESI-QTOF
SMILES: OC1=CC=C(C=CC2=CC(O)=CC(O)=C2)C=C1
INCHIKEY: LUKBXSAWLPMMSZ-UHFFFAOYSA-N
Ontology: Stilbenes
COLLISIONENERGY: 10
FORMULA: C14H12O3
RETENTIONTIME: 5.5891
IONMODE: Negative
Comment: registered in RIKEN PlaSMA
Num Peaks: 15
117.02969	8
119.04862	12
141.06999	9
143.04929	176
144.054	20
145.03297	6
157.06631	35
159.08083	27
181.06648	12
183.08228	34
184.08507	5
185.05959	137
186.06303	11
225.0536	6
227.07025	1000

NAME: Indole-3-acetyl-L-phenylalanine
PRECURSORMZ: 321.12446594783
PRECURSORTYPE: [M-H]-
INSTRUMENTTYPE: LC-ESI-QTOF
SMILES: OC(CC1=CNC2=CC=CC=C12)=NC(CC1=CC=CC=C1)C(O)=O
INCHIKEY: BUGQHORRADGONS-UHFFFAOYNA-N
Ontology: Phenylalanine and derivatives
COLLISIONENERGY: 10
FORMULA: C19H18N2O3
RETENTIONTIME: 6.348617
IONMODE: Negative
Comment: registered in RIKEN PlaSMA
Num Peaks: 9
103.05406	43
147.04375	223
148.04483	8
148.05154	6
164.07013	1000
165.073	102
173.07494	5
277.14105	6
321.1235	456

NAME: cis-resveratrol
PRECURSORMZ: 227.07136774783
PRECURSORTYPE: [M-H]-
INSTRUMENTTYPE: LC-ESI-QTOF
SMILES: OC1=CC=C(C=CC2=CC(O)=CC(O)=C2)C=C1
INCHIKEY: LUKBXSAWLPMMSZ-UHFFFAOYSA-N
Ontology: Stilbenes
COLLISIONENERGY: 10
FORMULA: C14H12O3
RETENTIONTIME: 5.5891
IONMODE: Negative
Comment: registered in RIKEN PlaSMA
Num Peaks: 3
157.06166	6
185.05714	9
227.06932	1000

NAME: Indole-3-acetyl-L-phenylalanine
PRECURSORMZ: 321.12446594783
PRECURSORTYPE: [M-H]-
INSTRUMENTTYPE: LC-ESI-QTOF
SMILES: OC(CC1=CNC2=CC=CC=C12)=NC(CC1=CC=CC=C1)C(O)=O
INCHIKEY: BUGQHORRADGONS-UHFFFAOYNA-N
Ontology: Phenylalanine and derivatives
COLLISIONENERGY: 10
FORMULA: C19H18N2O3
RETENTIONTIME: 6.348617
IONMODE: Negative
Comment: registered in RIKEN PlaSMA
Num Peaks: 5
156.04272	6
164.07004	392
165.07394	36
173.07004	6
321.12296	1000

NAME: cis-resveratrol
PRECURSORMZ: 227.07136774783
PRECURSORTYPE: [M-H]-
INSTRUMENTTYPE: LC-ESI-QTOF
SMILES: OC1=CC=C(C=CC2=CC(O)=CC(O)=C2)C=C1
INCHIKEY: LUKBXSAWLPMMSZ-UHFFFAOYSA-N
Ontology: Stilbenes
COLLISIONENERGY: 30
FORMULA: C14H12O3
RETENTIONTIME: 5.5891
IONMODE: Negative
Comment: registered in RIKEN PlaSMA
Num Peaks: 44
90.04091	9
93.03133	18
115.04993	48
115.0563	59
116.06617	8
117.02614	41
117.04002	9
117.06097	7
118.03964	8
119.04205	16
119.04932	26
132.02164	10
141.03394	8
141.07408	9
142.04187	30
143.04883	1000
143.06215	7
143.43108	9
144.05232	106
145.0528	16
154.06496	8
154.98642	8
156.05249	16
157.05876	11
157.0648	28
157.07462	8
159.0826	27
160.08203	9
166.03029	7
170.03113	10
171.07608	7
180.05695	15
181.06195	35
181.07108	16
182.07448	50
183.04105	21
183.05684	8
183.08324	18
184.04428	7
184.05527	7
185.06017	34
185.06914	9
197.05225	10
197.06093	8

NAME: Indole-3-acetyl-L-phenylalanine
PRECURSORMZ: 321.12446594783
PRECURSORTYPE: [M-H]-
INSTRUMENTTYPE: LC-ESI-QTOF
SMILES: OC(CC1=CNC2=CC=CC=C12)=NC(CC1=CC=CC=C1)C(O)=O
INCHIKEY: BUGQHORRADGONS-UHFFFAOYNA-N
Ontology: Phenylalanine and derivatives
COLLISIONENERGY: 30
FORMULA: C19H18N2O3
RETENTIONTIME: 6.348617
IONMODE: Negative
Comment: registered in RIKEN PlaSMA
Num Peaks: 13
72.00705	67
91.05433	16
103.05372	287
104.05637	22
128.04707	22
131.06728	6
146.06436	6
147.04362	1000
148.04672	85
149.04787	17
164.06992	750
165.07382	82
166.076	6

NAME: cis-resveratrol
PRECURSORMZ: 227.07136774783
PRECURSORTYPE: [M-H]-
INSTRUMENTTYPE: LC-ESI-QTOF
SMILES: OC1=CC=C(C=CC2=CC(O)=CC(O)=C2)C=C1
INCHIKEY: LUKBXSAWLPMMSZ-UHFFFAOYSA-N
Ontology: Stilbenes
COLLISIONENERGY: 50
FORMULA: C14H12O3
RETENTIONTIME: 5.5891
IONMODE: Negative
Comment: registered in RIKEN PlaSMA
Num Peaks: 8
93.03274	207
115.05898	162
117.03278	162
119.04912	279
121.03302	162
143.04787	1000
144.05629	180
158.06865	162

NAME: Indole-3-acetyl-L-phenylalanine
PRECURSORMZ: 321.12446594783
PRECURSORTYPE: [M-H]-
INSTRUMENTTYPE: LC-ESI-QTOF
SMILES: OC(CC1=CNC2=CC=CC=C12)=NC(CC1=CC=CC=C1)C(O)=O
INCHIKEY: BUGQHORRADGONS-UHFFFAOYNA-N
Ontology: Phenylalanine and derivatives
COLLISIONENERGY: 50
FORMULA: C19H18N2O3
RETENTIONTIME: 6.348617
IONMODE: Negative
Comment: registered in RIKEN PlaSMA
Num Peaks: 8
72.008	41
91.05029	36
103.05314	1000
146.05923	32
147.03886	131
147.04659	189
149.05809	36
164.07452	36

NAME: alpha,beta-Dihydroresveratrol
PRECURSORMZ: 229.08701784783
PRECURSORTYPE: [M-H]-
INSTRUMENTTYPE: LC-ESI-QTOF
SMILES: OC1=CC=C(CCC2=CC(O)=CC(O)=C2)C=C1
INCHIKEY: HITJFUSPLYBJPE-UHFFFAOYSA-N
Ontology: Stilbenes
COLLISIONENERGY: 10
FORMULA: C14H14O3
RETENTIONTIME: 5.146616
IONMODE: Negative
Comment: registered in RIKEN PlaSMA
Num Peaks: 10
81.03139	82
82.04278	19
106.03854	19
122.03857	52
123.04428	1000
124.04499	51
124.05233	20
229.08675	622
229.11224	8
229.13614	8

NAME: alpha,beta-Dihydroresveratrol
PRECURSORMZ: 275.09249715183
PRECURSORTYPE: [M+FA-H]-
INSTRUMENTTYPE: LC-ESI-QTOF
SMILES: OC1=CC=C(CCC2=CC(O)=CC(O)=C2)C=C1
INCHIKEY: HITJFUSPLYBJPE-UHFFFAOYSA-N
Ontology: Stilbenes
COLLISIONENERGY: 10
FORMULA: C14H14O3
RETENTIONTIME: 5.146616
IONMODE: Negative
Comment: registered in RIKEN PlaSMA
Num Peaks: 6
123.04089	592
137.02258	263
175.06631	342
229.07965	1000
229.09041	553
230.09238	263

NAME: Triacetyl resveratrol
PRECURSORMZ: 353.10306184783
PRECURSORTYPE: [M-H]-
INSTRUMENTTYPE: LC-ESI-QTOF
SMILES: CC(=O)OC1=CC=C(C=CC2=CC(OC(C)=O)=CC(OC(C)=O)=C2)C=C1
INCHIKEY: PDAYUJSOJIMKIS-UHFFFAOYSA-N
Ontology: Stilbenes
COLLISIONENERGY: 10
FORMULA: C20H18O6
RETENTIONTIME: 8.4574
IONMODE: Negative
Comment: registered in RIKEN PlaSMA
Num Peaks: 8
161.02776	151
225.05412	143
269.08493	1000
270.08633	294
311.07416	183
312.09088	175
353.09302	389
353.11084	151

NAME: alpha,beta-Dihydroresveratrol
PRECURSORMZ: 229.08701784783
PRECURSORTYPE: [M-H]-
INSTRUMENTTYPE: LC-ESI-QTOF
SMILES: OC1=CC=C(CCC2=CC(O)=CC(O)=C2)C=C1
INCHIKEY: HITJFUSPLYBJPE-UHFFFAOYSA-N
Ontology: Stilbenes
COLLISIONENERGY: 10
FORMULA: C14H14O3
RETENTIONTIME: 5.146616
IONMODE: Negative
Comment: registered in RIKEN PlaSMA
Num Peaks: 4
123.04391	322
124.04429	26
125.05158	6
229.08572	1000

NAME: alpha,beta-Dihydroresveratrol
PRECURSORMZ: 275.09249715183
PRECURSORTYPE: [M+FA-H]-
INSTRUMENTTYPE: LC-ESI-QTOF
SMILES: OC1=CC=C(CCC2=CC(O)=CC(O)=C2)C=C1
INCHIKEY: HITJFUSPLYBJPE-UHFFFAOYSA-N
Ontology: Stilbenes
COLLISIONENERGY: 10
FORMULA: C14H14O3
RETENTIONTIME: 5.146616
IONMODE: Negative
Comment: registered in RIKEN PlaSMA
Num Peaks: 4
229.08702	1000
230.0934	80
275.08844	66
275.09708	181

NAME: Triacetyl resveratrol
PRECURSORMZ: 353.10306184783
PRECURSORTYPE: [M-H]-
INSTRUMENTTYPE: LC-ESI-QTOF
SMILES: CC(=O)OC1=CC=C(C=CC2=CC(OC(C)=O)=CC(OC(C)=O)=C2)C=C1
INCHIKEY: PDAYUJSOJIMKIS-UHFFFAOYSA-N
Ontology: Stilbenes
COLLISIONENERGY: 10
FORMULA: C20H18O6
RETENTIONTIME: 8.4574
IONMODE: Negative
Comment: registered in RIKEN PlaSMA
Num Peaks: 5
198.20615	58
269.07858	69
311.09225	86
311.10089	50
353.10501	1000

NAME: alpha,beta-Dihydroresveratrol
PRECURSORMZ: 229.08701784783
PRECURSORTYPE: [M-H]-
INSTRUMENTTYPE: LC-ESI-QTOF
SMILES: OC1=CC=C(CCC2=CC(O)=CC(O)=C2)C=C1
INCHIKEY: HITJFUSPLYBJPE-UHFFFAOYSA-N
Ontology: Stilbenes
COLLISIONENERGY: 30
FORMULA: C14H14O3
RETENTIONTIME: 5.146616
IONMODE: Negative
Comment: registered in RIKEN PlaSMA
Num Peaks: 11
64.99987	24
79.05881	32
81.03239	1000
83.02062	24
106.04025	29
119.0422	27
120.05525	24
122.0328	61
123.03947	253
123.04807	195
124.05057	39

NAME: alpha,beta-Dihydroresveratrol
PRECURSORMZ: 275.09249715183
PRECURSORTYPE: [M+FA-H]-
INSTRUMENTTYPE: LC-ESI-QTOF
SMILES: OC1=CC=C(CCC2=CC(O)=CC(O)=C2)C=C1
INCHIKEY: HITJFUSPLYBJPE-UHFFFAOYSA-N
Ontology: Stilbenes
COLLISIONENERGY: 30
FORMULA: C14H14O3
RETENTIONTIME: 5.146616
IONMODE: Negative
Comment: registered in RIKEN PlaSMA
Num Peaks: 2
81.03023	377
123.04178	1000

NAME: Triacetyl resveratrol
PRECURSORMZ: 353.10306184783
PRECURSORTYPE: [M-H]-
INSTRUMENTTYPE: LC-ESI-QTOF
SMILES: CC(=O)OC1=CC=C(C=CC2=CC(OC(C)=O)=CC(OC(C)=O)=C2)C=C1
INCHIKEY: PDAYUJSOJIMKIS-UHFFFAOYSA-N
Ontology: Stilbenes
COLLISIONENERGY: 30
FORMULA: C20H18O6
RETENTIONTIME: 8.4574
IONMODE: Negative
Comment: registered in RIKEN PlaSMA
Num Peaks: 16
81.03336	141
130.0403	147
143.04514	224
149.01994	194
159.07758	106
162.02939	112
182.06128	118
186.06238	118
199.07939	112
209.05655	112
224.08485	106
227.01247	118
228.08138	118
253.04405	118
269.08035	1000
311.08414	141

NAME: alpha,beta-Dihydroresveratrol
PRECURSORMZ: 275.09249715183
PRECURSORTYPE: [M+FA-H]-
INSTRUMENTTYPE: LC-ESI-QTOF
SMILES: OC1=CC=C(CCC2=CC(O)=CC(O)=C2)C=C1
INCHIKEY: HITJFUSPLYBJPE-UHFFFAOYSA-N
Ontology: Stilbenes
COLLISIONENERGY: 50
FORMULA: C14H14O3
RETENTIONTIME: 5.146616
IONMODE: Negative
Comment: registered in RIKEN PlaSMA
Num Peaks: 1
81.03687	1000

NAME: Triacetyl resveratrol
PRECURSORMZ: 353.10306184783
PRECURSORTYPE: [M-H]-
INSTRUMENTTYPE: LC-ESI-QTOF
SMILES: CC(=O)OC1=CC=C(C=CC2=CC(OC(C)=O)=CC(OC(C)=O)=C2)C=C1
INCHIKEY: PDAYUJSOJIMKIS-UHFFFAOYSA-N
Ontology: Stilbenes
COLLISIONENERGY: 50
FORMULA: C20H18O6
RETENTIONTIME: 8.4574
IONMODE: Negative
Comment: registered in RIKEN PlaSMA
Num Peaks: 9
99.92188	383
144.04469	404
153.06633	447
156.05368	426
160.02092	383
174.03249	383
180.06004	1000
194.07249	426
226.06146	489

NAME: alpha,beta-Dihydroresveratrol
PRECURSORMZ: 229.08701784783
PRECURSORTYPE: [M-H]-
INSTRUMENTTYPE: LC-ESI-QTOF
SMILES: OC1=CC=C(CCC2=CC(O)=CC(O)=C2)C=C1
INCHIKEY: HITJFUSPLYBJPE-UHFFFAOYSA-N
Ontology: Stilbenes
COLLISIONENERGY: 10
FORMULA: C14H14O3
RETENTIONTIME: 5.146616
IONMODE: Negative
Comment: registered in RIKEN PlaSMA
Num Peaks: 13
81.0248	7
81.03419	83
106.03818	16
106.04499	8
122.03122	10
122.03833	16
123.04355	1000
124.04541	82
125.04803	8
132.85347	8
162.80913	11
187.07541	7
229.08607	732

NAME: alpha,beta-Dihydroresveratrol
PRECURSORMZ: 275.09249715183
PRECURSORTYPE: [M+FA-H]-
INSTRUMENTTYPE: LC-ESI-QTOF
SMILES: OC1=CC=C(CCC2=CC(O)=CC(O)=C2)C=C1
INCHIKEY: HITJFUSPLYBJPE-UHFFFAOYSA-N
Ontology: Stilbenes
COLLISIONENERGY: 10
FORMULA: C14H14O3
RETENTIONTIME: 5.146616
IONMODE: Negative
Comment: registered in RIKEN PlaSMA
Num Peaks: 5
123.03883	110
123.04511	120
229.08365	1000
229.09843	110
230.08501	99

NAME: Triacetyl resveratrol
PRECURSORMZ: 353.10306184783
PRECURSORTYPE: [M-H]-
INSTRUMENTTYPE: LC-ESI-QTOF
SMILES: CC(=O)OC1=CC=C(C=CC2=CC(OC(C)=O)=CC(OC(C)=O)=C2)C=C1
INCHIKEY: PDAYUJSOJIMKIS-UHFFFAOYSA-N
Ontology: Stilbenes
COLLISIONENERGY: 10
FORMULA: C20H18O6
RETENTIONTIME: 8.4574
IONMODE: Negative
Comment: registered in RIKEN PlaSMA
Num Peaks: 15
121.02897	136
163.03252	175
208.03957	130
210.06465	156
224.07843	123
225.09244	117
227.06683	292
235.08623	162
269.07809	240
269.09393	117
270.06934	117
293.08746	123
311.09369	117
353.08328	130
353.10242	1000

NAME: alpha,beta-Dihydroresveratrol
PRECURSORMZ: 229.08701784783
PRECURSORTYPE: [M-H]-
INSTRUMENTTYPE: LC-ESI-QTOF
SMILES: OC1=CC=C(CCC2=CC(O)=CC(O)=C2)C=C1
INCHIKEY: HITJFUSPLYBJPE-UHFFFAOYSA-N
Ontology: Stilbenes
COLLISIONENERGY: 10
FORMULA: C14H14O3
RETENTIONTIME: 5.146616
IONMODE: Negative
Comment: registered in RIKEN PlaSMA
Num Peaks: 3
123.04385	305
124.04688	14
229.08594	1000

NAME: alpha,beta-Dihydroresveratrol
PRECURSORMZ: 275.09249715183
PRECURSORTYPE: [M+FA-H]-
INSTRUMENTTYPE: LC-ESI-QTOF
SMILES: OC1=CC=C(CCC2=CC(O)=CC(O)=C2)C=C1
INCHIKEY: HITJFUSPLYBJPE-UHFFFAOYSA-N
Ontology: Stilbenes
COLLISIONENERGY: 10
FORMULA: C14H14O3
RETENTIONTIME: 5.146616
IONMODE: Negative
Comment: registered in RIKEN PlaSMA
Num Peaks: 2
159.07817	69
229.08719	1000

NAME: Triacetyl resveratrol
PRECURSORMZ: 353.10306184783
PRECURSORTYPE: [M-H]-
INSTRUMENTTYPE: LC-ESI-QTOF
SMILES: CC(=O)OC1=CC=C(C=CC2=CC(OC(C)=O)=CC(OC(C)=O)=C2)C=C1
INCHIKEY: PDAYUJSOJIMKIS-UHFFFAOYSA-N
Ontology: Stilbenes
COLLISIONENERGY: 10
FORMULA: C20H18O6
RETENTIONTIME: 8.4574
IONMODE: Negative
Comment: registered in RIKEN PlaSMA
Num Peaks: 6
269.08456	45
270.09668	71
271.08731	48
311.08496	57
311.11008	79
353.10483	1000

NAME: alpha,beta-Dihydroresveratrol
PRECURSORMZ: 229.08701784783
PRECURSORTYPE: [M-H]-
INSTRUMENTTYPE: LC-ESI-QTOF
SMILES: OC1=CC=C(CCC2=CC(O)=CC(O)=C2)C=C1
INCHIKEY: HITJFUSPLYBJPE-UHFFFAOYSA-N
Ontology: Stilbenes
COLLISIONENERGY: 30
FORMULA: C14H14O3
RETENTIONTIME: 5.146616
IONMODE: Negative
Comment: registered in RIKEN PlaSMA
Num Peaks: 6
81.03271	1000
82.03769	50
83.03799	56
122.03348	223
123.04408	359
173.05405	28

NAME: alpha,beta-Dihydroresveratrol
PRECURSORMZ: 275.09249715183
PRECURSORTYPE: [M+FA-H]-
INSTRUMENTTYPE: LC-ESI-QTOF
SMILES: OC1=CC=C(CCC2=CC(O)=CC(O)=C2)C=C1
INCHIKEY: HITJFUSPLYBJPE-UHFFFAOYSA-N
Ontology: Stilbenes
COLLISIONENERGY: 30
FORMULA: C14H14O3
RETENTIONTIME: 5.146616
IONMODE: Negative
Comment: registered in RIKEN PlaSMA
Num Peaks: 4
81.03397	441
123.04485	1000
124.04589	176
173.06017	186

NAME: Triacetyl resveratrol
PRECURSORMZ: 353.10306184783
PRECURSORTYPE: [M-H]-
INSTRUMENTTYPE: LC-ESI-QTOF
SMILES: CC(=O)OC1=CC=C(C=CC2=CC(OC(C)=O)=CC(OC(C)=O)=C2)C=C1
INCHIKEY: PDAYUJSOJIMKIS-UHFFFAOYSA-N
Ontology: Stilbenes
COLLISIONENERGY: 30
FORMULA: C20H18O6
RETENTIONTIME: 8.4574
IONMODE: Negative
Comment: registered in RIKEN PlaSMA
Num Peaks: 10
118.04047	157
143.05139	134
183.07965	164
185.06244	418
186.06265	164
225.08966	149
227.07454	627
269.08322	1000
269.09171	381
270.08023	284

NAME: alpha,beta-Dihydroresveratrol
PRECURSORMZ: 229.08701784783
PRECURSORTYPE: [M-H]-
INSTRUMENTTYPE: LC-ESI-QTOF
SMILES: OC1=CC=C(CCC2=CC(O)=CC(O)=C2)C=C1
INCHIKEY: HITJFUSPLYBJPE-UHFFFAOYSA-N
Ontology: Stilbenes
COLLISIONENERGY: 50
FORMULA: C14H14O3
RETENTIONTIME: 5.146616
IONMODE: Negative
Comment: registered in RIKEN PlaSMA
Num Peaks: 3
78.04838	509
81.02996	1000
121.0272	333

NAME: alpha,beta-Dihydroresveratrol
PRECURSORMZ: 275.09249715183
PRECURSORTYPE: [M+FA-H]-
INSTRUMENTTYPE: LC-ESI-QTOF
SMILES: OC1=CC=C(CCC2=CC(O)=CC(O)=C2)C=C1
INCHIKEY: HITJFUSPLYBJPE-UHFFFAOYSA-N
Ontology: Stilbenes
COLLISIONENERGY: 50
FORMULA: C14H14O3
RETENTIONTIME: 5.146616
IONMODE: Negative
Comment: registered in RIKEN PlaSMA
Num Peaks: 1
122.03783	1000

NAME: Triacetyl resveratrol
PRECURSORMZ: 353.10306184783
PRECURSORTYPE: [M-H]-
INSTRUMENTTYPE: LC-ESI-QTOF
SMILES: CC(=O)OC1=CC=C(C=CC2=CC(OC(C)=O)=CC(OC(C)=O)=C2)C=C1
INCHIKEY: PDAYUJSOJIMKIS-UHFFFAOYSA-N
Ontology: Stilbenes
COLLISIONENERGY: 50
FORMULA: C20H18O6
RETENTIONTIME: 8.4574
IONMODE: Negative
Comment: registered in RIKEN PlaSMA
Num Peaks: 17
83.01058	564
83.01561	538
93.03087	462
117.03004	538
117.03596	538
120.05051	462
131.04701	538
133.06657	744
143.0482	538
161.02312	487
169.06114	590
181.06413	462
185.05957	513
197.05804	1000
198.05934	513
207.04832	462
223.08145	513

NAME: alpha,beta-Dihydroresveratrol
PRECURSORMZ: 229.08701784783
PRECURSORTYPE: [M-H]-
INSTRUMENTTYPE: LC-ESI-QTOF
SMILES: OC1=CC=C(CCC2=CC(O)=CC(O)=C2)C=C1
INCHIKEY: HITJFUSPLYBJPE-UHFFFAOYSA-N
Ontology: Stilbenes
COLLISIONENERGY: 10
FORMULA: C14H14O3
RETENTIONTIME: 5.146616
IONMODE: Negative
Comment: registered in RIKEN PlaSMA
Num Peaks: 13
65.04271	9
81.03425	138
82.0388	10
106.04368	19
109.02326	8
121.0311	20
122.03143	10
123.04333	1000
123.06028	14
124.0461	87
204.45282	9
220.41336	8
229.08728	693

NAME: alpha,beta-Dihydroresveratrol
PRECURSORMZ: 275.09249715183
PRECURSORTYPE: [M+FA-H]-
INSTRUMENTTYPE: LC-ESI-QTOF
SMILES: OC1=CC=C(CCC2=CC(O)=CC(O)=C2)C=C1
INCHIKEY: HITJFUSPLYBJPE-UHFFFAOYSA-N
Ontology: Stilbenes
COLLISIONENERGY: 10
FORMULA: C14H14O3
RETENTIONTIME: 5.146616
IONMODE: Negative
Comment: registered in RIKEN PlaSMA
Num Peaks: 4
122.03313	131
123.04151	474
229.09045	1000
230.09038	445

NAME: Triacetyl resveratrol
PRECURSORMZ: 353.10306184783
PRECURSORTYPE: [M-H]-
INSTRUMENTTYPE: LC-ESI-QTOF
SMILES: CC(=O)OC1=CC=C(C=CC2=CC(OC(C)=O)=CC(OC(C)=O)=C2)C=C1
INCHIKEY: PDAYUJSOJIMKIS-UHFFFAOYSA-N
Ontology: Stilbenes
COLLISIONENERGY: 10
FORMULA: C20H18O6
RETENTIONTIME: 8.4574
IONMODE: Negative
Comment: registered in RIKEN PlaSMA
Num Peaks: 10
146.99605	354
185.06337	277
197.04947	277
267.05713	369
267.10065	308
269.07504	354
269.10037	277
311.08917	846
353.10062	1000
353.17706	308

NAME: alpha,beta-Dihydroresveratrol
PRECURSORMZ: 229.08701784783
PRECURSORTYPE: [M-H]-
INSTRUMENTTYPE: LC-ESI-QTOF
SMILES: OC1=CC=C(CCC2=CC(O)=CC(O)=C2)C=C1
INCHIKEY: HITJFUSPLYBJPE-UHFFFAOYSA-N
Ontology: Stilbenes
COLLISIONENERGY: 10
FORMULA: C14H14O3
RETENTIONTIME: 5.146616
IONMODE: Negative
Comment: registered in RIKEN PlaSMA
Num Peaks: 5
106.04494	5
123.04276	303
124.04517	16
124.05202	16
229.086	1000

NAME: alpha,beta-Dihydroresveratrol
PRECURSORMZ: 275.09249715183
PRECURSORTYPE: [M+FA-H]-
INSTRUMENTTYPE: LC-ESI-QTOF
SMILES: OC1=CC=C(CCC2=CC(O)=CC(O)=C2)C=C1
INCHIKEY: HITJFUSPLYBJPE-UHFFFAOYSA-N
Ontology: Stilbenes
COLLISIONENERGY: 10
FORMULA: C14H14O3
RETENTIONTIME: 5.146616
IONMODE: Negative
Comment: registered in RIKEN PlaSMA
Num Peaks: 5
229.08673	1000
230.09164	80
231.0995	70
241.05116	63
275.08063	77

NAME: Triacetyl resveratrol
PRECURSORMZ: 353.10306184783
PRECURSORTYPE: [M-H]-
INSTRUMENTTYPE: LC-ESI-QTOF
SMILES: CC(=O)OC1=CC=C(C=CC2=CC(OC(C)=O)=CC(OC(C)=O)=C2)C=C1
INCHIKEY: PDAYUJSOJIMKIS-UHFFFAOYSA-N
Ontology: Stilbenes
COLLISIONENERGY: 10
FORMULA: C20H18O6
RETENTIONTIME: 8.4574
IONMODE: Negative
Comment: registered in RIKEN PlaSMA
Num Peaks: 4
185.05267	46
269.08337	115
297.0145	49
353.10068	1000

NAME: alpha,beta-Dihydroresveratrol
PRECURSORMZ: 229.08701784783
PRECURSORTYPE: [M-H]-
INSTRUMENTTYPE: LC-ESI-QTOF
SMILES: OC1=CC=C(CCC2=CC(O)=CC(O)=C2)C=C1
INCHIKEY: HITJFUSPLYBJPE-UHFFFAOYSA-N
Ontology: Stilbenes
COLLISIONENERGY: 30
FORMULA: C14H14O3
RETENTIONTIME: 5.146616
IONMODE: Negative
Comment: registered in RIKEN PlaSMA
Num Peaks: 12
78.16048	32
81.03349	1000
82.02943	36
82.0351	34
83.04188	38
93.02787	32
119.05024	45
122.03493	268
123.04241	408
124.05109	36
169.06589	34
229.08556	39

NAME: alpha,beta-Dihydroresveratrol
PRECURSORMZ: 275.09249715183
PRECURSORTYPE: [M+FA-H]-
INSTRUMENTTYPE: LC-ESI-QTOF
SMILES: OC1=CC=C(CCC2=CC(O)=CC(O)=C2)C=C1
INCHIKEY: HITJFUSPLYBJPE-UHFFFAOYSA-N
Ontology: Stilbenes
COLLISIONENERGY: 30
FORMULA: C14H14O3
RETENTIONTIME: 5.146616
IONMODE: Negative
Comment: registered in RIKEN PlaSMA
Num Peaks: 5
81.03046	385
122.03117	628
123.0425	1000
124.05109	256
157.06496	359

NAME: Triacetyl resveratrol
PRECURSORMZ: 353.10306184783
PRECURSORTYPE: [M-H]-
INSTRUMENTTYPE: LC-ESI-QTOF
SMILES: CC(=O)OC1=CC=C(C=CC2=CC(OC(C)=O)=CC(OC(C)=O)=C2)C=C1
INCHIKEY: PDAYUJSOJIMKIS-UHFFFAOYSA-N
Ontology: Stilbenes
COLLISIONENERGY: 30
FORMULA: C20H18O6
RETENTIONTIME: 8.4574
IONMODE: Negative
Comment: registered in RIKEN PlaSMA
Num Peaks: 23
144.89334	110
173.05902	114
175.04178	105
182.05888	91
182.07466	183
183.08437	151
185.06325	269
194.06567	100
208.05583	187
224.0732	82
224.09117	91
227.06709	320
227.07576	324
250.06351	82
251.07446	87
253.05128	105
254.05521	82
269.07727	1000
269.0979	105
270.09369	105
293.07236	82
312.09848	82
337.08408	87

NAME: alpha,beta-Dihydroresveratrol
PRECURSORMZ: 229.08701784783
PRECURSORTYPE: [M-H]-
INSTRUMENTTYPE: LC-ESI-QTOF
SMILES: OC1=CC=C(CCC2=CC(O)=CC(O)=C2)C=C1
INCHIKEY: HITJFUSPLYBJPE-UHFFFAOYSA-N
Ontology: Stilbenes
COLLISIONENERGY: 50
FORMULA: C14H14O3
RETENTIONTIME: 5.146616
IONMODE: Negative
Comment: registered in RIKEN PlaSMA
Num Peaks: 7
81.03201	588
81.03653	676
122.03356	529
123.04605	529
185.05646	618
185.12224	1000
229.08305	735

NAME: alpha,beta-Dihydroresveratrol
PRECURSORMZ: 275.09249715183
PRECURSORTYPE: [M+FA-H]-
INSTRUMENTTYPE: LC-ESI-QTOF
SMILES: OC1=CC=C(CCC2=CC(O)=CC(O)=C2)C=C1
INCHIKEY: HITJFUSPLYBJPE-UHFFFAOYSA-N
Ontology: Stilbenes
COLLISIONENERGY: 50
FORMULA: C14H14O3
RETENTIONTIME: 5.146616
IONMODE: Negative
Comment: registered in RIKEN PlaSMA
Num Peaks: 3
81.03288	576
81.09692	1000
122.03048	1000

NAME: Triacetyl resveratrol
PRECURSORMZ: 353.10306184783
PRECURSORTYPE: [M-H]-
INSTRUMENTTYPE: LC-ESI-QTOF
SMILES: CC(=O)OC1=CC=C(C=CC2=CC(OC(C)=O)=CC(OC(C)=O)=C2)C=C1
INCHIKEY: PDAYUJSOJIMKIS-UHFFFAOYSA-N
Ontology: Stilbenes
COLLISIONENERGY: 50
FORMULA: C20H18O6
RETENTIONTIME: 8.4574
IONMODE: Negative
Comment: registered in RIKEN PlaSMA
Num Peaks: 3
181.06718	1000
185.05362	355
252.0442	339

NAME: Indole-3-acetyl-L-alanine
PRECURSORMZ: 245.09316584783
PRECURSORTYPE: [M-H]-
INSTRUMENTTYPE: LC-ESI-QTOF
SMILES: CC(N=C(O)CC1=CNC2=CC=CC=C12)C(O)=O
INCHIKEY: FBDCJLXTUCMFLF-UHFFFAOYNA-N
Ontology: N-acyl-L-alpha-amino acids
COLLISIONENERGY: 10
FORMULA: C13H14N2O3
RETENTIONTIME: 4.52855
IONMODE: Negative
Comment: registered in RIKEN PlaSMA
Num Peaks: 9
88.03939	1000
89.04076	30
90.04047	5
90.04622	5
128.04555	16
128.05516	6
130.07083	5
156.04465	143
245.09175	486

NAME: Indole-3-acetyl-L-tryptophan
PRECURSORMZ: 360.13536504783
PRECURSORTYPE: [M-H]-
INSTRUMENTTYPE: LC-ESI-QTOF
SMILES: OC(CC1=CNC2=CC=CC=C12)=NC(CC1=CNC2=CC=CC=C12)C(O)=O
INCHIKEY: FOSPCYZZRVNHJS-UHFFFAOYNA-N
Ontology: N-acyl-alpha amino acids
COLLISIONENERGY: 10
FORMULA: C21H19N3O3
RETENTIONTIME: 6.190633
IONMODE: Negative
Comment: registered in RIKEN PlaSMA
Num Peaks: 17
74.02296	33
116.04919	80
128.04156	5
142.06488	51
156.04355	14
159.09282	84
160.09148	7
160.09772	11
186.05956	7
203.08159	1000
204.08424	113
205.08925	13
231.07341	18
231.08612	8
316.1405	7
316.15561	10
360.13397	680

NAME: Indole-3-acetyl-L-alanine
PRECURSORMZ: 245.09316584783
PRECURSORTYPE: [M-H]-
INSTRUMENTTYPE: LC-ESI-QTOF
SMILES: CC(N=C(O)CC1=CNC2=CC=CC=C12)C(O)=O
INCHIKEY: FBDCJLXTUCMFLF-UHFFFAOYNA-N
Ontology: N-acyl-L-alpha-amino acids
COLLISIONENERGY: 10
FORMULA: C13H14N2O3
RETENTIONTIME: 4.52855
IONMODE: Negative
Comment: registered in RIKEN PlaSMA
Num Peaks: 6
88.03915	396
89.04336	8
156.04395	115
157.04298	8
157.05132	5
245.09232	1000

NAME: Indole-3-acetyl-L-tryptophan
PRECURSORMZ: 360.13536504783
PRECURSORTYPE: [M-H]-
INSTRUMENTTYPE: LC-ESI-QTOF
SMILES: OC(CC1=CNC2=CC=CC=C12)=NC(CC1=CNC2=CC=CC=C12)C(O)=O
INCHIKEY: FOSPCYZZRVNHJS-UHFFFAOYNA-N
Ontology: N-acyl-alpha amino acids
COLLISIONENERGY: 10
FORMULA: C21H19N3O3
RETENTIONTIME: 6.190633
IONMODE: Negative
Comment: registered in RIKEN PlaSMA
Num Peaks: 4
203.08176	169
204.08479	18
231.07436	7
360.13394	1000

NAME: Indole-3-acetyl-L-alanine
PRECURSORMZ: 245.09316584783
PRECURSORTYPE: [M-H]-
INSTRUMENTTYPE: LC-ESI-QTOF
SMILES: CC(N=C(O)CC1=CNC2=CC=CC=C12)C(O)=O
INCHIKEY: FBDCJLXTUCMFLF-UHFFFAOYNA-N
Ontology: N-acyl-L-alpha-amino acids
COLLISIONENERGY: 30
FORMULA: C13H14N2O3
RETENTIONTIME: 4.52855
IONMODE: Negative
Comment: registered in RIKEN PlaSMA
Num Peaks: 7
88.03892	1000
89.04166	34
128.04848	115
129.05202	6
130.0666	6
155.07346	6
156.0406	6

NAME: Indole-3-acetyl-L-tryptophan
PRECURSORMZ: 360.13536504783
PRECURSORTYPE: [M-H]-
INSTRUMENTTYPE: LC-ESI-QTOF
SMILES: OC(CC1=CNC2=CC=CC=C12)=NC(CC1=CNC2=CC=CC=C12)C(O)=O
INCHIKEY: FOSPCYZZRVNHJS-UHFFFAOYNA-N
Ontology: N-acyl-alpha amino acids
COLLISIONENERGY: 30
FORMULA: C21H19N3O3
RETENTIONTIME: 6.190633
IONMODE: Negative
Comment: registered in RIKEN PlaSMA
Num Peaks: 28
74.02296	275
75.02673	8
116.04881	745
117.05283	60
128.04965	136
129.05641	31
130.06453	41
142.06715	166
143.06705	16
143.07686	7
144.0634	18
145.06953	8
156.03873	23
156.04657	68
157.04936	7
157.07008	7
157.07785	8
159.09137	307
160.09804	30
173.05449	7
185.06839	16
186.05074	50
186.05988	42
186.07518	7
187.05777	8
203.08128	1000
204.08545	154
301.11295	9

NAME: Indole-3-acetyl-L-alanine
PRECURSORMZ: 245.09316584783
PRECURSORTYPE: [M-H]-
INSTRUMENTTYPE: LC-ESI-QTOF
SMILES: CC(N=C(O)CC1=CNC2=CC=CC=C12)C(O)=O
INCHIKEY: FBDCJLXTUCMFLF-UHFFFAOYNA-N
Ontology: N-acyl-L-alpha-amino acids
COLLISIONENERGY: 50
FORMULA: C13H14N2O3
RETENTIONTIME: 4.52855
IONMODE: Negative
Comment: registered in RIKEN PlaSMA
Num Peaks: 1
88.03809	1000

NAME: Indole-3-acetyl-L-tryptophan
PRECURSORMZ: 360.13536504783
PRECURSORTYPE: [M-H]-
INSTRUMENTTYPE: LC-ESI-QTOF
SMILES: OC(CC1=CNC2=CC=CC=C12)=NC(CC1=CNC2=CC=CC=C12)C(O)=O
INCHIKEY: FOSPCYZZRVNHJS-UHFFFAOYNA-N
Ontology: N-acyl-alpha amino acids
COLLISIONENERGY: 50
FORMULA: C21H19N3O3
RETENTIONTIME: 6.190633
IONMODE: Negative
Comment: registered in RIKEN PlaSMA
Num Peaks: 14
74.02144	89
74.02538	86
116.04913	1000
117.04377	20
117.05379	65
128.04362	25
128.04993	75
129.04976	31
130.06462	72
142.05916	117
142.06686	127
156.04485	23
161.59601	43
186.04956	23

NAME: Indole-3-acetyl-L-alanine
PRECURSORMZ: 245.09316584783
PRECURSORTYPE: [M-H]-
INSTRUMENTTYPE: LC-ESI-QTOF
SMILES: CC(N=C(O)CC1=CNC2=CC=CC=C12)C(O)=O
INCHIKEY: FBDCJLXTUCMFLF-UHFFFAOYNA-N
Ontology: N-acyl-L-alpha-amino acids
COLLISIONENERGY: 10
FORMULA: C13H14N2O3
RETENTIONTIME: 4.52855
IONMODE: Negative
Comment: registered in RIKEN PlaSMA
Num Peaks: 8
88.03901	1000
89.04123	21
128.04916	56
130.0621	9
156.04349	106
157.0444	14
158.05106	7
245.09134	472

NAME: Indole-3-acetyl-L-tryptophan
PRECURSORMZ: 360.13536504783
PRECURSORTYPE: [M-H]-
INSTRUMENTTYPE: LC-ESI-QTOF
SMILES: OC(CC1=CNC2=CC=CC=C12)=NC(CC1=CNC2=CC=CC=C12)C(O)=O
INCHIKEY: FOSPCYZZRVNHJS-UHFFFAOYNA-N
Ontology: N-acyl-alpha amino acids
COLLISIONENERGY: 10
FORMULA: C21H19N3O3
RETENTIONTIME: 6.190633
IONMODE: Negative
Comment: registered in RIKEN PlaSMA
Num Peaks: 14
74.02361	22
116.0488	93
128.04816	28
129.05559	6
142.06407	76
156.04271	24
157.04655	11
159.092	89
186.06056	6
203.08197	1000
204.08487	93
231.07555	25
317.14362	6
360.13394	692

NAME: Indole-3-acetyl-L-alanine
PRECURSORMZ: 245.09316584783
PRECURSORTYPE: [M-H]-
INSTRUMENTTYPE: LC-ESI-QTOF
SMILES: CC(N=C(O)CC1=CNC2=CC=CC=C12)C(O)=O
INCHIKEY: FBDCJLXTUCMFLF-UHFFFAOYNA-N
Ontology: N-acyl-L-alpha-amino acids
COLLISIONENERGY: 10
FORMULA: C13H14N2O3
RETENTIONTIME: 4.52855
IONMODE: Negative
Comment: registered in RIKEN PlaSMA
Num Peaks: 5
88.03883	399
89.03828	6
156.04407	86
157.04153	7
245.09148	1000

NAME: Indole-3-acetyl-L-tryptophan
PRECURSORMZ: 360.13536504783
PRECURSORTYPE: [M-H]-
INSTRUMENTTYPE: LC-ESI-QTOF
SMILES: OC(CC1=CNC2=CC=CC=C12)=NC(CC1=CNC2=CC=CC=C12)C(O)=O
INCHIKEY: FOSPCYZZRVNHJS-UHFFFAOYNA-N
Ontology: N-acyl-alpha amino acids
COLLISIONENERGY: 10
FORMULA: C21H19N3O3
RETENTIONTIME: 6.190633
IONMODE: Negative
Comment: registered in RIKEN PlaSMA
Num Peaks: 4
203.08109	174
204.08252	16
205.09007	5
360.13409	1000

NAME: Indole-3-acetyl-L-alanine
PRECURSORMZ: 245.09316584783
PRECURSORTYPE: [M-H]-
INSTRUMENTTYPE: LC-ESI-QTOF
SMILES: CC(N=C(O)CC1=CNC2=CC=CC=C12)C(O)=O
INCHIKEY: FBDCJLXTUCMFLF-UHFFFAOYNA-N
Ontology: N-acyl-L-alpha-amino acids
COLLISIONENERGY: 30
FORMULA: C13H14N2O3
RETENTIONTIME: 4.52855
IONMODE: Negative
Comment: registered in RIKEN PlaSMA
Num Peaks: 8
77.52253	7
88.03864	1000
89.03898	13
89.04466	18
128.05063	118
169.07855	6
245.09053	11
245.09987	5

NAME: Indole-3-acetyl-L-tryptophan
PRECURSORMZ: 360.13536504783
PRECURSORTYPE: [M-H]-
INSTRUMENTTYPE: LC-ESI-QTOF
SMILES: OC(CC1=CNC2=CC=CC=C12)=NC(CC1=CNC2=CC=CC=C12)C(O)=O
INCHIKEY: FOSPCYZZRVNHJS-UHFFFAOYNA-N
Ontology: N-acyl-alpha amino acids
COLLISIONENERGY: 30
FORMULA: C21H19N3O3
RETENTIONTIME: 6.190633
IONMODE: Negative
Comment: registered in RIKEN PlaSMA
Num Peaks: 36
72.00896	9
74.0229	163
76.74596	9
99.05141	7
116.04852	795
117.05123	54
117.06207	7
128.04941	138
129.0498	9
129.06142	15
130.06355	43
130.07246	15
131.07236	7
132.08421	6
142.06427	275
142.07909	7
143.06874	26
145.07405	6
156.03427	12
156.04306	67
158.05832	6
158.06854	6
159.0909	355
160.08235	6
160.09282	32
160.10692	9
173.07082	7
185.06606	26
186.05296	59
186.06433	11
203.06013	6
203.08101	1000
204.08151	92
204.09387	40
205.0899	7
250.25186	6

NAME: Indole-3-acetyl-L-alanine
PRECURSORMZ: 245.09316584783
PRECURSORTYPE: [M-H]-
INSTRUMENTTYPE: LC-ESI-QTOF
SMILES: CC(N=C(O)CC1=CNC2=CC=CC=C12)C(O)=O
INCHIKEY: FBDCJLXTUCMFLF-UHFFFAOYNA-N
Ontology: N-acyl-L-alpha-amino acids
COLLISIONENERGY: 50
FORMULA: C13H14N2O3
RETENTIONTIME: 4.52855
IONMODE: Negative
Comment: registered in RIKEN PlaSMA
Num Peaks: 4
88.03877	1000
88.04672	216
167.06142	144
245.09172	144

NAME: Indole-3-acetyl-L-tryptophan
PRECURSORMZ: 360.13536504783
PRECURSORTYPE: [M-H]-
INSTRUMENTTYPE: LC-ESI-QTOF
SMILES: OC(CC1=CNC2=CC=CC=C12)=NC(CC1=CNC2=CC=CC=C12)C(O)=O
INCHIKEY: FOSPCYZZRVNHJS-UHFFFAOYNA-N
Ontology: N-acyl-alpha amino acids
COLLISIONENERGY: 50
FORMULA: C21H19N3O3
RETENTIONTIME: 6.190633
IONMODE: Negative
Comment: registered in RIKEN PlaSMA
Num Peaks: 19
72.00356	24
74.0234	121
116.04926	1000
117.04941	144
128.04672	115
129.05078	72
129.05714	64
129.06526	19
130.06023	60
130.06775	88
131.06619	22
140.05043	27
142.06546	229
143.06754	69
157.07834	23
158.05804	24
159.08365	22
165.46336	28
203.08217	22

NAME: Indole-3-acetyl-L-alanine
PRECURSORMZ: 245.09316584783
PRECURSORTYPE: [M-H]-
INSTRUMENTTYPE: LC-ESI-QTOF
SMILES: CC(N=C(O)CC1=CNC2=CC=CC=C12)C(O)=O
INCHIKEY: FBDCJLXTUCMFLF-UHFFFAOYNA-N
Ontology: N-acyl-L-alpha-amino acids
COLLISIONENERGY: 10
FORMULA: C13H14N2O3
RETENTIONTIME: 4.52855
IONMODE: Negative
Comment: registered in RIKEN PlaSMA
Num Peaks: 9
88.03944	1000
89.03574	9
89.04164	14
128.04616	18
128.05205	30
156.04668	121
157.04758	8
158.04974	8
245.09233	523

NAME: Indole-3-acetyl-L-tryptophan
PRECURSORMZ: 360.13536504783
PRECURSORTYPE: [M-H]-
INSTRUMENTTYPE: LC-ESI-QTOF
SMILES: OC(CC1=CNC2=CC=CC=C12)=NC(CC1=CNC2=CC=CC=C12)C(O)=O
INCHIKEY: FOSPCYZZRVNHJS-UHFFFAOYNA-N
Ontology: N-acyl-alpha amino acids
COLLISIONENERGY: 10
FORMULA: C21H19N3O3
RETENTIONTIME: 6.190633
IONMODE: Negative
Comment: registered in RIKEN PlaSMA
Num Peaks: 13
74.02356	63
116.04971	115
117.05122	13
128.04727	8
142.06573	28
156.04428	21
157.04578	8
159.0916	71
187.08498	7
203.08171	1000
204.08437	94
231.08037	29
360.13397	669

NAME: Indole-3-acetyl-L-alanine
PRECURSORMZ: 245.09316584783
PRECURSORTYPE: [M-H]-
INSTRUMENTTYPE: LC-ESI-QTOF
SMILES: CC(N=C(O)CC1=CNC2=CC=CC=C12)C(O)=O
INCHIKEY: FBDCJLXTUCMFLF-UHFFFAOYNA-N
Ontology: N-acyl-L-alpha-amino acids
COLLISIONENERGY: 10
FORMULA: C13H14N2O3
RETENTIONTIME: 4.52855
IONMODE: Negative
Comment: registered in RIKEN PlaSMA
Num Peaks: 5
88.03874	344
89.04165	14
156.04442	74
157.04831	12
245.09212	1000

NAME: Indole-3-acetyl-L-tryptophan
PRECURSORMZ: 360.13536504783
PRECURSORTYPE: [M-H]-
INSTRUMENTTYPE: LC-ESI-QTOF
SMILES: OC(CC1=CNC2=CC=CC=C12)=NC(CC1=CNC2=CC=CC=C12)C(O)=O
INCHIKEY: FOSPCYZZRVNHJS-UHFFFAOYNA-N
Ontology: N-acyl-alpha amino acids
COLLISIONENERGY: 10
FORMULA: C21H19N3O3
RETENTIONTIME: 6.190633
IONMODE: Negative
Comment: registered in RIKEN PlaSMA
Num Peaks: 3
203.08098	173
204.0833	18
360.13327	1000

NAME: Indole-3-acetyl-L-alanine
PRECURSORMZ: 245.09316584783
PRECURSORTYPE: [M-H]-
INSTRUMENTTYPE: LC-ESI-QTOF
SMILES: CC(N=C(O)CC1=CNC2=CC=CC=C12)C(O)=O
INCHIKEY: FBDCJLXTUCMFLF-UHFFFAOYNA-N
Ontology: N-acyl-L-alpha-amino acids
COLLISIONENERGY: 30
FORMULA: C13H14N2O3
RETENTIONTIME: 4.52855
IONMODE: Negative
Comment: registered in RIKEN PlaSMA
Num Peaks: 4
88.0384	1000
128.04942	81
128.06229	9
156.0488	13

NAME: Indole-3-acetyl-L-tryptophan
PRECURSORMZ: 360.13536504783
PRECURSORTYPE: [M-H]-
INSTRUMENTTYPE: LC-ESI-QTOF
SMILES: OC(CC1=CNC2=CC=CC=C12)=NC(CC1=CNC2=CC=CC=C12)C(O)=O
INCHIKEY: FOSPCYZZRVNHJS-UHFFFAOYNA-N
Ontology: N-acyl-alpha amino acids
COLLISIONENERGY: 30
FORMULA: C21H19N3O3
RETENTIONTIME: 6.190633
IONMODE: Negative
Comment: registered in RIKEN PlaSMA
Num Peaks: 45
72.00862	8
74.02328	382
84.00284	8
88.27623	7
116.04934	661
117.03989	8
117.05187	38
118.0575	17
128.04802	137
129.05829	55
130.06221	53
131.07011	10
132.08087	14
142.06636	284
143.07085	16
145.04457	7
145.07397	12
154.14793	7
156.04066	98
156.05382	13
157.04387	7
157.05229	10
158.05779	8
159.09267	385
160.07799	8
160.09454	37
160.10442	7
173.05	17
176.70418	8
185.07185	16
186.04768	7
186.06006	20
187.071	8
187.08749	8
188.05759	7
188.09175	8
195.05336	8
200.08762	9
202.99457	7
203.0818	1000
204.0858	125
213.06877	9
230.06157	8
273.14838	8
316.14066	8

NAME: Indole-3-acetyl-L-alanine
PRECURSORMZ: 245.09316584783
PRECURSORTYPE: [M-H]-
INSTRUMENTTYPE: LC-ESI-QTOF
SMILES: CC(N=C(O)CC1=CNC2=CC=CC=C12)C(O)=O
INCHIKEY: FBDCJLXTUCMFLF-UHFFFAOYNA-N
Ontology: N-acyl-L-alpha-amino acids
COLLISIONENERGY: 50
FORMULA: C13H14N2O3
RETENTIONTIME: 4.52855
IONMODE: Negative
Comment: registered in RIKEN PlaSMA
Num Peaks: 4
88.03709	680
88.04169	1000
89.04325	380
137.00742	400

NAME: Indole-3-acetyl-L-tryptophan
PRECURSORMZ: 360.13536504783
PRECURSORTYPE: [M-H]-
INSTRUMENTTYPE: LC-ESI-QTOF
SMILES: OC(CC1=CNC2=CC=CC=C12)=NC(CC1=CNC2=CC=CC=C12)C(O)=O
INCHIKEY: FOSPCYZZRVNHJS-UHFFFAOYNA-N
Ontology: N-acyl-alpha amino acids
COLLISIONENERGY: 50
FORMULA: C21H19N3O3
RETENTIONTIME: 6.190633
IONMODE: Negative
Comment: registered in RIKEN PlaSMA
Num Peaks: 11
74.0233	201
75.32674	26
116.05	1000
117.04945	101
128.04973	155
130.06403	62
130.07036	123
142.06081	169
142.06975	24
143.06453	27
159.08372	28

NAME: Apigeninidin
PRECURSORMZ: 253.05063234783
PRECURSORTYPE: [M-H]-
INSTRUMENTTYPE: LC-ESI-QTOF
SMILES: OC1=CC=C(C=C1)C1=[O+]C2=CC(O)=CC([O-])=C2C=C1
INCHIKEY: ZKMZBAABQFUXFE-UHFFFAOYSA-N
Ontology: 7-hydroxyflavonoids
COLLISIONENERGY: 10
FORMULA: C15H10O4
RETENTIONTIME: 3.86845
IONMODE: Negative
Comment: registered in RIKEN PlaSMA
Num Peaks: 48
89.0378	11
117.02319	7
117.03072	25
117.0416	11
130.03983	6
132.01805	5
133.02628	24
138.04512	6
139.89525	5
141.03642	7
143.05186	18
144.05319	6
153.07962	6
155.0482	7
156.05928	5
157.06143	7
157.06754	16
157.83426	6
158.04015	7
165.0647	6
166.0381	6
167.03517	5
167.05556	6
169.02257	7
169.06769	5
174.7639	6
180.0576	13
181.06212	6
181.06927	26
182.02533	6
183.04097	11
183.04941	7
185.05873	24
191.05391	6
208.04861	20
209.02251	9
209.05312	20
209.05988	43
210.02867	14
210.03807	12
211.03699	26
211.048	8
212.03777	12
224.04787	6
225.06133	25
236.04443	6
253.04996	1000
253.12949	7

NAME: trans-piceid
PRECURSORMZ: 389.12419124783
PRECURSORTYPE: [M-H]-
INSTRUMENTTYPE: LC-ESI-QTOF
SMILES: OCC1OC(OC2=CC(C=CC3=CC=C(O)C=C3)=CC(O)=C2)C(O)C(O)C1O
INCHIKEY: HSTZMXCBWJGKHG-UHFFFAOYNA-N
Ontology: Stilbene glycosides
COLLISIONENERGY: 10
FORMULA: C20H22O8
RETENTIONTIME: 4.042817
IONMODE: Negative
Comment: registered in RIKEN PlaSMA
Num Peaks: 11
143.04788	33
157.0677	11
159.0782	12
181.06108	5
185.05429	30
185.06224	38
225.06216	5
227.06984	1000
228.07307	153
229.07234	9
389.11984	55

NAME: trans-piceid
PRECURSORMZ: 435.12967055183
PRECURSORTYPE: [M+FA-H]-
INSTRUMENTTYPE: LC-ESI-QTOF
SMILES: OCC1OC(OC2=CC(C=CC3=CC=C(O)C=C3)=CC(O)=C2)C(O)C(O)C1O
INCHIKEY: HSTZMXCBWJGKHG-UHFFFAOYNA-N
Ontology: Stilbene glycosides
COLLISIONENERGY: 10
FORMULA: C20H22O8
RETENTIONTIME: 4.042817
IONMODE: Negative
Comment: registered in RIKEN PlaSMA
Num Peaks: 15
143.05435	6
159.08316	14
183.07446	6
185.05815	16
186.06085	11
226.05438	5
227.06992	1000
228.07292	113
229.0808	13
230.07536	7
315.72571	5
389.12161	280
390.10669	10
390.12634	67
435.13196	24

NAME: Apigeninidin
PRECURSORMZ: 253.05063234783
PRECURSORTYPE: [M-H]-
INSTRUMENTTYPE: LC-ESI-QTOF
SMILES: OC1=CC=C(C=C1)C1=[O+]C2=CC(O)=CC([O-])=C2C=C1
INCHIKEY: ZKMZBAABQFUXFE-UHFFFAOYSA-N
Ontology: 7-hydroxyflavonoids
COLLISIONENERGY: 10
FORMULA: C15H10O4
RETENTIONTIME: 3.86845
IONMODE: Negative
Comment: registered in RIKEN PlaSMA
Num Peaks: 2
209.05705	8
253.04837	1000

NAME: trans-piceid
PRECURSORMZ: 389.12419124783
PRECURSORTYPE: [M-H]-
INSTRUMENTTYPE: LC-ESI-QTOF
SMILES: OCC1OC(OC2=CC(C=CC3=CC=C(O)C=C3)=CC(O)=C2)C(O)C(O)C1O
INCHIKEY: HSTZMXCBWJGKHG-UHFFFAOYNA-N
Ontology: Stilbene glycosides
COLLISIONENERGY: 10
FORMULA: C20H22O8
RETENTIONTIME: 4.042817
IONMODE: Negative
Comment: registered in RIKEN PlaSMA
Num Peaks: 4
227.06984	1000
228.07481	128
229.07558	11
389.12195	350

NAME: trans-piceid
PRECURSORMZ: 435.12967055183
PRECURSORTYPE: [M+FA-H]-
INSTRUMENTTYPE: LC-ESI-QTOF
SMILES: OCC1OC(OC2=CC(C=CC3=CC=C(O)C=C3)=CC(O)=C2)C(O)C(O)C1O
INCHIKEY: HSTZMXCBWJGKHG-UHFFFAOYNA-N
Ontology: Stilbene glycosides
COLLISIONENERGY: 10
FORMULA: C20H22O8
RETENTIONTIME: 4.042817
IONMODE: Negative
Comment: registered in RIKEN PlaSMA
Num Peaks: 6
227.07008	260
228.07886	29
389.12372	1000
390.12695	169
391.12473	25
435.12918	101

NAME: Apigeninidin
PRECURSORMZ: 253.05063234783
PRECURSORTYPE: [M-H]-
INSTRUMENTTYPE: LC-ESI-QTOF
SMILES: OC1=CC=C(C=C1)C1=[O+]C2=CC(O)=CC([O-])=C2C=C1
INCHIKEY: ZKMZBAABQFUXFE-UHFFFAOYSA-N
Ontology: 7-hydroxyflavonoids
COLLISIONENERGY: 30
FORMULA: C15H10O4
RETENTIONTIME: 3.86845
IONMODE: Negative
Comment: registered in RIKEN PlaSMA
Num Peaks: 65
89.04373	50
92.02544	38
92.99532	34
93.03036	42
105.03731	48
116.95399	36
117.03191	1000
118.03584	120
120.01931	34
131.04767	34
133.02031	84
133.02959	48
134.03371	38
139.05441	34
140.05577	42
141.02811	38
141.03725	34
142.0338	42
143.03845	36
143.05214	210
143.53073	40
144.05438	36
151.05693	38
152.06531	88
153.07114	38
154.03847	92
155.04996	101
156.05307	113
157.06262	86
158.03836	34
165.02998	40
166.03587	34
167.04755	78
168.05305	34
169.02711	40
179.05231	55
180.04947	65
180.06129	338
181.03052	40
181.06508	166
181.07529	34
182.02571	65
182.03899	227
183.0406	147
183.05069	38
184.04114	38
184.05164	34
185.05998	63
185.07092	42
187.06664	34
192.05542	40
197.05145	36
208.04745	88
208.05592	101
209.05489	80
209.06525	258
210.02794	80
210.03633	84
210.06873	40
211.03389	38
211.04144	38
223.56421	34
224.05762	44
225.05762	46
253.05206	34

NAME: trans-piceid
PRECURSORMZ: 389.12419124783
PRECURSORTYPE: [M-H]-
INSTRUMENTTYPE: LC-ESI-QTOF
SMILES: OCC1OC(OC2=CC(C=CC3=CC=C(O)C=C3)=CC(O)=C2)C(O)C(O)C1O
INCHIKEY: HSTZMXCBWJGKHG-UHFFFAOYNA-N
Ontology: Stilbene glycosides
COLLISIONENERGY: 30
FORMULA: C20H22O8
RETENTIONTIME: 4.042817
IONMODE: Negative
Comment: registered in RIKEN PlaSMA
Num Peaks: 14
141.06747	9
143.04253	8
143.05031	37
157.06525	22
159.07825	34
182.07135	9
183.07867	67
184.08627	5
185.05919	181
186.06256	31
227.06944	1000
228.07278	136
229.07364	11
229.0836	6

NAME: trans-piceid
PRECURSORMZ: 435.12967055183
PRECURSORTYPE: [M+FA-H]-
INSTRUMENTTYPE: LC-ESI-QTOF
SMILES: OCC1OC(OC2=CC(C=CC3=CC=C(O)C=C3)=CC(O)=C2)C(O)C(O)C1O
INCHIKEY: HSTZMXCBWJGKHG-UHFFFAOYNA-N
Ontology: Stilbene glycosides
COLLISIONENERGY: 30
FORMULA: C20H22O8
RETENTIONTIME: 4.042817
IONMODE: Negative
Comment: registered in RIKEN PlaSMA
Num Peaks: 5
159.07881	7
185.05821	22
227.06953	1000
228.07217	180
229.07347	11

NAME: Apigeninidin
PRECURSORMZ: 253.05063234783
PRECURSORTYPE: [M-H]-
INSTRUMENTTYPE: LC-ESI-QTOF
SMILES: OC1=CC=C(C=C1)C1=[O+]C2=CC(O)=CC([O-])=C2C=C1
INCHIKEY: ZKMZBAABQFUXFE-UHFFFAOYSA-N
Ontology: 7-hydroxyflavonoids
COLLISIONENERGY: 50
FORMULA: C15H10O4
RETENTIONTIME: 3.86845
IONMODE: Negative
Comment: registered in RIKEN PlaSMA
Num Peaks: 19
88.03025	198
89.04323	132
104.0248	99
115.04951	121
117.02395	126
117.03331	1000
118.03534	99
129.03806	99
138.04515	115
141.04012	99
144.05362	104
153.02625	110
157.05534	148
165.03952	126
166.04637	115
167.04933	132
169.06128	170
183.04054	115
195.05081	115

NAME: trans-piceid
PRECURSORMZ: 389.12419124783
PRECURSORTYPE: [M-H]-
INSTRUMENTTYPE: LC-ESI-QTOF
SMILES: OCC1OC(OC2=CC(C=CC3=CC=C(O)C=C3)=CC(O)=C2)C(O)C(O)C1O
INCHIKEY: HSTZMXCBWJGKHG-UHFFFAOYNA-N
Ontology: Stilbene glycosides
COLLISIONENERGY: 50
FORMULA: C20H22O8
RETENTIONTIME: 4.042817
IONMODE: Negative
Comment: registered in RIKEN PlaSMA
Num Peaks: 37
107.01743	12
115.05191	11
117.03363	34
118.04398	11
119.04748	42
141.07471	23
142.04007	12
142.08092	12
143.04802	1000
144.05655	22
146.03482	12
156.05588	41
156.19341	11
157.0627	107
159.0808	85
167.0481	14
169.06885	11
180.05876	95
181.06451	144
181.07863	10
182.02863	12
182.06677	55
182.07417	73
183.0359	12
183.07045	15
183.08701	44
184.03798	11
184.04881	45
185.05954	187
186.06093	29
197.05215	11
199.06792	10
225.04436	11
225.05585	40
225.06441	36
227.07059	63
250.05969	10

NAME: trans-piceid
PRECURSORMZ: 435.12967055183
PRECURSORTYPE: [M+FA-H]-
INSTRUMENTTYPE: LC-ESI-QTOF
SMILES: OCC1OC(OC2=CC(C=CC3=CC=C(O)C=C3)=CC(O)=C2)C(O)C(O)C1O
INCHIKEY: HSTZMXCBWJGKHG-UHFFFAOYNA-N
Ontology: Stilbene glycosides
COLLISIONENERGY: 50
FORMULA: C20H22O8
RETENTIONTIME: 4.042817
IONMODE: Negative
Comment: registered in RIKEN PlaSMA
Num Peaks: 43
71.01125	21
76.15221	23
96.02022	29
115.05669	26
119.04795	21
120.05132	21
129.07042	24
141.06566	44
142.07181	21
143.04915	875
144.05516	135
144.06738	24
145.02173	25
156.05101	21
157.06354	91
159.07883	155
159.08856	37
160.09142	25
167.04561	23
167.05339	30
168.05069	32
168.06458	25
168.59523	23
180.05301	75
181.06583	223
182.07201	78
183.0714	53
183.07877	107
184.04941	55
184.0834	30
185.06001	1000
186.05974	69
187.0685	26
209.05449	26
225.05101	67
226.06252	24
227.06865	521
227.09714	41
228.05945	29
228.07022	24
228.07994	29
229.06842	21
246.05315	50

NAME: Apigeninidin
PRECURSORMZ: 253.05063234783
PRECURSORTYPE: [M-H]-
INSTRUMENTTYPE: LC-ESI-QTOF
SMILES: OC1=CC=C(C=C1)C1=[O+]C2=CC(O)=CC([O-])=C2C=C1
INCHIKEY: ZKMZBAABQFUXFE-UHFFFAOYSA-N
Ontology: 7-hydroxyflavonoids
COLLISIONENERGY: 10
FORMULA: C15H10O4
RETENTIONTIME: 3.86845
IONMODE: Negative
Comment: registered in RIKEN PlaSMA
Num Peaks: 43
105.02835	13
117.03072	42
117.03539	22
117.06179	6
118.03908	7
131.01547	8
139.05223	15
141.03506	6
143.04849	14
155.04405	6
160.00887	18
167.0506	11
169.02872	6
180.05901	78
181.06006	12
181.07011	7
182.02821	7
182.03633	6
182.04826	12
182.0676	6
183.04068	9
184.03943	6
184.05043	6
185.06001	21
185.2099	6
186.06122	9
195.03842	6
195.04875	6
196.05182	6
197.06265	17
197.06975	8
208.04916	11
209.06146	80
209.07495	6
210.03473	49
210.07117	8
211.0304	25
211.04907	6
212.03664	6
225.05756	13
249.41837	7
252.05217	6
253.0499	1000

NAME: trans-piceid
PRECURSORMZ: 389.12419124783
PRECURSORTYPE: [M-H]-
INSTRUMENTTYPE: LC-ESI-QTOF
SMILES: OCC1OC(OC2=CC(C=CC3=CC=C(O)C=C3)=CC(O)=C2)C(O)C(O)C1O
INCHIKEY: HSTZMXCBWJGKHG-UHFFFAOYNA-N
Ontology: Stilbene glycosides
COLLISIONENERGY: 10
FORMULA: C20H22O8
RETENTIONTIME: 4.042817
IONMODE: Negative
Comment: registered in RIKEN PlaSMA
Num Peaks: 11
141.07077	7
143.0473	12
159.08055	8
183.07898	14
183.08751	14
185.05873	52
185.06578	17
227.07034	1000
228.07446	162
229.07487	6
389.11884	72

NAME: trans-piceid
PRECURSORMZ: 435.12967055183
PRECURSORTYPE: [M+FA-H]-
INSTRUMENTTYPE: LC-ESI-QTOF
SMILES: OCC1OC(OC2=CC(C=CC3=CC=C(O)C=C3)=CC(O)=C2)C(O)C(O)C1O
INCHIKEY: HSTZMXCBWJGKHG-UHFFFAOYNA-N
Ontology: Stilbene glycosides
COLLISIONENERGY: 10
FORMULA: C20H22O8
RETENTIONTIME: 4.042817
IONMODE: Negative
Comment: registered in RIKEN PlaSMA
Num Peaks: 14
143.05119	11
159.07758	10
161.04346	5
165.07549	6
183.0755	7
185.06088	17
227.0708	1000
228.07219	84
229.07574	10
389.12405	289
390.10849	8
390.1282	40
391.13184	17
435.13828	25

NAME: trans-piceid
PRECURSORMZ: 389.12419124783
PRECURSORTYPE: [M-H]-
INSTRUMENTTYPE: LC-ESI-QTOF
SMILES: OCC1OC(OC2=CC(C=CC3=CC=C(O)C=C3)=CC(O)=C2)C(O)C(O)C1O
INCHIKEY: HSTZMXCBWJGKHG-UHFFFAOYNA-N
Ontology: Stilbene glycosides
COLLISIONENERGY: 10
FORMULA: C20H22O8
RETENTIONTIME: 4.042817
IONMODE: Negative
Comment: registered in RIKEN PlaSMA
Num Peaks: 4
227.07007	1000
228.07416	113
229.07695	11
389.12357	287

NAME: Apigeninidin
PRECURSORMZ: 253.05063234783
PRECURSORTYPE: [M-H]-
INSTRUMENTTYPE: LC-ESI-QTOF
SMILES: OC1=CC=C(C=C1)C1=[O+]C2=CC(O)=CC([O-])=C2C=C1
INCHIKEY: ZKMZBAABQFUXFE-UHFFFAOYSA-N
Ontology: 7-hydroxyflavonoids
COLLISIONENERGY: 30
FORMULA: C15H10O4
RETENTIONTIME: 3.86845
IONMODE: Negative
Comment: registered in RIKEN PlaSMA
Num Peaks: 61
89.03393	46
89.04036	38
91.01833	48
93.03085	38
105.03197	99
116.02341	44
116.92511	42
117.034	847
118.03954	42
129.03334	40
131.01166	42
133.02567	59
133.03191	61
138.04286	48
141.02986	44
141.03676	44
141.06999	38
143.04855	296
147.87592	38
152.0575	115
154.04132	82
155.0518	132
156.0513	34
156.05704	107
157.06583	42
158.03758	40
159.04352	40
165.02911	38
165.0455	44
165.0692	48
166.03391	40
166.04454	38
167.05038	224
168.06308	50
169.06689	42
172.62114	42
180.05574	1000
181.02759	57
181.05534	80
181.06424	161
182.03157	161
182.03867	174
182.06255	40
183.04092	99
183.04955	65
184.04654	42
185.05661	86
185.0654	128
195.04243	42
197.04575	44
207.03897	42
208.05478	126
209.0531	38
209.06435	44
210.03249	746
211.02652	38
212.04309	38
212.05434	78
225.05177	101
238.03069	59
253.05069	145

NAME: trans-piceid
PRECURSORMZ: 389.12419124783
PRECURSORTYPE: [M-H]-
INSTRUMENTTYPE: LC-ESI-QTOF
SMILES: OCC1OC(OC2=CC(C=CC3=CC=C(O)C=C3)=CC(O)=C2)C(O)C(O)C1O
INCHIKEY: HSTZMXCBWJGKHG-UHFFFAOYNA-N
Ontology: Stilbene glycosides
COLLISIONENERGY: 30
FORMULA: C20H22O8
RETENTIONTIME: 4.042817
IONMODE: Negative
Comment: registered in RIKEN PlaSMA
Num Peaks: 11
141.06888	11
143.04932	43
157.06471	12
159.08101	31
160.08934	6
183.08006	28
185.06047	137
186.06108	14
225.05156	8
227.07088	1000
228.07248	129

NAME: trans-piceid
PRECURSORMZ: 435.12967055183
PRECURSORTYPE: [M+FA-H]-
INSTRUMENTTYPE: LC-ESI-QTOF
SMILES: OCC1OC(OC2=CC(C=CC3=CC=C(O)C=C3)=CC(O)=C2)C(O)C(O)C1O
INCHIKEY: HSTZMXCBWJGKHG-UHFFFAOYNA-N
Ontology: Stilbene glycosides
COLLISIONENERGY: 30
FORMULA: C20H22O8
RETENTIONTIME: 4.042817
IONMODE: Negative
Comment: registered in RIKEN PlaSMA
Num Peaks: 7
159.07822	13
183.07985	13
185.05931	15
225.05219	6
227.07091	1000
228.07367	121
229.07538	10

NAME: Apigeninidin
PRECURSORMZ: 253.05063234783
PRECURSORTYPE: [M-H]-
INSTRUMENTTYPE: LC-ESI-QTOF
SMILES: OC1=CC=C(C=C1)C1=[O+]C2=CC(O)=CC([O-])=C2C=C1
INCHIKEY: ZKMZBAABQFUXFE-UHFFFAOYSA-N
Ontology: 7-hydroxyflavonoids
COLLISIONENERGY: 50
FORMULA: C15H10O4
RETENTIONTIME: 3.86845
IONMODE: Negative
Comment: registered in RIKEN PlaSMA
Num Peaks: 8
92.02613	406
117.03396	1000
118.03041	140
129.03847	140
132.02362	133
141.0378	420
165.02505	140
165.03969	301

NAME: trans-piceid
PRECURSORMZ: 389.12419124783
PRECURSORTYPE: [M-H]-
INSTRUMENTTYPE: LC-ESI-QTOF
SMILES: OCC1OC(OC2=CC(C=CC3=CC=C(O)C=C3)=CC(O)=C2)C(O)C(O)C1O
INCHIKEY: HSTZMXCBWJGKHG-UHFFFAOYNA-N
Ontology: Stilbene glycosides
COLLISIONENERGY: 50
FORMULA: C20H22O8
RETENTIONTIME: 4.042817
IONMODE: Negative
Comment: registered in RIKEN PlaSMA
Num Peaks: 45
77.03831	12
78.98751	18
93.03741	12
94.0325	14
115.05737	25
117.03111	148
117.0655	18
119.04755	85
119.05857	13
143.04759	1000
143.11203	12
143.15347	14
144.04539	18
144.05304	88
145.04755	13
155.08418	13
156.0519	27
156.05995	53
157.06252	13
158.03566	13
158.06816	27
159.07942	92
167.04982	25
169.07239	14
180.04849	14
180.06311	15
181.0538	29
181.07199	51
182.07399	121
183.04462	37
183.07158	33
183.08461	17
183.09125	31
184.04196	13
184.06137	13
185.06067	203
186.06065	58
195.04301	13
197.05664	13
197.06526	16
225.05472	24
226.0582	13
227.06363	31
227.0735	126
228.07648	14

NAME: trans-piceid
PRECURSORMZ: 435.12967055183
PRECURSORTYPE: [M+FA-H]-
INSTRUMENTTYPE: LC-ESI-QTOF
SMILES: OCC1OC(OC2=CC(C=CC3=CC=C(O)C=C3)=CC(O)=C2)C(O)C(O)C1O
INCHIKEY: HSTZMXCBWJGKHG-UHFFFAOYNA-N
Ontology: Stilbene glycosides
COLLISIONENERGY: 50
FORMULA: C20H22O8
RETENTIONTIME: 4.042817
IONMODE: Negative
Comment: registered in RIKEN PlaSMA
Num Peaks: 33
115.05186	21
117.03107	69
119.0467	20
130.07169	27
141.07002	41
142.06917	22
143.04926	737
144.05113	83
145.02666	31
145.05862	28
157.06204	113
157.07108	56
158.06851	20
159.07213	60
159.08281	197
159.09096	30
172.04295	20
181.06268	21
181.07208	28
182.07071	42
182.07828	21
183.03581	28
183.0864	63
184.08163	26
185.05914	1000
185.31415	22
186.06702	48
209.06425	23
225.04962	20
225.06113	41
226.05493	31
227.06915	426
228.07098	139

NAME: Apigeninidin
PRECURSORMZ: 253.05063234783
PRECURSORTYPE: [M-H]-
INSTRUMENTTYPE: LC-ESI-QTOF
SMILES: OC1=CC=C(C=C1)C1=[O+]C2=CC(O)=CC([O-])=C2C=C1
INCHIKEY: ZKMZBAABQFUXFE-UHFFFAOYSA-N
Ontology: 7-hydroxyflavonoids
COLLISIONENERGY: 10
FORMULA: C15H10O4
RETENTIONTIME: 3.86845
IONMODE: Negative
Comment: registered in RIKEN PlaSMA
Num Peaks: 50
65.66055	14
89.03932	8
101.03876	6
117.03239	15
117.03967	7
121.62451	8
133.02315	7
133.02972	13
141.03386	7
142.03986	6
152.06427	6
154.31232	6
156.05133	14
156.06029	6
157.05533	6
157.06732	13
159.00708	6
165.03036	7
166.03578	6
167.04796	14
169.0303	19
169.06857	7
171.03889	7
180.00079	6
180.05429	26
181.02527	7
181.04066	7
181.0681	13
182.037	25
183.03423	13
184.04108	6
185.05775	13
186.05836	6
197.0575	21
207.03726	6
208.04999	7
209.0502	21
209.0661	34
210.0179	15
210.02977	40
210.0618	17
211.03452	7
211.23991	7
213.05751	6
224.04263	6
225.05069	13
226.05591	8
252.05316	7
252.32202	7
253.04982	1000

NAME: trans-piceid
PRECURSORMZ: 389.12419124783
PRECURSORTYPE: [M-H]-
INSTRUMENTTYPE: LC-ESI-QTOF
SMILES: OCC1OC(OC2=CC(C=CC3=CC=C(O)C=C3)=CC(O)=C2)C(O)C(O)C1O
INCHIKEY: HSTZMXCBWJGKHG-UHFFFAOYNA-N
Ontology: Stilbene glycosides
COLLISIONENERGY: 10
FORMULA: C20H22O8
RETENTIONTIME: 4.042817
IONMODE: Negative
Comment: registered in RIKEN PlaSMA
Num Peaks: 10
143.04832	26
159.07489	9
183.08203	8
185.05896	62
186.06114	10
225.04962	7
227.0699	1000
228.07295	154
229.07562	9
389.12265	57

NAME: trans-piceid
PRECURSORMZ: 435.12967055183
PRECURSORTYPE: [M+FA-H]-
INSTRUMENTTYPE: LC-ESI-QTOF
SMILES: OCC1OC(OC2=CC(C=CC3=CC=C(O)C=C3)=CC(O)=C2)C(O)C(O)C1O
INCHIKEY: HSTZMXCBWJGKHG-UHFFFAOYNA-N
Ontology: Stilbene glycosides
COLLISIONENERGY: 10
FORMULA: C20H22O8
RETENTIONTIME: 4.042817
IONMODE: Negative
Comment: registered in RIKEN PlaSMA
Num Peaks: 11
157.04158	7
182.07123	5
185.05841	41
227.07063	1000
228.07353	144
229.07178	9
296.30048	5
389.12317	252
390.12091	28
391.1188	11
435.13101	24

NAME: trans-piceid
PRECURSORMZ: 389.12419124783
PRECURSORTYPE: [M-H]-
INSTRUMENTTYPE: LC-ESI-QTOF
SMILES: OCC1OC(OC2=CC(C=CC3=CC=C(O)C=C3)=CC(O)=C2)C(O)C(O)C1O
INCHIKEY: HSTZMXCBWJGKHG-UHFFFAOYNA-N
Ontology: Stilbene glycosides
COLLISIONENERGY: 10
FORMULA: C20H22O8
RETENTIONTIME: 4.042817
IONMODE: Negative
Comment: registered in RIKEN PlaSMA
Num Peaks: 4
227.07005	1000
228.07291	169
229.07458	19
389.12234	342

NAME: trans-piceid
PRECURSORMZ: 435.12967055183
PRECURSORTYPE: [M+FA-H]-
INSTRUMENTTYPE: LC-ESI-QTOF
SMILES: OCC1OC(OC2=CC(C=CC3=CC=C(O)C=C3)=CC(O)=C2)C(O)C(O)C1O
INCHIKEY: HSTZMXCBWJGKHG-UHFFFAOYNA-N
Ontology: Stilbene glycosides
COLLISIONENERGY: 10
FORMULA: C20H22O8
RETENTIONTIME: 4.042817
IONMODE: Negative
Comment: registered in RIKEN PlaSMA
Num Peaks: 8
226.06165	6
227.06863	210
228.07542	31
229.07167	6
389.12332	1000
390.12524	128
391.13525	22
435.13025	122

NAME: Apigeninidin
PRECURSORMZ: 253.05063234783
PRECURSORTYPE: [M-H]-
INSTRUMENTTYPE: LC-ESI-QTOF
SMILES: OC1=CC=C(C=C1)C1=[O+]C2=CC(O)=CC([O-])=C2C=C1
INCHIKEY: ZKMZBAABQFUXFE-UHFFFAOYSA-N
Ontology: 7-hydroxyflavonoids
COLLISIONENERGY: 30
FORMULA: C15H10O4
RETENTIONTIME: 3.86845
IONMODE: Negative
Comment: registered in RIKEN PlaSMA
Num Peaks: 53
50.30168	57
92.02245	44
93.03015	40
115.05375	33
117.03255	1000
118.03508	39
129.06581	39
131.04913	37
132.01915	37
133.02724	182
139.0537	37
141.02234	33
141.03413	72
143.0495	73
144.05144	99
154.04102	72
155.04707	123
155.05759	108
156.05841	44
157.06027	97
165.07159	75
167.04561	193
168.03969	42
168.05537	39
169.06209	51
169.06995	72
180.04927	114
180.05792	174
180.85497	37
181.03003	40
181.06215	150
182.02533	68
182.03519	275
182.06767	39
183.03706	31
183.05327	51
184.05055	37
185.05847	94
186.05545	37
197.05371	72
208.04779	310
208.06319	33
209.05374	75
209.06302	39
210.02359	86
210.03632	180
210.05446	37
211.02832	33
211.04018	33
212.03085	33
252.02686	37
253.04225	147
253.05898	39

NAME: trans-piceid
PRECURSORMZ: 389.12419124783
PRECURSORTYPE: [M-H]-
INSTRUMENTTYPE: LC-ESI-QTOF
SMILES: OCC1OC(OC2=CC(C=CC3=CC=C(O)C=C3)=CC(O)=C2)C(O)C(O)C1O
INCHIKEY: HSTZMXCBWJGKHG-UHFFFAOYNA-N
Ontology: Stilbene glycosides
COLLISIONENERGY: 30
FORMULA: C20H22O8
RETENTIONTIME: 4.042817
IONMODE: Negative
Comment: registered in RIKEN PlaSMA
Num Peaks: 14
143.05029	35
144.04826	8
157.06427	25
159.08037	32
182.06889	6
182.07877	8
183.08133	31
184.08481	9
185.05899	156
186.06323	16
225.05392	15
227.06932	1000
228.07234	125
229.07677	20

NAME: trans-piceid
PRECURSORMZ: 435.12967055183
PRECURSORTYPE: [M+FA-H]-
INSTRUMENTTYPE: LC-ESI-QTOF
SMILES: OCC1OC(OC2=CC(C=CC3=CC=C(O)C=C3)=CC(O)=C2)C(O)C(O)C1O
INCHIKEY: HSTZMXCBWJGKHG-UHFFFAOYNA-N
Ontology: Stilbene glycosides
COLLISIONENERGY: 30
FORMULA: C20H22O8
RETENTIONTIME: 4.042817
IONMODE: Negative
Comment: registered in RIKEN PlaSMA
Num Peaks: 4
101.02079	6
185.06236	20
227.06998	1000
228.07288	125

NAME: Apigeninidin
PRECURSORMZ: 253.05063234783
PRECURSORTYPE: [M-H]-
INSTRUMENTTYPE: LC-ESI-QTOF
SMILES: OC1=CC=C(C=C1)C1=[O+]C2=CC(O)=CC([O-])=C2C=C1
INCHIKEY: ZKMZBAABQFUXFE-UHFFFAOYSA-N
Ontology: 7-hydroxyflavonoids
COLLISIONENERGY: 50
FORMULA: C15H10O4
RETENTIONTIME: 3.86845
IONMODE: Negative
Comment: registered in RIKEN PlaSMA
Num Peaks: 8
93.034	183
117.03573	1000
156.06314	190
165.03477	159
166.0361	167
178.03751	143
184.06293	167
195.0499	143

NAME: trans-piceid
PRECURSORMZ: 389.12419124783
PRECURSORTYPE: [M-H]-
INSTRUMENTTYPE: LC-ESI-QTOF
SMILES: OCC1OC(OC2=CC(C=CC3=CC=C(O)C=C3)=CC(O)=C2)C(O)C(O)C1O
INCHIKEY: HSTZMXCBWJGKHG-UHFFFAOYNA-N
Ontology: Stilbene glycosides
COLLISIONENERGY: 50
FORMULA: C20H22O8
RETENTIONTIME: 4.042817
IONMODE: Negative
Comment: registered in RIKEN PlaSMA
Num Peaks: 53
93.03387	25
107.04279	13
115.05345	51
115.1572	12
116.05753	11
117.02918	74
117.03625	40
118.03532	11
118.0399	22
119.04874	42
131.04634	12
141.06721	26
141.07465	12
142.04408	11
143.04813	1000
144.04643	39
144.05287	99
145.02489	13
145.04601	17
145.05304	10
146.03198	12
157.06081	42
157.0679	32
159.03242	12
159.08205	61
159.09346	11
167.05356	26
170.07315	12
180.05032	11
180.05804	35
181.0659	51
182.03415	12
182.07204	58
183.03281	17
183.04102	59
183.05254	12
183.06358	13
183.07979	51
184.05083	41
184.06116	12
185.0499	48
185.05992	171
186.06241	11
187.0625	23
196.0502	17
199.07054	14
212.05328	18
225.05038	68
227.06786	67
228.06847	12
259.29712	19
320.38828	17
389.13037	25

NAME: trans-piceid
PRECURSORMZ: 435.12967055183
PRECURSORTYPE: [M+FA-H]-
INSTRUMENTTYPE: LC-ESI-QTOF
SMILES: OCC1OC(OC2=CC(C=CC3=CC=C(O)C=C3)=CC(O)=C2)C(O)C(O)C1O
INCHIKEY: HSTZMXCBWJGKHG-UHFFFAOYNA-N
Ontology: Stilbene glycosides
COLLISIONENERGY: 50
FORMULA: C20H22O8
RETENTIONTIME: 4.042817
IONMODE: Negative
Comment: registered in RIKEN PlaSMA
Num Peaks: 36
77.04112	25
93.03568	48
117.03042	23
135.08023	26
141.06645	113
141.07602	30
143.0477	782
144.05435	216
145.03493	33
146.03143	23
155.08485	23
157.06128	101
157.07011	53
159.07643	98
159.0844	59
165.07372	30
181.06061	87
181.07452	55
182.06093	23
182.0724	166
183.06808	20
183.07857	194
184.04974	50
184.05902	30
184.07349	25
184.09004	25
185.05974	1000
186.06587	238
187.06691	26
188.06902	25
212.049	68
225.05843	108
227.05899	173
227.07294	562
228.06543	25
228.07303	69

NAME: trans-pterostilbene
PRECURSORMZ: 255.10266794783
PRECURSORTYPE: [M-H]-
INSTRUMENTTYPE: LC-ESI-QTOF
SMILES: COC1=CC(C=CC2=CC=C(O)C=C2)=CC(OC)=C1
INCHIKEY: VLEUZFDZJKSGMX-UHFFFAOYSA-N
Ontology: Stilbenes
COLLISIONENERGY: 10
FORMULA: C16H16O3
RETENTIONTIME: 8.007517
IONMODE: Negative
Comment: registered in RIKEN PlaSMA
Num Peaks: 48
107.44619	6
117.03654	6
117.4306	6
153.07417	10
165.07449	11
167.0419	12
167.05345	7
168.05627	10
168.06424	6
169.05762	8
169.06816	30
169.61214	6
170.06259	6
179.04523	6
180.05794	13
181.06624	21
182.07268	6
184.05299	6
184.08284	7
185.04974	6
191.15578	8
193.06851	6
195.04678	24
196.05228	8
197.05937	181
197.07446	7
198.06064	34
199.06757	8
209.06226	6
210.05595	6
210.06778	15
211.07733	12
212.07887	6
214.34302	8
224.03581	5
224.04752	48
225.04031	8
225.04871	12
225.05745	13
226.05574	6
233.36438	8
239.06844	185
240.07664	374
241.08043	56
242.09457	6
254.04347	6
255.10123	1000
255.123	6

NAME: trans-pterostilbene
PRECURSORMZ: 255.10266794783
PRECURSORTYPE: [M-H]-
INSTRUMENTTYPE: LC-ESI-QTOF
SMILES: COC1=CC(C=CC2=CC=C(O)C=C2)=CC(OC)=C1
INCHIKEY: VLEUZFDZJKSGMX-UHFFFAOYSA-N
Ontology: Stilbenes
COLLISIONENERGY: 10
FORMULA: C16H16O3
RETENTIONTIME: 8.007517
IONMODE: Negative
Comment: registered in RIKEN PlaSMA
Num Peaks: 4
239.07297	5
240.07242	13
240.08275	10
255.10127	1000

NAME: trans-pterostilbene
PRECURSORMZ: 255.10266794783
PRECURSORTYPE: [M-H]-
INSTRUMENTTYPE: LC-ESI-QTOF
SMILES: COC1=CC(C=CC2=CC=C(O)C=C2)=CC(OC)=C1
INCHIKEY: VLEUZFDZJKSGMX-UHFFFAOYSA-N
Ontology: Stilbenes
COLLISIONENERGY: 30
FORMULA: C16H16O3
RETENTIONTIME: 8.007517
IONMODE: Negative
Comment: registered in RIKEN PlaSMA
Num Peaks: 58
99.6482	7
117.03985	6
141.06586	7
143.05019	8
152.05292	14
152.06526	17
153.07571	6
157.06067	7
157.06825	9
158.0686	7
167.0463	7
167.05687	7
168.05865	13
168.06993	7
169.06487	273
169.08508	6
170.06671	48
179.04343	7
179.05621	7
180.05376	24
180.06026	8
181.06818	44
182.07199	17
183.08441	8
184.07486	7
186.12575	8
193.65904	11
194.06978	17
195.03528	7
195.04411	24
195.08165	12
196.04352	10
196.05075	29
196.05836	29
196.07823	7
196.11844	9
196.40161	6
196.90886	11
197.05995	1000
198.06795	61
207.04343	15
208.0564	9
208.11098	6
209.06204	49
210.06366	21
211.07787	32
212.0844	7
213.08095	6
224.04897	195
225.04028	14
225.05696	63
226.07201	6
238.0554	9
239.05901	54
239.07143	230
240.07126	68
240.08136	35
241.08928	7

NAME: trans-pterostilbene
PRECURSORMZ: 255.10266794783
PRECURSORTYPE: [M-H]-
INSTRUMENTTYPE: LC-ESI-QTOF
SMILES: COC1=CC(C=CC2=CC=C(O)C=C2)=CC(OC)=C1
INCHIKEY: VLEUZFDZJKSGMX-UHFFFAOYSA-N
Ontology: Stilbenes
COLLISIONENERGY: 50
FORMULA: C16H16O3
RETENTIONTIME: 8.007517
IONMODE: Negative
Comment: registered in RIKEN PlaSMA
Num Peaks: 23
115.05189	175
130.04445	79
139.05479	87
141.06071	92
141.06892	157
142.05003	87
143.04802	83
143.05563	170
154.03563	175
156.05579	83
167.04832	205
168.05891	253
169.06435	1000
169.08281	79
179.04433	192
180.0582	170
183.04828	79
195.05064	266
196.04724	114
196.05695	79
197.05045	79
209.0648	79
210.05719	79

NAME: trans-pterostilbene
PRECURSORMZ: 255.10266794783
PRECURSORTYPE: [M-H]-
INSTRUMENTTYPE: LC-ESI-QTOF
SMILES: COC1=CC(C=CC2=CC=C(O)C=C2)=CC(OC)=C1
INCHIKEY: VLEUZFDZJKSGMX-UHFFFAOYSA-N
Ontology: Stilbenes
COLLISIONENERGY: 10
FORMULA: C16H16O3
RETENTIONTIME: 8.007517
IONMODE: Negative
Comment: registered in RIKEN PlaSMA
Num Peaks: 23
168.06116	9
169.06195	70
169.06981	21
171.07639	6
181.05795	26
181.06747	16
194.06476	5
195.049	9
195.08023	8
196.04999	28
197.06059	192
209.06123	16
211.07796	13
212.07968	6
221.0493	6
224.04538	53
224.05527	20
225.05148	22
236.26921	8
239.06808	109
240.07817	378
241.08093	73
255.10155	1000

NAME: trans-pterostilbene
PRECURSORMZ: 255.10266794783
PRECURSORTYPE: [M-H]-
INSTRUMENTTYPE: LC-ESI-QTOF
SMILES: COC1=CC(C=CC2=CC=C(O)C=C2)=CC(OC)=C1
INCHIKEY: VLEUZFDZJKSGMX-UHFFFAOYSA-N
Ontology: Stilbenes
COLLISIONENERGY: 10
FORMULA: C16H16O3
RETENTIONTIME: 8.007517
IONMODE: Negative
Comment: registered in RIKEN PlaSMA
Num Peaks: 3
240.07503	19
240.08839	6
255.10179	1000

NAME: trans-pterostilbene
PRECURSORMZ: 255.10266794783
PRECURSORTYPE: [M-H]-
INSTRUMENTTYPE: LC-ESI-QTOF
SMILES: COC1=CC(C=CC2=CC=C(O)C=C2)=CC(OC)=C1
INCHIKEY: VLEUZFDZJKSGMX-UHFFFAOYSA-N
Ontology: Stilbenes
COLLISIONENERGY: 30
FORMULA: C16H16O3
RETENTIONTIME: 8.007517
IONMODE: Negative
Comment: registered in RIKEN PlaSMA
Num Peaks: 55
85.95531	5
91.01857	5
141.0676	11
143.05432	19
151.05244	11
152.05644	9
152.0647	5
153.06943	18
157.06398	38
157.07129	7
158.03799	5
158.07072	9
167.04407	8
167.0504	11
169.05867	83
169.0649	203
170.06699	22
171.04346	9
179.0446	25
179.05347	30
180.05197	31
180.0609	21
180.17744	5
181.06369	60
181.06946	20
182.03328	8
182.04355	6
183.03842	18
183.04649	11
194.07008	6
195.04326	64
195.08037	38
196.04321	18
196.05374	81
197.05875	1000
198.06407	127
199.06401	5
199.07106	12
209.05461	29
209.06856	32
210.061	14
210.07309	20
211.06844	25
211.07671	26
212.07562	16
215.99585	5
224.04825	216
225.05042	61
225.06261	16
226.06033	22
226.06848	7
239.07053	263
240.07195	86
240.08131	67
241.08052	6

NAME: trans-pterostilbene
PRECURSORMZ: 255.10266794783
PRECURSORTYPE: [M-H]-
INSTRUMENTTYPE: LC-ESI-QTOF
SMILES: COC1=CC(C=CC2=CC=C(O)C=C2)=CC(OC)=C1
INCHIKEY: VLEUZFDZJKSGMX-UHFFFAOYSA-N
Ontology: Stilbenes
COLLISIONENERGY: 50
FORMULA: C16H16O3
RETENTIONTIME: 8.007517
IONMODE: Negative
Comment: registered in RIKEN PlaSMA
Num Peaks: 32
93.03653	168
115.04822	105
117.02956	84
117.03608	80
120.05123	80
129.04092	97
141.03333	290
141.06834	185
142.0322	84
143.04729	261
143.05258	151
143.06305	88
151.04495	76
152.05455	84
154.04114	80
157.06232	164
157.07108	88
167.04936	340
168.05893	235
168.06462	80
169.06371	1000
170.06865	185
179.05682	84
180.06071	286
184.04767	76
195.04266	651
196.04587	76
196.05649	105
197.05739	172
208.05298	84
208.79581	88
224.03726	84

NAME: trans-pterostilbene
PRECURSORMZ: 255.10266794783
PRECURSORTYPE: [M-H]-
INSTRUMENTTYPE: LC-ESI-QTOF
SMILES: COC1=CC(C=CC2=CC=C(O)C=C2)=CC(OC)=C1
INCHIKEY: VLEUZFDZJKSGMX-UHFFFAOYSA-N
Ontology: Stilbenes
COLLISIONENERGY: 10
FORMULA: C16H16O3
RETENTIONTIME: 8.007517
IONMODE: Negative
Comment: registered in RIKEN PlaSMA
Num Peaks: 34
113.97261	8
134.84976	6
153.07031	7
157.06561	16
167.04858	9
169.06416	97
179.04807	13
179.05652	6
181.06773	24
183.0256	6
193.06979	6
194.07767	6
196.04639	25
197.04597	12
197.0601	155
198.05524	12
198.06392	12
199.07829	7
209.0535	6
209.06346	15
210.0643	8
211.07066	27
212.08102	6
224.04895	52
225.05132	19
226.55142	6
239.06982	138
239.08725	13
240.07619	271
240.09569	11
241.07822	55
242.09605	6
254.4351	6
255.10097	1000

NAME: trans-pterostilbene
PRECURSORMZ: 255.10266794783
PRECURSORTYPE: [M-H]-
INSTRUMENTTYPE: LC-ESI-QTOF
SMILES: COC1=CC(C=CC2=CC=C(O)C=C2)=CC(OC)=C1
INCHIKEY: VLEUZFDZJKSGMX-UHFFFAOYSA-N
Ontology: Stilbenes
COLLISIONENERGY: 10
FORMULA: C16H16O3
RETENTIONTIME: 8.007517
IONMODE: Negative
Comment: registered in RIKEN PlaSMA
Num Peaks: 2
240.07753	26
255.10159	1000

NAME: trans-pterostilbene
PRECURSORMZ: 255.10266794783
PRECURSORTYPE: [M-H]-
INSTRUMENTTYPE: LC-ESI-QTOF
SMILES: COC1=CC(C=CC2=CC=C(O)C=C2)=CC(OC)=C1
INCHIKEY: VLEUZFDZJKSGMX-UHFFFAOYSA-N
Ontology: Stilbenes
COLLISIONENERGY: 30
FORMULA: C16H16O3
RETENTIONTIME: 8.007517
IONMODE: Negative
Comment: registered in RIKEN PlaSMA
Num Peaks: 58
108.72848	10
117.03498	9
141.06528	9
145.0692	10
151.05431	12
153.07576	9
155.04422	9
157.06345	35
159.04892	9
163.29774	11
165.21208	10
167.04979	27
168.05792	9
169.06445	251
170.06584	67
179.04068	22
179.0511	52
180.05261	47
180.06804	9
181.05461	18
181.06686	74
182.02951	9
182.04611	10
182.06204	9
182.07205	22
182.07921	11
183.03267	9
183.04161	9
183.06392	9
187.16612	9
193.06314	9
195.04082	15
195.15544	12
196.04008	9
196.05513	164
197.04156	20
197.05952	1000
197.09697	10
198.04567	12
198.05682	75
198.06622	87
199.06534	19
200.06796	19
207.03979	10
209.05695	54
211.06537	17
211.07541	52
212.07916	9
221.0609	9
224.04721	195
225.04857	52
225.06001	44
226.05606	13
237.0612	9
239.06982	313
240.07335	94
240.08447	18
241.0721	9

NAME: trans-pterostilbene
PRECURSORMZ: 255.10266794783
PRECURSORTYPE: [M-H]-
INSTRUMENTTYPE: LC-ESI-QTOF
SMILES: COC1=CC(C=CC2=CC=C(O)C=C2)=CC(OC)=C1
INCHIKEY: VLEUZFDZJKSGMX-UHFFFAOYSA-N
Ontology: Stilbenes
COLLISIONENERGY: 50
FORMULA: C16H16O3
RETENTIONTIME: 8.007517
IONMODE: Negative
Comment: registered in RIKEN PlaSMA
Num Peaks: 21
129.03436	167
141.06575	91
142.07472	83
143.04608	151
152.0694	87
154.04268	131
156.05722	79
157.06123	71
167.04807	167
168.05354	79
169.06567	1000
170.07246	79
179.05002	95
180.06227	71
182.04666	71
197.05136	75
208.04674	75
209.07013	75
224.04823	71
239.08348	79
255.1068	198

NAME: Licoricesaponin G2
PRECURSORMZ: 837.39142404783
PRECURSORTYPE: [M-H]-
INSTRUMENTTYPE: LC-ESI-QTOF
SMILES: CC12CCC(C)(CC1C1=CC(=O)C3C4(C)CCC(OC5OC(C(O)C(O)C5OC5OC(C(O)C(O)C5O)C(O)=O)C(O)=O)C(C)(CO)C4CCC3(C)C1(C)CC2)C(O)=O
INCHIKEY: WBQVRPYEEYUEBQ-UHFFFAOYNA-N
Ontology: Triterpene saponins
COLLISIONENERGY: 10
FORMULA: C42H62O17
RETENTIONTIME: 6.33905
IONMODE: Negative
Comment: registered in RIKEN PlaSMA
Num Peaks: 8
113.02028	10
113.02569	11
175.02367	11
193.03345	38
351.05591	135
352.05679	11
837.38849	1000
837.45929	9

NAME: Soyasaponin Ba
PRECURSORMZ: 1003.51193315183
PRECURSORTYPE: [M+FA-H]-
INSTRUMENTTYPE: LC-ESI-QTOF
SMILES: CC1(C)CC(O)C2(C)CCC3(C)C(=CCC4C5(C)CCC(OC6OC(C(O)C(O)C6OC6OC(CO)C(O)C(O)C6OC6OC(CO)C(O)C(O)C6O)C(O)=O)C(C)(CO)C5CCC34C)C2C1
INCHIKEY: WFRQIKSNAYYUJZ-UHFFFAOYNA-N
Ontology: Triterpene saponins
COLLISIONENERGY: 10
FORMULA: C48H78O19
RETENTIONTIME: 6.953817
IONMODE: Negative
Comment: registered in RIKEN PlaSMA
Num Peaks: 18
139.00136	9
221.0578	15
243.81897	16
485.32877	10
567.60724	17
619.00513	15
727.28015	15
940.51849	9
957.43597	12
957.50397	1000
957.56268	36
958.50885	503
958.71179	7
959.21436	10
959.49384	93
959.52917	46
960.52332	7
960.56274	8

NAME: Soyasaponin Ba
PRECURSORMZ: 957.50645384783
PRECURSORTYPE: [M-H]-
INSTRUMENTTYPE: LC-ESI-QTOF
SMILES: CC1(C)CC(O)C2(C)CCC3(C)C(=CCC4C5(C)CCC(OC6OC(C(O)C(O)C6OC6OC(CO)C(O)C(O)C6OC6OC(CO)C(O)C(O)C6O)C(O)=O)C(C)(CO)C5CCC34C)C2C1
INCHIKEY: WFRQIKSNAYYUJZ-UHFFFAOYNA-N
Ontology: Triterpene saponins
COLLISIONENERGY: 10
FORMULA: C48H78O19
RETENTIONTIME: 6.953817
IONMODE: Negative
Comment: registered in RIKEN PlaSMA
Num Peaks: 8
85.02716	6
161.045	8
179.05548	12
221.06491	14
263.08435	5
939.50006	12
957.50562	1000
957.59247	5

NAME: Licoricesaponin H2
PRECURSORMZ: 821.39650944783
PRECURSORTYPE: [M-H]-
INSTRUMENTTYPE: LC-ESI-QTOF
SMILES: CC1(C)C(CCC2(C)C1CCC1(C)C2C(=O)C=C2C3CC(C)(CCC3(C)CCC12C)C(O)=O)OC1OC(C(O)C(O)C1OC1OC(C(O)C(O)C1O)C(O)=O)C(O)=O
INCHIKEY: LPLVUJXQOOQHMX-UHFFFAOYNA-N
Ontology: Triterpene saponins
COLLISIONENERGY: 10
FORMULA: C42H62O16
RETENTIONTIME: 7.035967
IONMODE: Negative
Comment: registered in RIKEN PlaSMA
Num Peaks: 8
113.02219	12
175.02043	7
193.0332	26
289.05859	10
351.05637	105
352.0589	15
821.39557	1000
821.46533	5

NAME: Soyasaponin Bb
PRECURSORMZ: 941.51153924783
PRECURSORTYPE: [M-H]-
INSTRUMENTTYPE: LC-ESI-QTOF
SMILES: CC1OC(OC2C(O)C(O)C(CO)OC2OC2C(O)C(O)C(OC2OC2CCC3(C)C(CCC4(C)C3CC=C3C5CC(C)(C)CC(O)C5(C)CCC43C)C2(C)CO)C(O)=O)C(O)C(O)C1O
INCHIKEY: PTDAHAWQAGSZDD-UHFFFAOYNA-N
Ontology: Triterpene saponins
COLLISIONENERGY: 10
FORMULA: C48H78O18
RETENTIONTIME: 7.11665
IONMODE: Negative
Comment: registered in RIKEN PlaSMA
Num Peaks: 3
205.0715	12
941.51166	1000
941.57941	6

NAME: Soyasaponin Bb
PRECURSORMZ: 987.51701855183
PRECURSORTYPE: [M+FA-H]-
INSTRUMENTTYPE: LC-ESI-QTOF
SMILES: CC1OC(OC2C(O)C(O)C(CO)OC2OC2C(O)C(O)C(OC2OC2CCC3(C)C(CCC4(C)C3CC=C3C5CC(C)(C)CC(O)C5(C)CCC43C)C2(C)CO)C(O)=O)C(O)C(O)C1O
INCHIKEY: PTDAHAWQAGSZDD-UHFFFAOYNA-N
Ontology: Triterpene saponins
COLLISIONENERGY: 10
FORMULA: C48H78O18
RETENTIONTIME: 7.11665
IONMODE: Negative
Comment: registered in RIKEN PlaSMA
Num Peaks: 6
941.51147	1000
942.51514	552
943.51697	198
944.50037	14
944.52216	32
987.51599	153

NAME: Soyasaponin Ba
PRECURSORMZ: 957.50645384783
PRECURSORTYPE: [M-H]-
INSTRUMENTTYPE: LC-ESI-QTOF
SMILES: CC1(C)CC(O)C2(C)CCC3(C)C(=CCC4C5(C)CCC(OC6OC(C(O)C(O)C6OC6OC(CO)C(O)C(O)C6OC6OC(CO)C(O)C(O)C6O)C(O)=O)C(C)(CO)C5CCC34C)C2C1
INCHIKEY: WFRQIKSNAYYUJZ-UHFFFAOYNA-N
Ontology: Triterpene saponins
COLLISIONENERGY: 10
FORMULA: C48H78O19
RETENTIONTIME: 6.953817
IONMODE: Negative
Comment: registered in RIKEN PlaSMA
Num Peaks: 2
957.50409	1000
957.59601	5

NAME: Licoricesaponin H2
PRECURSORMZ: 821.39650944783
PRECURSORTYPE: [M-H]-
INSTRUMENTTYPE: LC-ESI-QTOF
SMILES: CC1(C)C(CCC2(C)C1CCC1(C)C2C(=O)C=C2C3CC(C)(CCC3(C)CCC12C)C(O)=O)OC1OC(C(O)C(O)C1OC1OC(C(O)C(O)C1O)C(O)=O)C(O)=O
INCHIKEY: LPLVUJXQOOQHMX-UHFFFAOYNA-N
Ontology: Triterpene saponins
COLLISIONENERGY: 10
FORMULA: C42H62O16
RETENTIONTIME: 7.035967
IONMODE: Negative
Comment: registered in RIKEN PlaSMA
Num Peaks: 2
821.39392	1000
821.46539	9

NAME: Soyasaponin Bb
PRECURSORMZ: 941.51153924783
PRECURSORTYPE: [M-H]-
INSTRUMENTTYPE: LC-ESI-QTOF
SMILES: CC1OC(OC2C(O)C(O)C(CO)OC2OC2C(O)C(O)C(OC2OC2CCC3(C)C(CCC4(C)C3CC=C3C5CC(C)(C)CC(O)C5(C)CCC43C)C2(C)CO)C(O)=O)C(O)C(O)C1O
INCHIKEY: PTDAHAWQAGSZDD-UHFFFAOYNA-N
Ontology: Triterpene saponins
COLLISIONENERGY: 10
FORMULA: C48H78O18
RETENTIONTIME: 7.11665
IONMODE: Negative
Comment: registered in RIKEN PlaSMA
Num Peaks: 2
941.50897	1000
941.57245	14

NAME: Soyasaponin Bb
PRECURSORMZ: 987.51701855183
PRECURSORTYPE: [M+FA-H]-
INSTRUMENTTYPE: LC-ESI-QTOF
SMILES: CC1OC(OC2C(O)C(O)C(CO)OC2OC2C(O)C(O)C(OC2OC2CCC3(C)C(CCC4(C)C3CC=C3C5CC(C)(C)CC(O)C5(C)CCC43C)C2(C)CO)C(O)=O)C(O)C(O)C1O
INCHIKEY: PTDAHAWQAGSZDD-UHFFFAOYNA-N
Ontology: Triterpene saponins
COLLISIONENERGY: 10
FORMULA: C48H78O18
RETENTIONTIME: 7.11665
IONMODE: Negative
Comment: registered in RIKEN PlaSMA
Num Peaks: 11
576.08936	6
926.06354	7
941.50934	1000
942.5119	524
943.51221	121
943.54132	61
944.47864	8
944.51166	13
944.54327	30
945.52576	11
987.50262	212

NAME: Licoricesaponin G2
PRECURSORMZ: 837.39142404783
PRECURSORTYPE: [M-H]-
INSTRUMENTTYPE: LC-ESI-QTOF
SMILES: CC12CCC(C)(CC1C1=CC(=O)C3C4(C)CCC(OC5OC(C(O)C(O)C5OC5OC(C(O)C(O)C5O)C(O)=O)C(O)=O)C(C)(CO)C4CCC3(C)C1(C)CC2)C(O)=O
INCHIKEY: WBQVRPYEEYUEBQ-UHFFFAOYNA-N
Ontology: Triterpene saponins
COLLISIONENERGY: 30
FORMULA: C42H62O17
RETENTIONTIME: 6.33905
IONMODE: Negative
Comment: registered in RIKEN PlaSMA
Num Peaks: 8
113.02623	8
175.0238	12
193.03455	22
333.04819	6
351.05637	199
352.06226	33
837.39111	1000
837.44586	10

NAME: Soyasaponin Ba
PRECURSORMZ: 1003.51193315183
PRECURSORTYPE: [M+FA-H]-
INSTRUMENTTYPE: LC-ESI-QTOF
SMILES: CC1(C)CC(O)C2(C)CCC3(C)C(=CCC4C5(C)CCC(OC6OC(C(O)C(O)C6OC6OC(CO)C(O)C(O)C6OC6OC(CO)C(O)C(O)C6O)C(O)=O)C(C)(CO)C5CCC34C)C2C1
INCHIKEY: WFRQIKSNAYYUJZ-UHFFFAOYNA-N
Ontology: Triterpene saponins
COLLISIONENERGY: 30
FORMULA: C48H78O19
RETENTIONTIME: 6.953817
IONMODE: Negative
Comment: registered in RIKEN PlaSMA
Num Peaks: 18
388.30402	8
407.34384	9
411.41119	24
451.62683	7
748.12512	8
940.49219	8
957.20959	8
957.50494	1000
957.565	25
958.51123	531
958.57019	8
959.46875	26
959.52295	79
960.48267	9
960.53333	32
960.56836	8
962.06799	10
966.91595	8

NAME: Soyasaponin Ba
PRECURSORMZ: 957.50645384783
PRECURSORTYPE: [M-H]-
INSTRUMENTTYPE: LC-ESI-QTOF
SMILES: CC1(C)CC(O)C2(C)CCC3(C)C(=CCC4C5(C)CCC(OC6OC(C(O)C(O)C6OC6OC(CO)C(O)C(O)C6OC6OC(CO)C(O)C(O)C6O)C(O)=O)C(C)(CO)C5CCC34C)C2C1
INCHIKEY: WFRQIKSNAYYUJZ-UHFFFAOYNA-N
Ontology: Triterpene saponins
COLLISIONENERGY: 30
FORMULA: C48H78O19
RETENTIONTIME: 6.953817
IONMODE: Negative
Comment: registered in RIKEN PlaSMA
Num Peaks: 4
221.06119	7
263.07489	10
957.50317	1000
957.58191	6

NAME: Licoricesaponin H2
PRECURSORMZ: 821.39650944783
PRECURSORTYPE: [M-H]-
INSTRUMENTTYPE: LC-ESI-QTOF
SMILES: CC1(C)C(CCC2(C)C1CCC1(C)C2C(=O)C=C2C3CC(C)(CCC3(C)CCC12C)C(O)=O)OC1OC(C(O)C(O)C1OC1OC(C(O)C(O)C1O)C(O)=O)C(O)=O
INCHIKEY: LPLVUJXQOOQHMX-UHFFFAOYNA-N
Ontology: Triterpene saponins
COLLISIONENERGY: 30
FORMULA: C42H62O16
RETENTIONTIME: 7.035967
IONMODE: Negative
Comment: registered in RIKEN PlaSMA
Num Peaks: 8
113.02241	7
175.02168	7
193.03357	27
351.05545	154
352.05222	15
352.06732	10
821.39429	1000
821.46991	8

NAME: Soyasaponin Bb
PRECURSORMZ: 941.51153924783
PRECURSORTYPE: [M-H]-
INSTRUMENTTYPE: LC-ESI-QTOF
SMILES: CC1OC(OC2C(O)C(O)C(CO)OC2OC2C(O)C(O)C(OC2OC2CCC3(C)C(CCC4(C)C3CC=C3C5CC(C)(C)CC(O)C5(C)CCC43C)C2(C)CO)C(O)=O)C(O)C(O)C1O
INCHIKEY: PTDAHAWQAGSZDD-UHFFFAOYNA-N
Ontology: Triterpene saponins
COLLISIONENERGY: 30
FORMULA: C48H78O18
RETENTIONTIME: 7.11665
IONMODE: Negative
Comment: registered in RIKEN PlaSMA
Num Peaks: 4
923.48669	5
924.51691	9
941.51093	1000
941.578	14

NAME: Soyasaponin Bb
PRECURSORMZ: 987.51701855183
PRECURSORTYPE: [M+FA-H]-
INSTRUMENTTYPE: LC-ESI-QTOF
SMILES: CC1OC(OC2C(O)C(O)C(CO)OC2OC2C(O)C(O)C(OC2OC2CCC3(C)C(CCC4(C)C3CC=C3C5CC(C)(C)CC(O)C5(C)CCC43C)C2(C)CO)C(O)=O)C(O)C(O)C1O
INCHIKEY: PTDAHAWQAGSZDD-UHFFFAOYNA-N
Ontology: Triterpene saponins
COLLISIONENERGY: 30
FORMULA: C48H78O18
RETENTIONTIME: 7.11665
IONMODE: Negative
Comment: registered in RIKEN PlaSMA
Num Peaks: 5
941.51056	1000
942.51245	543
943.51636	158
944.47125	6
944.52881	22

NAME: Licoricesaponin G2
PRECURSORMZ: 837.39142404783
PRECURSORTYPE: [M-H]-
INSTRUMENTTYPE: LC-ESI-QTOF
SMILES: CC12CCC(C)(CC1C1=CC(=O)C3C4(C)CCC(OC5OC(C(O)C(O)C5OC5OC(C(O)C(O)C5O)C(O)=O)C(O)=O)C(C)(CO)C4CCC3(C)C1(C)CC2)C(O)=O
INCHIKEY: WBQVRPYEEYUEBQ-UHFFFAOYNA-N
Ontology: Triterpene saponins
COLLISIONENERGY: 50
FORMULA: C42H62O17
RETENTIONTIME: 6.33905
IONMODE: Negative
Comment: registered in RIKEN PlaSMA
Num Peaks: 115
59.012	22
59.01561	16
68.48131	5
71.00999	55
71.01427	75
72.9923	89
73.0297	11
75.00476	35
75.00983	56
76.01399	5
85.02874	130
87.00591	30
89.02373	126
95.0136	49
99.00813	89
99.04518	5
100.01328	9
101.02557	56
103.00303	185
103.03883	11
103.9943	6
104.00506	16
109.26504	7
111.00842	5
111.0162	12
113.02389	1000
114.02595	67
114.03918	5
115.0024	73
115.02837	9
116.0036	8
116.00873	25
117.01182	11
117.01878	53
125.02153	10
126.42869	6
129.0168	27
129.02803	9
131.03436	176
132.03188	7
132.03928	12
133.01114	23
133.01973	7
141.01871	10
143.03706	7
149.04086	16
157.01411	102
158.0163	9
163.02802	20
169.01074	5
175.00008	5
175.02374	262
175.92125	5
176.02367	8
176.03122	18
186.19484	5
193.03453	733
193.05463	7
194.02792	8
194.03928	25
207.97952	6
226.32509	11
229.19536	9
235.04192	35
235.05112	22
236.05128	5
238.44025	5
259.04572	8
261.06116	27
262.05978	13
266.48682	6
275.03232	8
281.23456	6
289.0506	61
290.05554	5
307.06424	11
307.07605	9
351.05408	790
352.04633	32
352.06146	105
353.0546	8
353.07104	9
410.33017	7
436.24713	6
437.29819	5
441.32629	7
441.34296	6
454.3175	5
467.31494	11
485.33112	19
485.35724	7
486.31973	12
527.32269	15
528.35223	8
555.35022	6
557.35754	9
573.3797	5
599.34058	8
599.37885	6
600.34064	12
600.36212	5
617.36542	9
643.32599	10
643.34387	20
644.35461	23
645.36115	7
661.33478	11
661.36176	26
662.3642	15
703.36292	7
775.3631	10
775.39368	8
819.38879	8
837.35901	10
837.39746	64

NAME: Soyasaponin Ba
PRECURSORMZ: 1003.51193315183
PRECURSORTYPE: [M+FA-H]-
INSTRUMENTTYPE: LC-ESI-QTOF
SMILES: CC1(C)CC(O)C2(C)CCC3(C)C(=CCC4C5(C)CCC(OC6OC(C(O)C(O)C6OC6OC(CO)C(O)C(O)C6OC6OC(CO)C(O)C(O)C6O)C(O)=O)C(C)(CO)C5CCC34C)C2C1
INCHIKEY: WFRQIKSNAYYUJZ-UHFFFAOYNA-N
Ontology: Triterpene saponins
COLLISIONENERGY: 50
FORMULA: C48H78O19
RETENTIONTIME: 6.953817
IONMODE: Negative
Comment: registered in RIKEN PlaSMA
Num Peaks: 46
85.03011	248
89.02615	189
91.79219	33
95.01135	49
101.02134	67
113.02477	169
119.03961	48
139.00146	38
158.01579	41
159.02567	33
161.04419	64
161.39795	33
170.8421	33
179.05858	191
180.05823	33
220.87411	33
221.06619	220
263.06607	39
263.07657	107
264.08447	44
410.35461	56
437.3508	31
438.36624	33
457.33505	36
457.36026	30
498.37732	33
511.65219	30
525.38757	33
525.40356	35
597.3941	110
598.38336	33
608.6734	41
615.26581	44
615.35791	81
615.4054	64
778.44781	30
940.50836	30
941.44299	54
957.50238	1000
958.47577	291
958.52747	243
958.58618	30
959.49683	90
959.54218	31
960.55585	35
961.51837	30

NAME: Soyasaponin Ba
PRECURSORMZ: 957.50645384783
PRECURSORTYPE: [M-H]-
INSTRUMENTTYPE: LC-ESI-QTOF
SMILES: CC1(C)CC(O)C2(C)CCC3(C)C(=CCC4C5(C)CCC(OC6OC(C(O)C(O)C6OC6OC(CO)C(O)C(O)C6OC6OC(CO)C(O)C(O)C6O)C(O)=O)C(C)(CO)C5CCC34C)C2C1
INCHIKEY: WFRQIKSNAYYUJZ-UHFFFAOYNA-N
Ontology: Triterpene saponins
COLLISIONENERGY: 50
FORMULA: C48H78O19
RETENTIONTIME: 6.953817
IONMODE: Negative
Comment: registered in RIKEN PlaSMA
Num Peaks: 162
59.01218	40
59.96423	7
67.0191	9
71.0041	9
71.01104	43
71.01613	35
73.02657	7
74.03226	7
74.52285	7
74.66276	7
75.00838	53
81.03053	8
83.01096	12
84.02441	10
85.02895	460
86.02905	15
86.0331	19
87.00825	43
89.02325	237
90.03553	7
95.01289	89
99.00842	102
100.00786	8
101.0106	6
101.02345	253
102.02831	16
103.02511	10
104.90499	8
107.03474	7
110.34251	7
111.00416	7
111.0106	10
112.01517	21
113.02343	226
113.03336	9
115.03029	12
119.0331	335
119.05761	6
119.628	8
121.04086	7
125.02212	6
128.53163	7
129.02699	8
131.02866	77
131.03648	103
137.02094	8
139.00275	263
140.01051	28
141.01459	9
141.02264	12
142.03584	6
143.03357	71
149.04274	52
149.05263	16
150.04871	9
157.01372	110
158.00871	6
159.02223	26
159.03435	7
161.04445	332
161.06064	5
161.65662	9
162.05008	36
179.05469	457
180.0596	24
181.0549	8
189.99182	7
221.06596	1000
222.0686	112
223.07571	28
231.04987	7
232.05202	9
241.71062	8
245.06497	7
247.08441	9
249.0638	16
257.06696	18
257.07877	8
262.96552	12
263.0762	188
264.06296	9
265.07147	10
273.42163	8
323.09921	31
327.00989	6
338.06583	6
342.117	15
391.38602	9
394.23718	6
396.96924	6
409.33585	9
409.34912	9
410.34274	9
424.56812	8
428.35251	6
434.31357	9
437.33575	14
437.48798	8
439.34586	7
452.3378	6
456.34091	9
456.79141	8
457.37595	52
457.39365	12
458.37604	15
463.29135	7
474.97375	7
479.90152	10
497.35455	6
500.01678	6
501.1275	9
505.46417	10
525.37622	39
525.41028	14
528.56152	7
537.36768	7
549.16638	7
550.26947	6
553.39954	7
562.18311	9
571.89905	10
572.39728	9
574.94507	7
597.36554	9
597.3877	22
598.38605	11
614.35431	7
615.34863	8
615.39606	93
615.42639	6
616.38452	57
616.4151	6
617.38037	15
617.42126	7
633.39325	10
634.38403	7
716.51337	7
733.44	47
733.47552	15
734.47375	7
735.53186	9
736.474	15
751.45697	9
777.41949	9
778.43079	12
779.43683	11
780.86615	10
795.44073	40
796.45587	16
836.56384	6
850.68372	7
895.48975	13
898.4093	6
938.95691	8
939.45166	6
939.50244	20
948.42096	7
954.03448	7
956.96783	7
957.41949	10
957.49927	798
957.5816	7

NAME: Licoricesaponin H2
PRECURSORMZ: 821.39650944783
PRECURSORTYPE: [M-H]-
INSTRUMENTTYPE: LC-ESI-QTOF
SMILES: CC1(C)C(CCC2(C)C1CCC1(C)C2C(=O)C=C2C3CC(C)(CCC3(C)CCC12C)C(O)=O)OC1OC(C(O)C(O)C1OC1OC(C(O)C(O)C1O)C(O)=O)C(O)=O
INCHIKEY: LPLVUJXQOOQHMX-UHFFFAOYNA-N
Ontology: Triterpene saponins
COLLISIONENERGY: 50
FORMULA: C42H62O16
RETENTIONTIME: 7.035967
IONMODE: Negative
Comment: registered in RIKEN PlaSMA
Num Peaks: 99
57.03173	13
59.0109	28
59.0141	37
60.78968	5
71.01219	74
72.99319	90
73.03022	17
75.00772	117
76.00966	5
85.02846	149
85.04346	5
87.00939	54
89.02404	65
90.02608	6
95.01314	40
99.00951	112
101.02406	63
103.00291	190
103.0359	11
104.00613	13
113.02392	1000
114.02442	15
114.03065	27
115.00253	58
117.01053	10
117.01949	65
119.03519	8
128.04269	6
129.01938	26
131.03464	120
132.0401	14
133.01355	76
139.01112	8
141.01295	9
141.02292	8
149.04642	43
157.01364	96
159.02437	15
163.02066	16
163.03082	6
174.93877	8
175.02486	301
175.39435	6
176.03229	12
181.00568	6
190.14458	5
193.03464	621
194.03938	48
195.04378	7
235.04391	40
242.02902	6
261.05344	7
261.0643	9
263.04605	7
275.03009	7
276.04309	5
276.05179	5
289.05557	82
289.67633	8
290.06586	13
291.04504	12
305.05246	8
333.04593	17
333.05899	14
351.05569	589
352.06552	78
423.349	5
425.32748	29
425.34848	26
426.32962	10
467.32108	9
467.36029	8
468.3699	5
469.33026	15
479.35138	7
538.36481	8
540.3606	7
540.38025	13
540.40167	6
541.37378	12
562.18384	8
569.35565	6
577.14099	5
583.35852	44
583.38995	9
584.35046	9
584.38159	13
627.34686	15
645.35718	35
645.38226	10
647.38611	7
687.39868	8
688.36926	7
759.38794	9
759.41144	8
777.42078	18
778.42773	8
821.39838	50
821.4436	12

NAME: Soyasaponin Bb
PRECURSORMZ: 941.51153924783
PRECURSORTYPE: [M-H]-
INSTRUMENTTYPE: LC-ESI-QTOF
SMILES: CC1OC(OC2C(O)C(O)C(CO)OC2OC2C(O)C(O)C(OC2OC2CCC3(C)C(CCC4(C)C3CC=C3C5CC(C)(C)CC(O)C5(C)CCC43C)C2(C)CO)C(O)=O)C(O)C(O)C1O
INCHIKEY: PTDAHAWQAGSZDD-UHFFFAOYNA-N
Ontology: Triterpene saponins
COLLISIONENERGY: 50
FORMULA: C48H78O18
RETENTIONTIME: 7.11665
IONMODE: Negative
Comment: registered in RIKEN PlaSMA
Num Peaks: 153
53.03684	15
55.21439	9
59.01152	28
59.01627	51
67.01905	10
71.0148	126
72.01685	24
73.02905	36
75.00604	40
75.01045	41
77.646	10
83.01354	11
84.01566	17
85.02685	184
85.0323	121
86.03419	12
87.0331	29
89.02315	287
90.03057	10
95.01481	89
99.00652	58
101.0228	305
102.02743	34
103.03812	234
103.04218	129
111.007	25
112.01767	22
113.02415	404
114.02815	31
115.0053	16
115.04092	79
117.62489	10
119.03235	334
120.03564	45
120.04699	13
123.04401	16
125.02191	21
127.04308	15
129.01762	16
130.02487	15
130.71068	9
131.03349	156
132.03899	10
139.00513	115
143.03593	351
144.03203	15
144.03941	13
145.03928	12
145.04965	44
149.0424	11
157.01422	149
158.01903	9
161.04524	157
162.04442	9
163.06204	489
164.06718	30
164.95839	9
165.05777	11
165.06613	11
178.84828	18
179.0507	12
181.29457	9
203.25954	11
205.00029	10
205.05405	13
205.0712	651
205.24443	17
206.06514	24
206.07478	27
207.07814	11
221.07028	10
247.07187	10
247.08415	57
249.05186	9
257.05997	16
295.08969	9
308.10678	25
309.11743	11
344.35013	10
367.12601	11
375.30154	15
378.12341	14
403.11481	9
404.11487	11
409.34061	35
409.36014	14
421.11841	10
421.13516	11
425.34131	11
437.33322	10
438.34818	9
439.33984	12
456.33743	9
457.37241	125
458.09283	10
458.37921	53
459.35629	10
459.38248	12
459.41269	10
468.13016	10
483.13318	12
499.38361	13
508.96365	13
513.3963	11
525.39642	21
526.40375	9
531.85663	9
535.36517	9
552.41614	17
553.38757	37
554.38593	10
571.34607	11
571.41296	9
572.42395	16
582.79266	9
597.32532	15
598.37378	9
598.43219	11
609.86108	11
615.18915	14
615.39331	101
615.41913	39
616.39056	47
616.41547	9
617.39398	24
633.42145	22
661.42041	9
733.44653	55
733.47552	50
733.63483	10
733.87433	9
734.45831	20
734.49713	10
751.48236	10
752.44647	9
753.45123	12
760.4389	13
777.42712	11
795.45874	33
796.46838	16
797.4516	18
813.14026	10
836.41656	12
879.50006	10
879.54004	19
880.52435	15
882.90375	14
898.49176	17
923.51544	14
923.69226	12
924.51532	35
930.08313	11
941.50586	1000

NAME: Soyasaponin Bb
PRECURSORMZ: 987.51701855183
PRECURSORTYPE: [M+FA-H]-
INSTRUMENTTYPE: LC-ESI-QTOF
SMILES: CC1OC(OC2C(O)C(O)C(CO)OC2OC2C(O)C(O)C(OC2OC2CCC3(C)C(CCC4(C)C3CC=C3C5CC(C)(C)CC(O)C5(C)CCC43C)C2(C)CO)C(O)=O)C(O)C(O)C1O
INCHIKEY: PTDAHAWQAGSZDD-UHFFFAOYNA-N
Ontology: Triterpene saponins
COLLISIONENERGY: 50
FORMULA: C48H78O18
RETENTIONTIME: 7.11665
IONMODE: Negative
Comment: registered in RIKEN PlaSMA
Num Peaks: 120
59.00959	6
59.01792	9
71.01676	9
73.02882	6
75.0052	5
75.01157	24
76.01235	19
85.01929	8
85.02724	117
86.03359	5
89.02414	38
95.01003	20
99.00095	7
99.00713	5
101.0232	88
102.02608	5
103.04167	20
103.97015	8
113.02189	27
115.04162	21
119.0354	65
129.02136	7
131.03027	37
131.0351	14
132.03662	7
134.79309	7
139.00354	57
140.01082	6
143.03419	23
143.04202	14
144.0405	5
146.06358	6
157.00282	14
157.01445	57
161.03941	21
161.04977	19
163.03246	7
163.04472	8
163.05695	29
163.06525	59
164.06364	14
165.05777	6
165.06613	6
165.99518	5
205.07268	159
206.07726	7
223.0675	10
231.05299	6
244.7688	6
247.07912	24
248.07587	11
248.09361	6
289.09024	6
307.10944	11
346.00519	9
357.49545	7
380.46304	7
395.12592	6
445.70895	10
457.35223	7
458.3862	6
484.14404	5
492.5051	6
497.36111	6
499.65271	12
526.4364	6
532.24854	6
541.60345	5
571.40942	9
585.37848	8
597.37134	5
597.39862	10
606.39191	6
615.36371	7
615.38623	24
615.4129	8
616.38318	6
616.40057	10
617.37598	11
617.39569	12
634.19824	5
634.42004	8
656.27051	5
674.87048	6
720.17822	5
733.4649	18
734.44891	27
735.45221	6
737.75464	6
739.67737	6
751.43292	6
751.46558	7
751.99738	7
757.87469	7
777.45154	6
778.42383	5
795.48456	7
879.49335	14
879.52008	9
879.55048	8
880.5141	11
881.53076	13
899.51422	6
923.49084	23
924.48187	5
924.54266	11
924.56689	5
925.49097	5
926.54749	5
941.51117	1000
942.42871	7
942.51703	613
943.51331	106
943.55566	50
944.48596	19
944.52124	26
944.55853	18
944.67371	6
945.55115	6
972.31689	9

NAME: Licoricesaponin G2
PRECURSORMZ: 837.39142404783
PRECURSORTYPE: [M-H]-
INSTRUMENTTYPE: LC-ESI-QTOF
SMILES: CC12CCC(C)(CC1C1=CC(=O)C3C4(C)CCC(OC5OC(C(O)C(O)C5OC5OC(C(O)C(O)C5O)C(O)=O)C(O)=O)C(C)(CO)C4CCC3(C)C1(C)CC2)C(O)=O
INCHIKEY: WBQVRPYEEYUEBQ-UHFFFAOYNA-N
Ontology: Triterpene saponins
COLLISIONENERGY: 10
FORMULA: C42H62O17
RETENTIONTIME: 6.33905
IONMODE: Negative
Comment: registered in RIKEN PlaSMA
Num Peaks: 8
113.02393	12
175.02626	8
193.03407	35
351.05667	149
352.05173	7
352.06818	5
661.35461	7
837.3905	1000

NAME: Soyasaponin Ba
PRECURSORMZ: 1003.51193315183
PRECURSORTYPE: [M+FA-H]-
INSTRUMENTTYPE: LC-ESI-QTOF
SMILES: CC1(C)CC(O)C2(C)CCC3(C)C(=CCC4C5(C)CCC(OC6OC(C(O)C(O)C6OC6OC(CO)C(O)C(O)C6OC6OC(CO)C(O)C(O)C6O)C(O)=O)C(C)(CO)C5CCC34C)C2C1
INCHIKEY: WFRQIKSNAYYUJZ-UHFFFAOYNA-N
Ontology: Triterpene saponins
COLLISIONENERGY: 10
FORMULA: C48H78O19
RETENTIONTIME: 6.953817
IONMODE: Negative
Comment: registered in RIKEN PlaSMA
Num Peaks: 18
216.98701	13
263.06909	16
263.08392	9
497.55515	9
516.93237	9
540.49957	9
561.06519	10
939.51489	10
945.01111	8
957.50391	1000
958.50604	545
958.59241	17
959.49841	118
959.53656	54
960.49438	62
973.50043	8
1003.48077	8
1003.50568	15

NAME: Soyasaponin Ba
PRECURSORMZ: 957.50645384783
PRECURSORTYPE: [M-H]-
INSTRUMENTTYPE: LC-ESI-QTOF
SMILES: CC1(C)CC(O)C2(C)CCC3(C)C(=CCC4C5(C)CCC(OC6OC(C(O)C(O)C6OC6OC(CO)C(O)C(O)C6OC6OC(CO)C(O)C(O)C6O)C(O)=O)C(C)(CO)C5CCC34C)C2C1
INCHIKEY: WFRQIKSNAYYUJZ-UHFFFAOYNA-N
Ontology: Triterpene saponins
COLLISIONENERGY: 10
FORMULA: C48H78O19
RETENTIONTIME: 6.953817
IONMODE: Negative
Comment: registered in RIKEN PlaSMA
Num Peaks: 5
139.00082	5
221.06717	10
263.07584	13
957.50385	1000
957.57581	6

NAME: Licoricesaponin H2
PRECURSORMZ: 821.39650944783
PRECURSORTYPE: [M-H]-
INSTRUMENTTYPE: LC-ESI-QTOF
SMILES: CC1(C)C(CCC2(C)C1CCC1(C)C2C(=O)C=C2C3CC(C)(CCC3(C)CCC12C)C(O)=O)OC1OC(C(O)C(O)C1OC1OC(C(O)C(O)C1O)C(O)=O)C(O)=O
INCHIKEY: LPLVUJXQOOQHMX-UHFFFAOYNA-N
Ontology: Triterpene saponins
COLLISIONENERGY: 10
FORMULA: C42H62O16
RETENTIONTIME: 7.035967
IONMODE: Negative
Comment: registered in RIKEN PlaSMA
Num Peaks: 8
113.02446	13
175.02322	15
193.03503	36
351.05771	112
352.06229	17
353.06439	7
821.39612	1000
821.45026	6

NAME: Soyasaponin Bb
PRECURSORMZ: 941.51153924783
PRECURSORTYPE: [M-H]-
INSTRUMENTTYPE: LC-ESI-QTOF
SMILES: CC1OC(OC2C(O)C(O)C(CO)OC2OC2C(O)C(O)C(OC2OC2CCC3(C)C(CCC4(C)C3CC=C3C5CC(C)(C)CC(O)C5(C)CCC43C)C2(C)CO)C(O)=O)C(O)C(O)C1O
INCHIKEY: PTDAHAWQAGSZDD-UHFFFAOYNA-N
Ontology: Triterpene saponins
COLLISIONENERGY: 10
FORMULA: C48H78O18
RETENTIONTIME: 7.11665
IONMODE: Negative
Comment: registered in RIKEN PlaSMA
Num Peaks: 5
163.06052	12
205.07164	7
941.44208	6
941.50989	1000
941.58594	9

NAME: Soyasaponin Ba
PRECURSORMZ: 957.50645384783
PRECURSORTYPE: [M-H]-
INSTRUMENTTYPE: LC-ESI-QTOF
SMILES: CC1(C)CC(O)C2(C)CCC3(C)C(=CCC4C5(C)CCC(OC6OC(C(O)C(O)C6OC6OC(CO)C(O)C(O)C6OC6OC(CO)C(O)C(O)C6O)C(O)=O)C(C)(CO)C5CCC34C)C2C1
INCHIKEY: WFRQIKSNAYYUJZ-UHFFFAOYNA-N
Ontology: Triterpene saponins
COLLISIONENERGY: 10
FORMULA: C48H78O19
RETENTIONTIME: 6.953817
IONMODE: Negative
Comment: registered in RIKEN PlaSMA
Num Peaks: 2
957.50629	1000
957.56653	6

NAME: Soyasaponin Bb
PRECURSORMZ: 941.51153924783
PRECURSORTYPE: [M-H]-
INSTRUMENTTYPE: LC-ESI-QTOF
SMILES: CC1OC(OC2C(O)C(O)C(CO)OC2OC2C(O)C(O)C(OC2OC2CCC3(C)C(CCC4(C)C3CC=C3C5CC(C)(C)CC(O)C5(C)CCC43C)C2(C)CO)C(O)=O)C(O)C(O)C1O
INCHIKEY: PTDAHAWQAGSZDD-UHFFFAOYNA-N
Ontology: Triterpene saponins
COLLISIONENERGY: 10
FORMULA: C48H78O18
RETENTIONTIME: 7.11665
IONMODE: Negative
Comment: registered in RIKEN PlaSMA
Num Peaks: 2
941.5097	1000
941.57874	8

NAME: Soyasaponin Bb
PRECURSORMZ: 987.51701855183
PRECURSORTYPE: [M+FA-H]-
INSTRUMENTTYPE: LC-ESI-QTOF
SMILES: CC1OC(OC2C(O)C(O)C(CO)OC2OC2C(O)C(O)C(OC2OC2CCC3(C)C(CCC4(C)C3CC=C3C5CC(C)(C)CC(O)C5(C)CCC43C)C2(C)CO)C(O)=O)C(O)C(O)C1O
INCHIKEY: PTDAHAWQAGSZDD-UHFFFAOYNA-N
Ontology: Triterpene saponins
COLLISIONENERGY: 10
FORMULA: C48H78O18
RETENTIONTIME: 7.11665
IONMODE: Negative
Comment: registered in RIKEN PlaSMA
Num Peaks: 13
148.20973	9
473.65845	6
567.82739	6
735.55902	6
887.62793	6
913.90338	8
941.51001	1000
942.5127	513
942.76013	5
943.49176	60
943.5213	202
944.51172	36
987.51929	244

NAME: Licoricesaponin G2
PRECURSORMZ: 837.39142404783
PRECURSORTYPE: [M-H]-
INSTRUMENTTYPE: LC-ESI-QTOF
SMILES: CC12CCC(C)(CC1C1=CC(=O)C3C4(C)CCC(OC5OC(C(O)C(O)C5OC5OC(C(O)C(O)C5O)C(O)=O)C(O)=O)C(C)(CO)C4CCC3(C)C1(C)CC2)C(O)=O
INCHIKEY: WBQVRPYEEYUEBQ-UHFFFAOYNA-N
Ontology: Triterpene saponins
COLLISIONENERGY: 30
FORMULA: C42H62O17
RETENTIONTIME: 6.33905
IONMODE: Negative
Comment: registered in RIKEN PlaSMA
Num Peaks: 7
113.02502	9
175.02466	8
193.0359	26
351.05637	181
352.05905	30
837.39111	1000
837.45209	7

NAME: Soyasaponin Ba
PRECURSORMZ: 1003.51193315183
PRECURSORTYPE: [M+FA-H]-
INSTRUMENTTYPE: LC-ESI-QTOF
SMILES: CC1(C)CC(O)C2(C)CCC3(C)C(=CCC4C5(C)CCC(OC6OC(C(O)C(O)C6OC6OC(CO)C(O)C(O)C6OC6OC(CO)C(O)C(O)C6O)C(O)=O)C(C)(CO)C5CCC34C)C2C1
INCHIKEY: WFRQIKSNAYYUJZ-UHFFFAOYNA-N
Ontology: Triterpene saponins
COLLISIONENERGY: 30
FORMULA: C48H78O19
RETENTIONTIME: 6.953817
IONMODE: Negative
Comment: registered in RIKEN PlaSMA
Num Peaks: 14
341.10513	7
445.19958	8
446.25107	9
508.18793	13
677.36224	15
710.08002	9
957.50873	1000
957.58899	24
957.65405	8
958.47717	93
958.51611	339
959.49951	137
959.5979	8
960.49304	28

NAME: Soyasaponin Ba
PRECURSORMZ: 957.50645384783
PRECURSORTYPE: [M-H]-
INSTRUMENTTYPE: LC-ESI-QTOF
SMILES: CC1(C)CC(O)C2(C)CCC3(C)C(=CCC4C5(C)CCC(OC6OC(C(O)C(O)C6OC6OC(CO)C(O)C(O)C6OC6OC(CO)C(O)C(O)C6O)C(O)=O)C(C)(CO)C5CCC34C)C2C1
INCHIKEY: WFRQIKSNAYYUJZ-UHFFFAOYNA-N
Ontology: Triterpene saponins
COLLISIONENERGY: 30
FORMULA: C48H78O19
RETENTIONTIME: 6.953817
IONMODE: Negative
Comment: registered in RIKEN PlaSMA
Num Peaks: 5
221.0619	6
263.07715	5
939.49274	13
957.50256	1000
957.578	10

NAME: Licoricesaponin H2
PRECURSORMZ: 821.39650944783
PRECURSORTYPE: [M-H]-
INSTRUMENTTYPE: LC-ESI-QTOF
SMILES: CC1(C)C(CCC2(C)C1CCC1(C)C2C(=O)C=C2C3CC(C)(CCC3(C)CCC12C)C(O)=O)OC1OC(C(O)C(O)C1OC1OC(C(O)C(O)C1O)C(O)=O)C(O)=O
INCHIKEY: LPLVUJXQOOQHMX-UHFFFAOYNA-N
Ontology: Triterpene saponins
COLLISIONENERGY: 30
FORMULA: C42H62O16
RETENTIONTIME: 7.035967
IONMODE: Negative
Comment: registered in RIKEN PlaSMA
Num Peaks: 7
175.02626	9
193.03691	26
351.05783	144
352.05249	13
352.06979	10
821.39606	1000
821.46259	15

NAME: Soyasaponin Bb
PRECURSORMZ: 941.51153924783
PRECURSORTYPE: [M-H]-
INSTRUMENTTYPE: LC-ESI-QTOF
SMILES: CC1OC(OC2C(O)C(O)C(CO)OC2OC2C(O)C(O)C(OC2OC2CCC3(C)C(CCC4(C)C3CC=C3C5CC(C)(C)CC(O)C5(C)CCC43C)C2(C)CO)C(O)=O)C(O)C(O)C1O
INCHIKEY: PTDAHAWQAGSZDD-UHFFFAOYNA-N
Ontology: Triterpene saponins
COLLISIONENERGY: 30
FORMULA: C48H78O18
RETENTIONTIME: 7.11665
IONMODE: Negative
Comment: registered in RIKEN PlaSMA
Num Peaks: 3
923.52539	9
924.51147	7
941.51196	1000

NAME: Licoricesaponin G2
PRECURSORMZ: 837.39142404783
PRECURSORTYPE: [M-H]-
INSTRUMENTTYPE: LC-ESI-QTOF
SMILES: CC12CCC(C)(CC1C1=CC(=O)C3C4(C)CCC(OC5OC(C(O)C(O)C5OC5OC(C(O)C(O)C5O)C(O)=O)C(O)=O)C(C)(CO)C4CCC3(C)C1(C)CC2)C(O)=O
INCHIKEY: WBQVRPYEEYUEBQ-UHFFFAOYNA-N
Ontology: Triterpene saponins
COLLISIONENERGY: 50
FORMULA: C42H62O17
RETENTIONTIME: 6.33905
IONMODE: Negative
Comment: registered in RIKEN PlaSMA
Num Peaks: 129
59.00872	10
59.01365	16
68.99681	9
71.01336	117
72.01547	6
72.99212	56
73.02892	20
75.00845	82
83.01398	18
85.02879	99
87.00786	33
89.02362	71
90.02583	7
95.01503	29
96.018	5
97.02473	6
99.00902	102
100.00997	6
101.02422	30
102.03168	6
103.00308	147
103.03994	14
104.00371	5
108.04945	5
112.01148	14
113.02395	1000
113.97352	6
114.0284	58
115.00204	64
116.99869	6
117.01465	23
117.02122	24
127.0328	7
129.02	44
129.68752	7
131.0351	186
132.28345	6
133.0126	49
139.00156	8
139.009	8
143.0336	10
145.00986	11
147.02731	5
149.0434	12
152.0087	6
157.01172	59
157.01775	24
163.02234	14
170.57469	6
171.02563	8
174.01486	6
175.0257	276
176.02682	28
177.12633	5
178.18172	5
184.47305	7
193.01601	6
193.03496	926
194.03821	96
195.03029	10
195.04259	8
205.18047	5
206.59097	7
210.14876	6
211.0273	7
235.04283	56
235.05748	6
236.05351	9
245.47758	6
259.04617	6
261.04971	12
261.06366	6
265.04828	12
272.05072	6
275.02988	10
275.05115	11
289.05539	102
290.05991	14
291.02679	8
293.04288	6
307.07199	27
320.32434	6
331.61487	7
333.03516	13
333.0545	8
334.04385	7
334.06262	6
350.95694	7
351.05661	815
352.05933	85
353.06424	37
360.31708	7
421.27344	8
437.3103	31
438.31149	8
441.3187	6
451.8721	6
469.95291	6
485.31775	56
485.3342	21
485.42551	7
486.34317	10
525.34406	7
527.32074	10
527.34979	6
541.30859	14
555.33466	16
567.33411	7
581.34991	8
582.34467	5
599.33478	8
599.36029	44
600.34729	7
600.36298	14
643.35413	19
644.3623	12
661.34528	23
661.36523	23
661.40564	8
662.36072	8
696.23218	8
703.79395	6
704.36914	5
713.38269	10
714.409	6
775.39459	13
776.40247	9
837.38751	60
837.41748	27

NAME: Soyasaponin Ba
PRECURSORMZ: 957.50645384783
PRECURSORTYPE: [M-H]-
INSTRUMENTTYPE: LC-ESI-QTOF
SMILES: CC1(C)CC(O)C2(C)CCC3(C)C(=CCC4C5(C)CCC(OC6OC(C(O)C(O)C6OC6OC(CO)C(O)C(O)C6OC6OC(CO)C(O)C(O)C6O)C(O)=O)C(C)(CO)C5CCC34C)C2C1
INCHIKEY: WFRQIKSNAYYUJZ-UHFFFAOYNA-N
Ontology: Triterpene saponins
COLLISIONENERGY: 50
FORMULA: C48H78O19
RETENTIONTIME: 6.953817
IONMODE: Negative
Comment: registered in RIKEN PlaSMA
Num Peaks: 176
50.60725	8
59.01188	39
59.01616	19
71.01405	74
73.03271	14
74.1626	7
75.00784	17
75.01266	6
76.00679	11
84.99612	9
85.02823	357
85.99809	6
87.00584	13
87.0154	14
88.01285	6
89.0238	343
90.02323	6
95.01024	24
95.01637	44
95.02365	6
97.03133	10
99.00383	15
99.00899	17
100.40514	6
101.02428	294
101.10834	6
103.03244	6
107.0341	6
111.00391	8
111.04235	6
112.01368	12
113.02357	222
114.02236	12
115.00193	6
116.11209	6
119.03371	313
119.05027	7
119.49748	6
120.03329	6
120.03799	6
121.03914	13
125.79556	6
129.02315	17
130.02367	9
131.03534	197
138.99736	60
139.0031	167
141.01172	6
143.03429	171
144.03593	7
148.53152	7
149.04384	18
152.04353	8
157.01067	48
157.01924	14
157.02853	8
159.02911	24
160.9397	6
161.04506	348
161.86336	6
162.04657	45
162.06261	7
162.26682	7
163.04779	7
179.05418	547
179.07671	7
179.66257	6
180.0553	7
180.0616	7
185.19106	7
221.06628	1000
222.07181	81
224.08255	6
225.05319	6
231.03743	11
231.0486	22
249.07213	7
257.07785	18
263.07568	87
264.07489	8
265.06519	6
288.32108	11
305.08975	17
312.4585	7
323.10678	13
325.88364	7
332.48108	10
359.27518	6
360.26593	8
383.11703	7
408.78018	9
409.33871	6
420.10892	8
425.34158	12
429.70248	12
436.04083	8
437.32437	15
437.34048	22
437.35837	8
438.3544	7
440.26108	8
441.12344	6
448.00253	7
455.3577	6
456.35449	6
456.38562	6
457.37094	79
458.3735	18
470.37582	6
484.53177	8
495.37799	7
495.92017	6
510.39368	6
510.66077	7
510.99756	7
515.99066	7
521.22583	11
525.3576	6
525.38141	27
525.39899	25
525.90845	6
526.38037	18
526.40234	13
528.38184	7
548.96814	6
552.44348	11
554.38562	6
560.44946	6
567.10626	8
571.38348	6
597.37811	41
597.50439	8
597.84308	8
599.12433	6
615.22137	6
615.37897	31
615.39917	95
615.7821	7
616.33099	6
616.38104	48
633.38	6
633.40759	20
634.39917	12
634.41254	6
641.87939	6
662.71942	6
667.29077	6
672.08667	11
732.82635	7
733.42017	6
733.46411	22
733.50464	7
733.79706	6
734.45587	12
736.16827	7
751.46692	6
757.52441	6
777.43524	14
778.46027	6
779.44171	6
795.4267	8
795.45306	30
796.4234	15
796.46674	19
797.43744	7
797.48956	6
816.2522	7
895.53015	7
917.91412	7
922.31464	6
939.50867	15
940.47168	7
940.51056	6
957.27435	6
957.4931	673
957.53406	123

NAME: Licoricesaponin H2
PRECURSORMZ: 821.39650944783
PRECURSORTYPE: [M-H]-
INSTRUMENTTYPE: LC-ESI-QTOF
SMILES: CC1(C)C(CCC2(C)C1CCC1(C)C2C(=O)C=C2C3CC(C)(CCC3(C)CCC12C)C(O)=O)OC1OC(C(O)C(O)C1OC1OC(C(O)C(O)C1O)C(O)=O)C(O)=O
INCHIKEY: LPLVUJXQOOQHMX-UHFFFAOYNA-N
Ontology: Triterpene saponins
COLLISIONENERGY: 50
FORMULA: C42H62O16
RETENTIONTIME: 7.035967
IONMODE: Negative
Comment: registered in RIKEN PlaSMA
Num Peaks: 131
59.01233	75
70.03587	10
71.0127	107
71.01974	6
72.99353	109
73.02999	17
73.99828	6
75.00835	117
83.01298	19
85.02932	135
85.03973	5
86.03555	11
87.00446	38
87.01026	33
87.04141	6
88.01119	6
88.01948	5
89.02338	93
95.01483	38
99.00574	89
99.01011	76
99.01904	12
99.0452	9
100.01183	6
101.02451	37
102.0276	6
103.00109	143
103.03964	30
111.01059	6
113.02352	1000
114.0285	39
115.0044	42
116.00816	10
117.01808	56
119.03635	13
129.0139	14
129.01938	32
131.02245	6
131.03465	111
133.01694	20
139.0041	5
145.01241	5
148.02103	5
149.04086	5
149.04796	6
154.01778	5
157.01329	114
158.01964	9
159.02303	5
163.02266	24
171.02995	7
171.03891	5
173.04485	9
175.01044	8
175.02414	298
176.0296	9
184.57697	5
193.03462	640
194.0377	54
195.04082	8
195.13078	6
224.48572	5
235.03554	5
235.04601	16
236.04132	9
241.04092	6
260.04538	6
261.0582	24
263.04474	11
288.85736	5
289.05615	132
290.06039	12
291.03448	16
293.45349	5
305.06195	7
307.07465	6
321.68344	5
333.03986	17
351.02676	5
351.05667	610
351.09174	6
352.02054	9
352.04916	19
352.06689	29
353.06042	9
353.0748	8
355.26636	7
424.33591	12
425.34506	55
426.33734	9
452.7504	6
467.3631	5
469.31424	11
469.32831	17
479.35284	9
493.35605	5
512.33984	5
522.35303	8
523.36725	5
525.30951	5
526.34692	5
537.35895	7
539.36383	43
549.36554	8
571.38721	6
583.35828	14
583.37628	22
584.37531	5
585.39581	5
602.3717	7
609.49243	5
627.33789	11
627.37018	25
628.34546	6
628.36694	6
629.34143	5
629.82404	5
645.35651	39
645.38586	16
645.43549	5
646.37909	11
647.39441	5
687.3775	12
697.39185	20
759.37671	15
759.39661	8
759.43481	6
760.3623	5
760.40118	10
821.39441	48
821.4248	9

NAME: Soyasaponin Bb
PRECURSORMZ: 941.51153924783
PRECURSORTYPE: [M-H]-
INSTRUMENTTYPE: LC-ESI-QTOF
SMILES: CC1OC(OC2C(O)C(O)C(CO)OC2OC2C(O)C(O)C(OC2OC2CCC3(C)C(CCC4(C)C3CC=C3C5CC(C)(C)CC(O)C5(C)CCC43C)C2(C)CO)C(O)=O)C(O)C(O)C1O
INCHIKEY: PTDAHAWQAGSZDD-UHFFFAOYNA-N
Ontology: Triterpene saponins
COLLISIONENERGY: 50
FORMULA: C48H78O18
RETENTIONTIME: 7.11665
IONMODE: Negative
Comment: registered in RIKEN PlaSMA
Num Peaks: 140
59.01242	172
66.51058	10
71.01274	151
71.04563	11
73.02781	11
73.03289	14
75.00121	12
75.00837	77
76.01054	13
81.03777	12
84.98875	17
85.02756	102
85.03175	109
87.00766	33
87.01257	44
89.02362	255
90.49207	11
92.4185	13
95.01226	45
97.17578	10
99.00795	73
99.01704	12
99.12856	9
101.02386	420
102.02663	21
103.04099	70
104.03947	22
111.00679	15
112.01717	30
112.02523	9
113.02333	289
115.00227	12
115.0407	73
115.30584	9
117.01429	16
117.04701	11
119.03505	258
120.04309	9
125.0244	24
129.02209	44
131.03189	77
131.03749	60
132.03871	20
136.13531	11
139.00143	198
140.00508	19
143.03529	238
145.05058	40
146.22714	10
157.01279	195
158.01207	10
161.04697	137
163.06062	396
164.06256	39
168.18822	10
168.49127	10
179.05626	13
191.03392	20
205.07224	530
206.07726	55
207.07198	17
207.07912	10
231.0934	12
247.08325	122
249.09369	10
265.09384	33
267.09384	10
328.88275	16
367.1178	22
369.72479	10
375.31525	10
377.12726	10
377.29022	13
393.28809	9
395.3215	9
409.32715	18
410.3577	15
437.35519	16
438.34998	23
454.05148	11
455.36856	13
457.353	26
457.37869	9
457.39203	10
458.3316	12
458.37543	34
459.38269	13
465.14053	9
481.38348	10
504.51477	10
521.19684	14
525.39301	39
525.44238	11
526.37091	11
526.40552	12
553.39685	19
554.37903	10
554.40582	10
557.70819	23
572.37878	11
572.41821	11
576.14539	10
610.8291	11
615.3631	28
615.39337	43
615.41577	10
616.36377	12
616.39288	41
616.4339	9
617.40527	11
618.40125	10
633.42493	11
634.41724	12
636.39276	10
733.43359	9
733.47638	10
734.4577	15
734.4762	20
735.45679	10
751.44855	47
751.49377	10
752.47632	9
752.50897	25
757.09332	14
778.4715	9
779.40332	10
795.42853	11
795.46313	17
796.43408	10
835.17169	10
879.33221	9
879.46777	20
879.5163	11
880.47662	12
880.51831	19
923.46222	28
923.5108	9
936.23431	10
941.3653	11
941.50659	1000

NAME: Soyasaponin Bb
PRECURSORMZ: 987.51701855183
PRECURSORTYPE: [M+FA-H]-
INSTRUMENTTYPE: LC-ESI-QTOF
SMILES: CC1OC(OC2C(O)C(O)C(CO)OC2OC2C(O)C(O)C(OC2OC2CCC3(C)C(CCC4(C)C3CC=C3C5CC(C)(C)CC(O)C5(C)CCC43C)C2(C)CO)C(O)=O)C(O)C(O)C1O
INCHIKEY: PTDAHAWQAGSZDD-UHFFFAOYNA-N
Ontology: Triterpene saponins
COLLISIONENERGY: 50
FORMULA: C48H78O18
RETENTIONTIME: 7.11665
IONMODE: Negative
Comment: registered in RIKEN PlaSMA
Num Peaks: 112
71.01157	40
71.01451	15
72.99343	11
73.02706	5
75.00764	53
85.02743	21
85.03345	15
86.03514	6
89.02498	40
99.00264	12
99.00868	23
101.02328	87
103.04156	39
112.01717	5
113.02357	72
119.03469	53
129.84152	9
131.03497	23
131.04279	6
132.03845	5
139.00253	53
143.03401	21
145.05273	8
146.05305	6
146.06613	6
157.01305	71
158.01654	8
161.04112	21
161.05116	14
162.04543	6
163.05948	110
163.06595	33
179.05905	6
205.07083	121
206.06725	13
206.07962	8
231.05243	8
247.08133	40
247.09433	8
248.08289	7
250.09082	8
257.06207	11
265.07047	10
265.09406	7
307.09549	14
349.24759	9
368.50204	8
398.66943	5
403.13098	6
423.53619	6
455.34479	6
457.36417	17
457.37695	9
458.37985	9
465.11124	5
486.59955	6
497.26126	5
525.4035	6
526.41608	6
553.3739	6
569.10461	5
571.42188	11
597.35809	6
598.37878	17
615.38721	43
616.37659	22
616.41095	17
617.38367	6
617.41083	9
632.15613	5
633.41235	9
636.41711	5
647.53906	6
663.51532	6
703.10968	5
717.26257	9
733.42755	11
734.48083	9
735.49713	6
745.36273	7
746.70386	5
779.44427	14
787.94305	5
795.43567	5
880.43787	5
880.51532	8
881.57446	6
884.55145	5
884.61676	5
907.97119	6
923.13568	10
923.47345	5
923.50604	6
923.53571	5
924.53064	11
925.49664	7
940.94727	6
941.0589	6
941.27985	6
941.34772	7
941.508	1000
941.586	23
941.64655	6
942.50873	570
942.59344	9
942.76819	6
943.24518	5
943.49335	106
943.53375	135
943.586	9
944.53619	24
945.51123	5

NAME: Licoricesaponin G2
PRECURSORMZ: 837.39142404783
PRECURSORTYPE: [M-H]-
INSTRUMENTTYPE: LC-ESI-QTOF
SMILES: CC12CCC(C)(CC1C1=CC(=O)C3C4(C)CCC(OC5OC(C(O)C(O)C5OC5OC(C(O)C(O)C5O)C(O)=O)C(O)=O)C(C)(CO)C4CCC3(C)C1(C)CC2)C(O)=O
INCHIKEY: WBQVRPYEEYUEBQ-UHFFFAOYNA-N
Ontology: Triterpene saponins
COLLISIONENERGY: 10
FORMULA: C42H62O17
RETENTIONTIME: 6.33905
IONMODE: Negative
Comment: registered in RIKEN PlaSMA
Num Peaks: 8
113.02388	11
175.02219	15
193.03241	39
351.05591	131
352.0611	15
353.06064	6
837.38977	1000
837.45892	8

NAME: Soyasaponin Ba
PRECURSORMZ: 1003.51193315183
PRECURSORTYPE: [M+FA-H]-
INSTRUMENTTYPE: LC-ESI-QTOF
SMILES: CC1(C)CC(O)C2(C)CCC3(C)C(=CCC4C5(C)CCC(OC6OC(C(O)C(O)C6OC6OC(CO)C(O)C(O)C6OC6OC(CO)C(O)C(O)C6O)C(O)=O)C(C)(CO)C5CCC34C)C2C1
INCHIKEY: WFRQIKSNAYYUJZ-UHFFFAOYNA-N
Ontology: Triterpene saponins
COLLISIONENERGY: 10
FORMULA: C48H78O19
RETENTIONTIME: 6.953817
IONMODE: Negative
Comment: registered in RIKEN PlaSMA
Num Peaks: 16
179.05034	7
179.05714	11
264.08499	9
674.98755	11
956.65417	7
957.5014	1000
958.21509	8
958.44769	15
958.51123	526
959.49176	72
959.52991	78
960.50409	15
961.10065	8
961.51599	8
962.55237	11
1003.50403	16

NAME: Soyasaponin Ba
PRECURSORMZ: 957.50645384783
PRECURSORTYPE: [M-H]-
INSTRUMENTTYPE: LC-ESI-QTOF
SMILES: CC1(C)CC(O)C2(C)CCC3(C)C(=CCC4C5(C)CCC(OC6OC(C(O)C(O)C6OC6OC(CO)C(O)C(O)C6OC6OC(CO)C(O)C(O)C6O)C(O)=O)C(C)(CO)C5CCC34C)C2C1
INCHIKEY: WFRQIKSNAYYUJZ-UHFFFAOYNA-N
Ontology: Triterpene saponins
COLLISIONENERGY: 10
FORMULA: C48H78O19
RETENTIONTIME: 6.953817
IONMODE: Negative
Comment: registered in RIKEN PlaSMA
Num Peaks: 6
179.05638	15
221.06737	23
263.07437	6
598.39325	7
957.50507	1000
957.5799	9

NAME: Licoricesaponin H2
PRECURSORMZ: 821.39650944783
PRECURSORTYPE: [M-H]-
INSTRUMENTTYPE: LC-ESI-QTOF
SMILES: CC1(C)C(CCC2(C)C1CCC1(C)C2C(=O)C=C2C3CC(C)(CCC3(C)CCC12C)C(O)=O)OC1OC(C(O)C(O)C1OC1OC(C(O)C(O)C1O)C(O)=O)C(O)=O
INCHIKEY: LPLVUJXQOOQHMX-UHFFFAOYNA-N
Ontology: Triterpene saponins
COLLISIONENERGY: 10
FORMULA: C42H62O16
RETENTIONTIME: 7.035967
IONMODE: Negative
Comment: registered in RIKEN PlaSMA
Num Peaks: 8
113.02374	17
175.02316	13
193.03537	26
289.05579	6
351.05634	113
352.05692	10
352.06885	6
821.39465	1000

NAME: Soyasaponin Bb
PRECURSORMZ: 941.51153924783
PRECURSORTYPE: [M-H]-
INSTRUMENTTYPE: LC-ESI-QTOF
SMILES: CC1OC(OC2C(O)C(O)C(CO)OC2OC2C(O)C(O)C(OC2OC2CCC3(C)C(CCC4(C)C3CC=C3C5CC(C)(C)CC(O)C5(C)CCC43C)C2(C)CO)C(O)=O)C(O)C(O)C1O
INCHIKEY: PTDAHAWQAGSZDD-UHFFFAOYNA-N
Ontology: Triterpene saponins
COLLISIONENERGY: 10
FORMULA: C48H78O18
RETENTIONTIME: 7.11665
IONMODE: Negative
Comment: registered in RIKEN PlaSMA
Num Peaks: 4
205.07007	9
923.49225	5
941.50885	1000
941.58649	9

NAME: Licoricesaponin G2
PRECURSORMZ: 837.39142404783
PRECURSORTYPE: [M-H]-
INSTRUMENTTYPE: LC-ESI-QTOF
SMILES: CC12CCC(C)(CC1C1=CC(=O)C3C4(C)CCC(OC5OC(C(O)C(O)C5OC5OC(C(O)C(O)C5O)C(O)=O)C(O)=O)C(C)(CO)C4CCC3(C)C1(C)CC2)C(O)=O
INCHIKEY: WBQVRPYEEYUEBQ-UHFFFAOYNA-N
Ontology: Triterpene saponins
COLLISIONENERGY: 10
FORMULA: C42H62O17
RETENTIONTIME: 6.33905
IONMODE: Negative
Comment: registered in RIKEN PlaSMA
Num Peaks: 2
837.33215	5
837.38666	1000

NAME: Soyasaponin Ba
PRECURSORMZ: 957.50645384783
PRECURSORTYPE: [M-H]-
INSTRUMENTTYPE: LC-ESI-QTOF
SMILES: CC1(C)CC(O)C2(C)CCC3(C)C(=CCC4C5(C)CCC(OC6OC(C(O)C(O)C6OC6OC(CO)C(O)C(O)C6OC6OC(CO)C(O)C(O)C6O)C(O)=O)C(C)(CO)C5CCC34C)C2C1
INCHIKEY: WFRQIKSNAYYUJZ-UHFFFAOYNA-N
Ontology: Triterpene saponins
COLLISIONENERGY: 10
FORMULA: C48H78O19
RETENTIONTIME: 6.953817
IONMODE: Negative
Comment: registered in RIKEN PlaSMA
Num Peaks: 2
957.505	1000
957.59528	5

NAME: Licoricesaponin H2
PRECURSORMZ: 821.39650944783
PRECURSORTYPE: [M-H]-
INSTRUMENTTYPE: LC-ESI-QTOF
SMILES: CC1(C)C(CCC2(C)C1CCC1(C)C2C(=O)C=C2C3CC(C)(CCC3(C)CCC12C)C(O)=O)OC1OC(C(O)C(O)C1OC1OC(C(O)C(O)C1O)C(O)=O)C(O)=O
INCHIKEY: LPLVUJXQOOQHMX-UHFFFAOYNA-N
Ontology: Triterpene saponins
COLLISIONENERGY: 10
FORMULA: C42H62O16
RETENTIONTIME: 7.035967
IONMODE: Negative
Comment: registered in RIKEN PlaSMA
Num Peaks: 2
821.39581	1000
821.47211	7

NAME: Soyasaponin Bb
PRECURSORMZ: 941.51153924783
PRECURSORTYPE: [M-H]-
INSTRUMENTTYPE: LC-ESI-QTOF
SMILES: CC1OC(OC2C(O)C(O)C(CO)OC2OC2C(O)C(O)C(OC2OC2CCC3(C)C(CCC4(C)C3CC=C3C5CC(C)(C)CC(O)C5(C)CCC43C)C2(C)CO)C(O)=O)C(O)C(O)C1O
INCHIKEY: PTDAHAWQAGSZDD-UHFFFAOYNA-N
Ontology: Triterpene saponins
COLLISIONENERGY: 10
FORMULA: C48H78O18
RETENTIONTIME: 7.11665
IONMODE: Negative
Comment: registered in RIKEN PlaSMA
Num Peaks: 2
789.00421	5
941.51288	1000

NAME: Soyasaponin Bb
PRECURSORMZ: 987.51701855183
PRECURSORTYPE: [M+FA-H]-
INSTRUMENTTYPE: LC-ESI-QTOF
SMILES: CC1OC(OC2C(O)C(O)C(CO)OC2OC2C(O)C(O)C(OC2OC2CCC3(C)C(CCC4(C)C3CC=C3C5CC(C)(C)CC(O)C5(C)CCC43C)C2(C)CO)C(O)=O)C(O)C(O)C1O
INCHIKEY: PTDAHAWQAGSZDD-UHFFFAOYNA-N
Ontology: Triterpene saponins
COLLISIONENERGY: 10
FORMULA: C48H78O18
RETENTIONTIME: 7.11665
IONMODE: Negative
Comment: registered in RIKEN PlaSMA
Num Peaks: 9
111.03764	8
453.33331	6
941.51105	1000
942.51294	509
942.60516	7
943.51984	142
944.48425	7
944.52411	28
987.51654	249

NAME: Licoricesaponin G2
PRECURSORMZ: 837.39142404783
PRECURSORTYPE: [M-H]-
INSTRUMENTTYPE: LC-ESI-QTOF
SMILES: CC12CCC(C)(CC1C1=CC(=O)C3C4(C)CCC(OC5OC(C(O)C(O)C5OC5OC(C(O)C(O)C5O)C(O)=O)C(O)=O)C(C)(CO)C4CCC3(C)C1(C)CC2)C(O)=O
INCHIKEY: WBQVRPYEEYUEBQ-UHFFFAOYNA-N
Ontology: Triterpene saponins
COLLISIONENERGY: 30
FORMULA: C42H62O17
RETENTIONTIME: 6.33905
IONMODE: Negative
Comment: registered in RIKEN PlaSMA
Num Peaks: 8
113.0257	7
175.02628	9
193.03607	26
351.0564	172
352.05908	16
353.06192	7
837.3941	1000
837.4682	8

NAME: Soyasaponin Ba
PRECURSORMZ: 957.50645384783
PRECURSORTYPE: [M-H]-
INSTRUMENTTYPE: LC-ESI-QTOF
SMILES: CC1(C)CC(O)C2(C)CCC3(C)C(=CCC4C5(C)CCC(OC6OC(C(O)C(O)C6OC6OC(CO)C(O)C(O)C6OC6OC(CO)C(O)C(O)C6O)C(O)=O)C(C)(CO)C5CCC34C)C2C1
INCHIKEY: WFRQIKSNAYYUJZ-UHFFFAOYNA-N
Ontology: Triterpene saponins
COLLISIONENERGY: 30
FORMULA: C48H78O19
RETENTIONTIME: 6.953817
IONMODE: Negative
Comment: registered in RIKEN PlaSMA
Num Peaks: 2
179.05476	6
957.50806	1000

NAME: Licoricesaponin H2
PRECURSORMZ: 821.39650944783
PRECURSORTYPE: [M-H]-
INSTRUMENTTYPE: LC-ESI-QTOF
SMILES: CC1(C)C(CCC2(C)C1CCC1(C)C2C(=O)C=C2C3CC(C)(CCC3(C)CCC12C)C(O)=O)OC1OC(C(O)C(O)C1OC1OC(C(O)C(O)C1O)C(O)=O)C(O)=O
INCHIKEY: LPLVUJXQOOQHMX-UHFFFAOYNA-N
Ontology: Triterpene saponins
COLLISIONENERGY: 30
FORMULA: C42H62O16
RETENTIONTIME: 7.035967
IONMODE: Negative
Comment: registered in RIKEN PlaSMA
Num Peaks: 7
113.02511	7
175.02635	13
193.03351	30
351.0556	159
352.06393	17
804.40137	5
821.39606	1000

NAME: Soyasaponin Bb
PRECURSORMZ: 941.51153924783
PRECURSORTYPE: [M-H]-
INSTRUMENTTYPE: LC-ESI-QTOF
SMILES: CC1OC(OC2C(O)C(O)C(CO)OC2OC2C(O)C(O)C(OC2OC2CCC3(C)C(CCC4(C)C3CC=C3C5CC(C)(C)CC(O)C5(C)CCC43C)C2(C)CO)C(O)=O)C(O)C(O)C1O
INCHIKEY: PTDAHAWQAGSZDD-UHFFFAOYNA-N
Ontology: Triterpene saponins
COLLISIONENERGY: 30
FORMULA: C48H78O18
RETENTIONTIME: 7.11665
IONMODE: Negative
Comment: registered in RIKEN PlaSMA
Num Peaks: 4
879.51593	5
923.49927	21
941.5097	1000
941.58569	11

NAME: Licoricesaponin G2
PRECURSORMZ: 837.39142404783
PRECURSORTYPE: [M-H]-
INSTRUMENTTYPE: LC-ESI-QTOF
SMILES: CC12CCC(C)(CC1C1=CC(=O)C3C4(C)CCC(OC5OC(C(O)C(O)C5OC5OC(C(O)C(O)C5O)C(O)=O)C(O)=O)C(C)(CO)C4CCC3(C)C1(C)CC2)C(O)=O
INCHIKEY: WBQVRPYEEYUEBQ-UHFFFAOYNA-N
Ontology: Triterpene saponins
COLLISIONENERGY: 50
FORMULA: C42H62O17
RETENTIONTIME: 6.33905
IONMODE: Negative
Comment: registered in RIKEN PlaSMA
Num Peaks: 108
52.91519	6
55.81451	6
57.03344	5
58.03874	7
59.01291	44
59.01831	13
71.01285	154
72.92454	5
72.99163	81
73.03015	33
75.00764	43
75.01135	13
85.02958	143
87.00626	43
89.02422	103
95.013	44
96.01758	7
97.02773	9
99.00797	118
101.02454	79
103.00272	180
103.03936	21
109.02402	6
111.00941	13
112.01331	6
113.02383	1000
114.02266	18
114.02708	40
114.03909	7
115.00262	69
115.02628	11
116.01236	6
117.01884	41
117.02495	10
119.03938	12
121.03233	5
121.20147	6
126.85683	5
129.02217	34
131.00818	8
131.03511	130
132.04317	9
133.01529	42
137.01859	7
139.0038	14
142.02008	6
143.03619	6
149.0424	14
149.05121	10
157.01405	52
157.02095	35
158.01379	7
158.02202	12
159.02139	5
159.14366	9
163.0258	23
164.02512	10
172.77882	11
173.04999	24
175.02538	310
176.02756	20
177.03226	20
193.03563	620
194.03914	55
195.0403	11
235.0443	37
262.06949	6
263.04663	17
267.92319	6
271.02518	6
271.04742	10
273.97598	5
275.03369	7
289.05872	52
297.29633	5
304.0538	7
307.07156	23
351.01892	12
351.05719	762
352.06033	119
352.0842	10
353.06024	11
353.07172	24
437.31253	5
453.32373	6
468.29657	6
472.82013	5
485.30896	5
485.332	31
571.36108	6
599.3623	13
599.38434	11
600.34564	8
600.3844	11
643.34821	27
644.35083	14
644.37878	9
661.33514	27
661.35913	21
661.38397	9
662.37756	6
703.3808	10
775.39514	10
776.38733	6
776.44635	13
777.36304	5
837.3714	26
837.42194	22

NAME: Soyasaponin Ba
PRECURSORMZ: 957.50645384783
PRECURSORTYPE: [M-H]-
INSTRUMENTTYPE: LC-ESI-QTOF
SMILES: CC1(C)CC(O)C2(C)CCC3(C)C(=CCC4C5(C)CCC(OC6OC(C(O)C(O)C6OC6OC(CO)C(O)C(O)C6OC6OC(CO)C(O)C(O)C6O)C(O)=O)C(C)(CO)C5CCC34C)C2C1
INCHIKEY: WFRQIKSNAYYUJZ-UHFFFAOYNA-N
Ontology: Triterpene saponins
COLLISIONENERGY: 50
FORMULA: C48H78O19
RETENTIONTIME: 6.953817
IONMODE: Negative
Comment: registered in RIKEN PlaSMA
Num Peaks: 159
59.00873	11
59.01611	27
71.01347	92
75.00593	66
75.01567	6
76.40676	9
83.01406	7
85.02892	452
86.03423	31
87.00679	15
87.01099	32
89.02572	197
90.02608	8
94.83295	6
95.01413	32
96.01811	6
97.02573	6
99.00869	108
101.02408	263
102.39256	6
112.01397	23
113.02383	274
115.0369	6
119.03508	282
120.03846	6
124.0187	7
125.02546	18
129.01627	8
131.03432	306
137.01686	8
137.02362	16
139.00339	226
139.01201	37
141.00394	6
142.1445	7
143.03629	125
144.03621	6
149.04543	61
157.0136	82
157.0206	24
158.01846	7
158.47379	8
159.03149	30
161.0448	345
161.44655	7
162.04773	25
165.04782	7
179.05415	449
180.05988	42
182.18987	7
191.69215	7
203.23637	15
220.81793	12
221.06624	751
221.08583	16
222.06902	127
223.08621	8
231.04784	23
249.06091	15
257.05807	14
263.07727	110
264.06955	7
264.09009	10
265.08289	14
275.0733	9
293.14584	9
304.19073	7
323.11063	9
375.30185	6
382.92313	10
386.50055	7
393.09531	6
393.30975	7
393.32504	11
393.58429	8
407.54929	9
409.35007	8
410.35428	6
412.64285	7
423.11789	21
428.41055	9
429.94287	6
437.3374	41
438.35278	10
441.11398	16
455.35025	7
457.36572	92
458.67969	11
459.37894	19
498.98776	7
505.44492	6
508.38205	7
519.10144	10
522.03497	8
524.37	10
525.39056	29
525.41553	15
525.48035	6
526.40027	35
528.37628	7
541.36481	6
553.39325	7
558.93982	6
560.56848	6
571.38788	7
573.42651	10
597.34247	8
597.37982	22
597.39935	16
598.39087	15
615.3703	28
615.39264	117
615.50549	9
616.41199	7
616.43884	6
636.10583	8
637.23383	8
733.45258	8
733.54559	8
734.46185	9
736.05542	8
738.91479	8
747.43628	6
751.46417	6
752.45123	6
778.46216	8
781.08344	7
795.44684	9
795.47125	20
796.45038	7
796.48175	14
797.45648	7
797.53333	8
804.02094	6
804.18329	6
809.60229	17
821.36761	14
821.40948	7
822.35162	7
895.4903	6
895.53265	9
895.55951	7
896.47943	6
896.52765	9
896.81482	6
910.79382	6
914.52087	6
917.91705	9
939.47449	17
939.49908	13
940.49707	6
940.62268	8
941.42657	7
942.52661	9
944.86035	6
947.24261	14
949.86432	13
957.50549	1000
957.57935	8

NAME: Licoricesaponin H2
PRECURSORMZ: 821.39650944783
PRECURSORTYPE: [M-H]-
INSTRUMENTTYPE: LC-ESI-QTOF
SMILES: CC1(C)C(CCC2(C)C1CCC1(C)C2C(=O)C=C2C3CC(C)(CCC3(C)CCC12C)C(O)=O)OC1OC(C(O)C(O)C1OC1OC(C(O)C(O)C1O)C(O)=O)C(O)=O
INCHIKEY: LPLVUJXQOOQHMX-UHFFFAOYNA-N
Ontology: Triterpene saponins
COLLISIONENERGY: 50
FORMULA: C42H62O16
RETENTIONTIME: 7.035967
IONMODE: Negative
Comment: registered in RIKEN PlaSMA
Num Peaks: 115
57.03328	11
58.70668	6
59.01342	48
71.01356	114
72.99342	108
73.02764	19
73.03255	12
75.0076	76
75.03589	6
85.0295	168
86.02784	13
86.03629	9
87.00005	8
87.00787	54
89.02049	35
89.02486	55
91.01009	6
95.01315	43
99.00814	108
100.00811	13
101.02406	57
101.03304	7
103.00349	168
112.01611	10
113.02382	1000
114.02667	60
115.00437	48
115.0313	10
116.01288	6
117.01919	103
119.03175	10
129.01845	48
131.03377	151
132.03798	8
133.01405	27
133.04391	7
138.02808	5
143.03592	11
151.03838	8
157.00659	25
157.01682	86
159.03218	6
163.01573	8
163.02481	15
173.0461	7
174.9174	7
175.02646	280
175.83751	7
176.02638	19
178.87213	5
184.01347	5
193.00722	5
193.03491	655
194.04095	47
195.04221	12
211.73024	5
213.04399	8
235.03816	28
235.0477	32
235.05507	10
252.76205	6
259.04889	9
261.06055	12
262.05893	8
262.17459	6
263.03934	10
289.05682	89
290.90933	7
291.03766	19
293.04819	5
302.22809	6
308.07397	5
320.49509	7
333.0361	7
333.05246	8
334.04312	8
351.05707	639
352.05231	20
352.06516	70
353.05643	19
355.26157	8
425.32779	7
425.34433	32
425.36206	13
428.44312	6
469.33163	13
470.34982	10
493.36765	13
508.37408	5
539.33264	7
539.36566	24
539.4325	6
540.38354	27
541.37238	5
552.3667	9
569.35315	7
583.36633	44
583.39148	18
584.3855	5
627.34363	9
627.36401	10
627.38348	6
628.36786	18
629.33978	6
633.57684	5
645.35522	25
645.38409	11
646.35486	6
681.42444	6
699.43182	8
759.37708	8
759.42352	5
821.36505	9
821.40289	61
821.4436	9

NAME: Soyasaponin Bb
PRECURSORMZ: 941.51153924783
PRECURSORTYPE: [M-H]-
INSTRUMENTTYPE: LC-ESI-QTOF
SMILES: CC1OC(OC2C(O)C(O)C(CO)OC2OC2C(O)C(O)C(OC2OC2CCC3(C)C(CCC4(C)C3CC=C3C5CC(C)(C)CC(O)C5(C)CCC43C)C2(C)CO)C(O)=O)C(O)C(O)C1O
INCHIKEY: PTDAHAWQAGSZDD-UHFFFAOYNA-N
Ontology: Triterpene saponins
COLLISIONENERGY: 50
FORMULA: C48H78O18
RETENTIONTIME: 7.11665
IONMODE: Negative
Comment: registered in RIKEN PlaSMA
Num Peaks: 157
59.01065	75
59.01629	43
71.00789	26
71.01469	142
73.02358	12
73.02927	31
75.0081	145
82.19029	12
83.02124	12
84.01929	47
85.0248	70
85.02997	226
86.03374	12
87.00027	26
87.00845	35
87.04272	42
87.76488	12
89.02268	363
90.02721	12
94.68179	12
95.01068	26
97.02958	14
97.03945	13
99.00954	150
99.06455	12
100.00809	15
101.02261	442
101.02762	235
101.52549	19
102.02971	15
103.04114	266
107.05595	13
112.01675	61
113.02344	622
114.02677	17
115.00263	12
115.04048	164
118.90206	15
119.03356	311
120.03588	14
120.04127	19
129.02019	27
131.03247	132
131.03838	79
132.03802	13
137.02974	18
139.00488	107
139.03606	12
143.03288	367
144.60454	17
145.05208	96
148.04631	13
149.04095	45
157.01653	199
158.01831	23
159.02576	13
159.03468	14
161.04358	153
161.05191	43
163.06274	655
164.0701	12
179.03889	15
179.05856	73
181.07428	22
205.07172	760
205.0872	61
206.07359	188
206.26534	19
220.41867	12
231.04895	12
233.07318	23
237.45836	13
247.08058	33
247.09047	36
248.09123	13
257.06699	36
265.09479	38
267.09418	17
295.10916	16
307.1055	47
319.86459	27
325.10202	12
359.25867	13
359.27615	17
367.2728	12
375.39874	16
380.51254	17
391.28217	15
395.13382	12
409.32568	13
421.14337	17
425.35202	13
426.32834	23
437.33066	33
437.34695	24
437.3819	13
456.35483	13
457.33722	28
457.37143	144
458.34698	17
458.37445	52
463.53281	16
465.13071	12
465.14392	17
479.35562	12
482.52988	16
487.83328	12
553.37585	30
553.40308	13
554.40302	13
571.40594	24
572.39026	15
572.40656	12
579.73535	15
597.35565	27
615.37842	141
615.43042	12
616.34991	19
616.39056	58
617.39496	24
617.42749	34
618.07562	22
633.37128	13
633.41687	12
635.43634	12
733.45874	47
734.46088	27
735.46375	20
738.00043	13
751.45508	15
751.47192	14
752.48138	12
753.4538	18
753.48749	13
753.50598	12
755.48486	13
778.44806	29
782.88013	18
795.43243	13
796.44757	20
835.11383	18
879.47723	13
879.51746	26
879.55658	13
880.5368	19
882.83862	15
897.50208	13
906.06396	13
908.38202	13
912.672	13
923.48669	27
924.51721	12
926.43359	13
929.69568	13
941.36786	19
941.50653	1000
941.60034	14

NAME: Soyasaponin Bb
PRECURSORMZ: 987.51701855183
PRECURSORTYPE: [M+FA-H]-
INSTRUMENTTYPE: LC-ESI-QTOF
SMILES: CC1OC(OC2C(O)C(O)C(CO)OC2OC2C(O)C(O)C(OC2OC2CCC3(C)C(CCC4(C)C3CC=C3C5CC(C)(C)CC(O)C5(C)CCC43C)C2(C)CO)C(O)=O)C(O)C(O)C1O
INCHIKEY: PTDAHAWQAGSZDD-UHFFFAOYNA-N
Ontology: Triterpene saponins
COLLISIONENERGY: 50
FORMULA: C48H78O18
RETENTIONTIME: 7.11665
IONMODE: Negative
Comment: registered in RIKEN PlaSMA
Num Peaks: 105
59.01404	50
64.27253	10
71.01112	6
75.00857	6
85.02757	89
87.00614	7
89.02402	42
95.02216	6
97.03032	8
99.00808	50
101.02254	92
102.02971	6
103.03877	47
106.90166	10
113.02145	61
113.02853	25
114.02457	7
115.00983	6
115.04495	6
116.00414	7
119.03306	39
119.04609	12
127.04195	21
131.03458	30
139.00156	7
139.00844	26
143.03589	77
144.04558	6
145.04883	17
153.07808	6
157.01151	44
157.01845	15
161.04694	32
162.05066	9
163.0587	175
191.02547	7
205.06972	238
206.05925	8
206.07454	6
231.04794	6
233.06804	14
247.07845	22
252.13419	10
257.06421	21
265.08649	19
307.10541	7
395.1076	7
403.13135	16
409.34384	7
410.358	14
422.15158	8
450.14908	10
457.36438	25
457.3822	19
458.37711	12
464.22836	6
464.58176	6
466.13177	6
500.21396	12
519.21405	6
525.39789	11
526.41699	8
532.34393	7
571.41833	15
597.35645	7
597.40381	6
599.35443	6
615.388	68
615.40875	15
616.41058	16
617.4079	12
633.40692	15
715.28992	9
733.41028	7
733.44397	14
734.44293	8
751.46741	7
752.47028	16
795.4704	6
809.17499	6
879.52332	22
881.5141	9
882.54169	7
892.34204	7
923.46509	7
923.50476	42
923.53436	13
923.78339	6
924.49377	6
924.51575	6
925.46771	6
925.51276	6
932.16388	11
933.47278	6
941.50757	1000
942.44208	13
942.50916	528
942.59406	7
942.68024	6
943.49554	104
943.53705	79
943.57733	9
944.51459	41
944.5498	12
983.8996	8

NAME: alpha-Solanine
PRECURSORMZ: 912.496223504
PRECURSORTYPE: [M+FA-H]-
INSTRUMENTTYPE: LC-ESI-QTOF
SMILES: CC1C2CCC(C)CN2C2CC3C4CC=C5CC(CCC5(C)C4CCC3(C)C12)OC1OC(CO)C(O)C(OC2OC(CO)C(O)C(O)C2O)C1OC1OC(C)C(O)C(O)C1O
INCHIKEY: ZGVSETXHNHBTRK-UHFFFAOYNA-N
Ontology: Steroidal saponins
COLLISIONENERGY: 10
FORMULA: C45H73NO15
RETENTIONTIME: 4.9416
IONMODE: Negative
Comment: registered in RIKEN PlaSMA
Num Peaks: 24
113.02312	8
119.03625	10
143.03337	20
161.04474	15
163.05794	13
179.05446	5
205.06966	6
558.37842	29
704.43695	382
704.50244	6
705.43781	183
706.44495	48
707.44269	10
720.42059	8
720.45184	10
721.43567	8
866.4903	1000
867.4939	494
868.4967	134
869.46204	6
869.48682	18
869.52435	7
869.56036	6
912.49646	610

NAME: Ginsenoside F3
PRECURSORMZ: 815.479845104
PRECURSORTYPE: [M+FA-H]-
INSTRUMENTTYPE: LC-ESI-QTOF
SMILES: CC(C)=CCCC(C)(OC1OC(COC2OCC(O)C(O)C2O)C(O)C(O)C1O)C1CCC2(C)C1C(O)CC1C3(C)CCC(O)C(C)(C)C3C(O)CC21C
INCHIKEY: HJRVLGWTJSLQIG-UHFFFAOYNA-N
Ontology: Triterpenoids
COLLISIONENERGY: 10
FORMULA: C41H70O13
RETENTIONTIME: 6.1149
IONMODE: Negative
Comment: registered in RIKEN PlaSMA
Num Peaks: 24
71.01306	9
89.0243	58
101.02355	37
113.02143	9
119.03677	18
125.02483	15
131.03452	56
149.04515	318
150.04909	13
161.04361	11
191.04797	9
191.05679	41
192.05307	5
221.06415	38
251.07787	8
293.08521	102
294.09042	18
311.09488	28
769.4729	488
770.48053	187
771.47589	47
771.50891	17
772.48883	6
815.48041	1000

NAME: Ginsenoside Rh1
PRECURSORMZ: 683.437586404
PRECURSORTYPE: [M+FA-H]-
INSTRUMENTTYPE: LC-ESI-QTOF
SMILES: CC(C)=CCCC(C)(O)C1CCC2(C)C1C(O)CC1C3(C)CCC(O)C(C)(C)C3C(CC21C)OC1OC(CO)C(O)C(O)C1O
INCHIKEY: RAQNTCRNSXYLAH-UHFFFAOYNA-N
Ontology: Triterpenoids
COLLISIONENERGY: 10
FORMULA: C36H62O9
RETENTIONTIME: 6.292917
IONMODE: Negative
Comment: registered in RIKEN PlaSMA
Num Peaks: 7
101.02391	8
161.04614	16
475.36899	6
476.3819	6
637.43103	45
638.43854	18
683.43646	1000

NAME: alpha-Solanine
PRECURSORMZ: 912.496223504
PRECURSORTYPE: [M+FA-H]-
INSTRUMENTTYPE: LC-ESI-QTOF
SMILES: CC1C2CCC(C)CN2C2CC3C4CC=C5CC(CCC5(C)C4CCC3(C)C12)OC1OC(CO)C(O)C(OC2OC(CO)C(O)C(O)C2O)C1OC1OC(C)C(O)C(O)C1O
INCHIKEY: ZGVSETXHNHBTRK-UHFFFAOYNA-N
Ontology: Steroidal saponins
COLLISIONENERGY: 10
FORMULA: C45H73NO15
RETENTIONTIME: 4.9416
IONMODE: Negative
Comment: registered in RIKEN PlaSMA
Num Peaks: 5
866.48639	134
867.49341	67
868.48621	6
868.51868	7
912.49457	1000

NAME: Ginsenoside F3
PRECURSORMZ: 815.479845104
PRECURSORTYPE: [M+FA-H]-
INSTRUMENTTYPE: LC-ESI-QTOF
SMILES: CC(C)=CCCC(C)(OC1OC(COC2OCC(O)C(O)C2O)C(O)C(O)C1O)C1CCC2(C)C1C(O)CC1C3(C)CCC(O)C(C)(C)C3C(O)CC21C
INCHIKEY: HJRVLGWTJSLQIG-UHFFFAOYNA-N
Ontology: Triterpenoids
COLLISIONENERGY: 10
FORMULA: C41H70O13
RETENTIONTIME: 6.1149
IONMODE: Negative
Comment: registered in RIKEN PlaSMA
Num Peaks: 4
769.47266	50
770.47736	15
815.48108	1000
815.55865	6

NAME: alpha-Solanine
PRECURSORMZ: 866.4907442
PRECURSORTYPE: [M-H]-
INSTRUMENTTYPE: LC-ESI-QTOF
SMILES: CC1C2CCC(C)CN2C2CC3C4CC=C5CC(CCC5(C)C4CCC3(C)C12)OC1OC(CO)C(O)C(OC2OC(CO)C(O)C(O)C2O)C1OC1OC(C)C(O)C(O)C1O
INCHIKEY: ZGVSETXHNHBTRK-UHFFFAOYNA-N
Ontology: Steroidal saponins
COLLISIONENERGY: 30
FORMULA: C45H73NO15
RETENTIONTIME: 4.9416
IONMODE: Negative
Comment: registered in RIKEN PlaSMA
Num Peaks: 11
70.73035	156
89.02249	133
119.03231	148
179.05211	119
704.41553	133
704.45227	126
705.43121	126
706.45013	133
707.44562	156
866.47412	133
866.5072	1000

NAME: alpha-Solanine
PRECURSORMZ: 912.496223504
PRECURSORTYPE: [M+FA-H]-
INSTRUMENTTYPE: LC-ESI-QTOF
SMILES: CC1C2CCC(C)CN2C2CC3C4CC=C5CC(CCC5(C)C4CCC3(C)C12)OC1OC(CO)C(O)C(OC2OC(CO)C(O)C(O)C2O)C1OC1OC(C)C(O)C(O)C1O
INCHIKEY: ZGVSETXHNHBTRK-UHFFFAOYNA-N
Ontology: Steroidal saponins
COLLISIONENERGY: 30
FORMULA: C45H73NO15
RETENTIONTIME: 4.9416
IONMODE: Negative
Comment: registered in RIKEN PlaSMA
Num Peaks: 16
89.02103	6
143.03317	11
161.04315	14
704.43695	500
705.43933	198
706.42432	18
706.44824	33
707.45154	6
720.42981	28
721.43311	7
866.49078	1000
866.55243	7
867.49353	508
868.49628	141
869.50153	26
870.51361	7

NAME: Ginsenoside F3
PRECURSORMZ: 815.479845104
PRECURSORTYPE: [M+FA-H]-
INSTRUMENTTYPE: LC-ESI-QTOF
SMILES: CC(C)=CCCC(C)(OC1OC(COC2OCC(O)C(O)C2O)C(O)C(O)C1O)C1CCC2(C)C1C(O)CC1C3(C)CCC(O)C(C)(C)C3C(O)CC21C
INCHIKEY: HJRVLGWTJSLQIG-UHFFFAOYNA-N
Ontology: Triterpenoids
COLLISIONENERGY: 30
FORMULA: C41H70O13
RETENTIONTIME: 6.1149
IONMODE: Negative
Comment: registered in RIKEN PlaSMA
Num Peaks: 43
59.01207	7
71.01149	25
73.02672	9
89.02344	108
101.02297	132
113.02351	38
119.03401	28
125.01463	5
125.02536	35
126.02366	7
131.03462	148
143.03017	7
143.03836	8
148.95602	6
149.04515	1000
150.04807	57
151.04802	6
161.04529	35
191.05661	110
192.05717	13
221.06604	90
222.07173	8
233.0641	18
246.66269	5
251.07222	20
251.08298	15
275.07651	7
281.08694	13
293.08707	303
294.08969	57
295.09265	10
311.09775	67
312.09232	9
637.42053	15
769.47595	446
770.47028	119
770.49054	61
770.5274	8
770.66541	5
771.47607	55
771.51776	12
772.47162	5
815.47516	6

NAME: Ginsenoside Rh1
PRECURSORMZ: 683.437586404
PRECURSORTYPE: [M+FA-H]-
INSTRUMENTTYPE: LC-ESI-QTOF
SMILES: CC(C)=CCCC(C)(O)C1CCC2(C)C1C(O)CC1C3(C)CCC(O)C(C)(C)C3C(CC21C)OC1OC(CO)C(O)C(O)C1O
INCHIKEY: RAQNTCRNSXYLAH-UHFFFAOYNA-N
Ontology: Triterpenoids
COLLISIONENERGY: 30
FORMULA: C36H62O9
RETENTIONTIME: 6.292917
IONMODE: Negative
Comment: registered in RIKEN PlaSMA
Num Peaks: 51
50.99947	21
71.01212	226
71.4903	22
73.02811	36
75.0109	18
81.03619	17
82.74393	34
83.00916	20
85.03037	16
89.01613	18
89.02363	124
99.01113	62
101.02219	255
102.02957	16
103.02921	27
113.02263	206
113.13337	16
119.03429	66
129.0148	17
131.0352	39
141.01976	19
143.03522	99
159.02582	44
159.03358	17
160.87556	23
161.04532	731
161.18115	33
162.04272	20
163.04726	52
253.31543	16
349.28436	17
391.28522	16
475.37878	1000
476.38394	329
477.38846	53
485.36774	27
546.38495	27
553.33124	22
591.68982	17
637.42157	493
637.44031	217
638.3913	17
638.43164	270
638.45801	55
639.43793	36
639.46826	16
639.51196	20
640.43854	18
641.46442	22
683.42188	35
683.45178	40

NAME: alpha-Solanine
PRECURSORMZ: 912.496223504
PRECURSORTYPE: [M+FA-H]-
INSTRUMENTTYPE: LC-ESI-QTOF
SMILES: CC1C2CCC(C)CN2C2CC3C4CC=C5CC(CCC5(C)C4CCC3(C)C12)OC1OC(CO)C(O)C(OC2OC(CO)C(O)C(O)C2O)C1OC1OC(C)C(O)C(O)C1O
INCHIKEY: ZGVSETXHNHBTRK-UHFFFAOYNA-N
Ontology: Steroidal saponins
COLLISIONENERGY: 50
FORMULA: C45H73NO15
RETENTIONTIME: 4.9416
IONMODE: Negative
Comment: registered in RIKEN PlaSMA
Num Peaks: 141
53.47845	7
57.00037	9
57.65439	7
58.00688	11
59.01275	213
60.34792	5
67.61443	11
71.01251	162
72.01801	5
72.99085	12
73.01711	6
73.02789	37
81.7828	7
83.01418	28
85.02703	41
85.03376	19
87.00765	8
87.69342	6
89.02349	925
89.05157	6
89.94811	5
90.02454	6
90.02973	5
95.0125	17
97.02673	23
99.00906	29
101.02357	1000
101.82675	6
102.02542	55
103.03945	286
103.05618	7
104.03812	11
104.04621	7
104.67839	8
107.03402	13
109.02785	11
112.0177	8
112.80161	7
113.02341	461
113.03941	5
114.02975	24
114.65409	6
115.0378	34
119.03388	770
119.16135	5
120.03864	27
125.01991	35
125.02736	44
127.03989	6
131.01993	13
131.03215	96
131.03937	54
132.03761	19
133.05348	8
142.64862	8
142.97688	6
143.03377	530
144.03798	52
145.04965	51
145.06036	9
146.05112	8
149.04401	64
152.51315	7
159.02562	22
159.03539	5
161.04497	276
161.79045	6
162.04721	24
162.05881	13
163.06122	367
163.07738	6
164.06065	9
164.07176	12
167.03738	12
178.17798	5
179.05588	148
179.07314	6
179.74429	7
180.05563	12
181.05479	5
188.379	6
203.05376	7
205.07135	271
206.07155	6
206.08339	7
207.07535	14
214.123	8
233.07027	7
235.0804	12
247.07968	36
247.08687	24
256.88266	8
287.58838	7
289.09335	35
332.3942	7
339.71643	7
366.98682	7
372.23318	6
433.78027	8
478.23013	13
492.33734	13
492.36084	29
493.34039	5
493.35861	5
507.26828	11
522.34247	7
522.37695	6
557.64191	6
558.37775	97
558.39941	17
558.88696	5
559.0614	5
559.37494	75
559.39404	76
560.16138	6
560.36493	8
560.38904	6
561.37518	6
562.72498	6
572.30615	6
639.90039	7
704.43823	986
704.68219	9
705.44073	430
705.98199	9
706.42096	32
706.45154	65
707.44537	31
708.46802	20
720.44409	14
721.4325	12
722.44513	15
784.59393	7
817.48065	5
848.85071	5
866.42657	5
866.48572	8
867.30273	6
867.50299	15
900.94714	7
906.15259	7

NAME: Ginsenoside F3
PRECURSORMZ: 769.4743658
PRECURSORTYPE: [M-H]-
INSTRUMENTTYPE: LC-ESI-QTOF
SMILES: CC(C)=CCCC(C)(OC1OC(COC2OCC(O)C(O)C2O)C(O)C(O)C1O)C1CCC2(C)C1C(O)CC1C3(C)CCC(O)C(C)(C)C3C(O)CC21C
INCHIKEY: HJRVLGWTJSLQIG-UHFFFAOYNA-N
Ontology: Triterpenoids
COLLISIONENERGY: 50
FORMULA: C41H70O13
RETENTIONTIME: 6.1149
IONMODE: Negative
Comment: registered in RIKEN PlaSMA
Num Peaks: 4
111.01019	390
133.04041	659
149.04401	1000
191.05081	390

NAME: Ginsenoside F3
PRECURSORMZ: 815.479845104
PRECURSORTYPE: [M+FA-H]-
INSTRUMENTTYPE: LC-ESI-QTOF
SMILES: CC(C)=CCCC(C)(OC1OC(COC2OCC(O)C(O)C2O)C(O)C(O)C1O)C1CCC2(C)C1C(O)CC1C3(C)CCC(O)C(C)(C)C3C(O)CC21C
INCHIKEY: HJRVLGWTJSLQIG-UHFFFAOYNA-N
Ontology: Triterpenoids
COLLISIONENERGY: 50
FORMULA: C41H70O13
RETENTIONTIME: 6.1149
IONMODE: Negative
Comment: registered in RIKEN PlaSMA
Num Peaks: 62
59.01265	130
60.01859	14
60.34164	6
71.01225	157
72.01482	5
73.0298	38
75.00823	6
79.01713	5
81.03109	5
83.01397	12
84.01995	9
85.02866	41
87.4883	5
89.02372	1000
90.02783	53
95.01572	10
97.02951	63
100.01637	10
101.02358	291
102.02901	28
107.01464	9
111.00657	34
111.29385	6
113.02397	159
114.02821	8
115.03553	6
119.03296	69
121.03713	10
125.0234	112
125.09416	5
126.01815	7
126.02377	6
127.03954	5
131.03349	519
132.037	25
139.03664	25
143.03474	28
149.0446	604
150.04456	8
150.05228	21
151.05051	10
153.02074	5
161.05008	6
165.00427	8
191.05579	414
192.04926	13
192.05911	37
215.06546	6
221.06961	8
233.06213	33
293.08121	14
391.2471	6
391.27069	17
391.28531	9
391.30121	7
391.32013	7
392.29272	8
405.32904	6
457.36267	17
460.33865	7
475.38766	78
476.37701	17

NAME: Ginsenoside Rh1
PRECURSORMZ: 683.437586404
PRECURSORTYPE: [M+FA-H]-
INSTRUMENTTYPE: LC-ESI-QTOF
SMILES: CC(C)=CCCC(C)(O)C1CCC2(C)C1C(O)CC1C3(C)CCC(O)C(C)(C)C3C(CC21C)OC1OC(CO)C(O)C(O)C1O
INCHIKEY: RAQNTCRNSXYLAH-UHFFFAOYNA-N
Ontology: Triterpenoids
COLLISIONENERGY: 50
FORMULA: C36H62O9
RETENTIONTIME: 6.292917
IONMODE: Negative
Comment: registered in RIKEN PlaSMA
Num Peaks: 9
101.02448	38
101.02956	44
114.02757	40
391.28098	42
430.14584	53
457.36972	35
673.41754	73
683.43176	1000
683.44891	461

NAME: alpha-Solanine
PRECURSORMZ: 866.4907442
PRECURSORTYPE: [M-H]-
INSTRUMENTTYPE: LC-ESI-QTOF
SMILES: CC1C2CCC(C)CN2C2CC3C4CC=C5CC(CCC5(C)C4CCC3(C)C12)OC1OC(CO)C(O)C(OC2OC(CO)C(O)C(O)C2O)C1OC1OC(C)C(O)C(O)C1O
INCHIKEY: ZGVSETXHNHBTRK-UHFFFAOYNA-N
Ontology: Steroidal saponins
COLLISIONENERGY: 10
FORMULA: C45H73NO15
RETENTIONTIME: 4.9416
IONMODE: Negative
Comment: registered in RIKEN PlaSMA
Num Peaks: 7
119.03468	688
179.06018	562
179.06927	500
704.44855	750
705.48303	562
720.43195	1000
866.4718	500

NAME: alpha-Solanine
PRECURSORMZ: 912.496223504
PRECURSORTYPE: [M+FA-H]-
INSTRUMENTTYPE: LC-ESI-QTOF
SMILES: CC1C2CCC(C)CN2C2CC3C4CC=C5CC(CCC5(C)C4CCC3(C)C12)OC1OC(CO)C(O)C(OC2OC(CO)C(O)C(O)C2O)C1OC1OC(C)C(O)C(O)C1O
INCHIKEY: ZGVSETXHNHBTRK-UHFFFAOYNA-N
Ontology: Steroidal saponins
COLLISIONENERGY: 10
FORMULA: C45H73NO15
RETENTIONTIME: 4.9416
IONMODE: Negative
Comment: registered in RIKEN PlaSMA
Num Peaks: 22
89.02414	7
101.02843	17
119.03283	17
143.03513	8
161.0451	17
163.06342	9
179.06151	5
205.06967	11
558.36877	5
558.38861	17
704.4361	389
705.44183	174
706.43463	26
706.48108	6
707.42743	6
866.48987	1000
866.56219	6
867.49475	489
868.49988	129
868.55359	5
869.49072	18
912.49579	532

NAME: Ginsenoside F3
PRECURSORMZ: 815.479845104
PRECURSORTYPE: [M+FA-H]-
INSTRUMENTTYPE: LC-ESI-QTOF
SMILES: CC(C)=CCCC(C)(OC1OC(COC2OCC(O)C(O)C2O)C(O)C(O)C1O)C1CCC2(C)C1C(O)CC1C3(C)CCC(O)C(C)(C)C3C(O)CC21C
INCHIKEY: HJRVLGWTJSLQIG-UHFFFAOYNA-N
Ontology: Triterpenoids
COLLISIONENERGY: 10
FORMULA: C41H70O13
RETENTIONTIME: 6.1149
IONMODE: Negative
Comment: registered in RIKEN PlaSMA
Num Peaks: 19
89.02322	19
101.0229	20
119.03594	6
125.02192	6
131.03439	49
149.04536	201
150.05165	12
161.04587	10
191.05511	34
221.06317	9
221.07164	8
251.08069	7
293.08804	64
311.10098	13
312.10303	5
769.47839	280
770.47589	133
771.48254	34
815.48102	1000

NAME: Ginsenoside Rh1
PRECURSORMZ: 683.437586404
PRECURSORTYPE: [M+FA-H]-
INSTRUMENTTYPE: LC-ESI-QTOF
SMILES: CC(C)=CCCC(C)(O)C1CCC2(C)C1C(O)CC1C3(C)CCC(O)C(C)(C)C3C(CC21C)OC1OC(CO)C(O)C(O)C1O
INCHIKEY: RAQNTCRNSXYLAH-UHFFFAOYNA-N
Ontology: Triterpenoids
COLLISIONENERGY: 10
FORMULA: C36H62O9
RETENTIONTIME: 6.292917
IONMODE: Negative
Comment: registered in RIKEN PlaSMA
Num Peaks: 7
101.02353	5
161.04521	9
475.37991	14
637.43048	42
638.4361	18
639.42706	6
683.43622	1000

NAME: alpha-Solanine
PRECURSORMZ: 912.496223504
PRECURSORTYPE: [M+FA-H]-
INSTRUMENTTYPE: LC-ESI-QTOF
SMILES: CC1C2CCC(C)CN2C2CC3C4CC=C5CC(CCC5(C)C4CCC3(C)C12)OC1OC(CO)C(O)C(OC2OC(CO)C(O)C(O)C2O)C1OC1OC(C)C(O)C(O)C1O
INCHIKEY: ZGVSETXHNHBTRK-UHFFFAOYNA-N
Ontology: Steroidal saponins
COLLISIONENERGY: 10
FORMULA: C45H73NO15
RETENTIONTIME: 4.9416
IONMODE: Negative
Comment: registered in RIKEN PlaSMA
Num Peaks: 4
866.49371	118
867.49982	38
868.49994	15
912.49652	1000

NAME: Ginsenoside F3
PRECURSORMZ: 769.4743658
PRECURSORTYPE: [M-H]-
INSTRUMENTTYPE: LC-ESI-QTOF
SMILES: CC(C)=CCCC(C)(OC1OC(COC2OCC(O)C(O)C2O)C(O)C(O)C1O)C1CCC2(C)C1C(O)CC1C3(C)CCC(O)C(C)(C)C3C(O)CC21C
INCHIKEY: HJRVLGWTJSLQIG-UHFFFAOYNA-N
Ontology: Triterpenoids
COLLISIONENERGY: 10
FORMULA: C41H70O13
RETENTIONTIME: 6.1149
IONMODE: Negative
Comment: registered in RIKEN PlaSMA
Num Peaks: 2
769.46198	1000
769.49359	633

NAME: Ginsenoside F3
PRECURSORMZ: 815.479845104
PRECURSORTYPE: [M+FA-H]-
INSTRUMENTTYPE: LC-ESI-QTOF
SMILES: CC(C)=CCCC(C)(OC1OC(COC2OCC(O)C(O)C2O)C(O)C(O)C1O)C1CCC2(C)C1C(O)CC1C3(C)CCC(O)C(C)(C)C3C(O)CC21C
INCHIKEY: HJRVLGWTJSLQIG-UHFFFAOYNA-N
Ontology: Triterpenoids
COLLISIONENERGY: 10
FORMULA: C41H70O13
RETENTIONTIME: 6.1149
IONMODE: Negative
Comment: registered in RIKEN PlaSMA
Num Peaks: 4
769.47211	44
770.47668	8
815.47894	1000
815.5484	8

NAME: Ginsenoside Rh1
PRECURSORMZ: 683.437586404
PRECURSORTYPE: [M+FA-H]-
INSTRUMENTTYPE: LC-ESI-QTOF
SMILES: CC(C)=CCCC(C)(O)C1CCC2(C)C1C(O)CC1C3(C)CCC(O)C(C)(C)C3C(CC21C)OC1OC(CO)C(O)C(O)C1O
INCHIKEY: RAQNTCRNSXYLAH-UHFFFAOYNA-N
Ontology: Triterpenoids
COLLISIONENERGY: 10
FORMULA: C36H62O9
RETENTIONTIME: 6.292917
IONMODE: Negative
Comment: registered in RIKEN PlaSMA
Num Peaks: 2
637.43005	5
683.43683	1000

NAME: alpha-Solanine
PRECURSORMZ: 866.4907442
PRECURSORTYPE: [M-H]-
INSTRUMENTTYPE: LC-ESI-QTOF
SMILES: CC1C2CCC(C)CN2C2CC3C4CC=C5CC(CCC5(C)C4CCC3(C)C12)OC1OC(CO)C(O)C(OC2OC(CO)C(O)C(O)C2O)C1OC1OC(C)C(O)C(O)C1O
INCHIKEY: ZGVSETXHNHBTRK-UHFFFAOYNA-N
Ontology: Steroidal saponins
COLLISIONENERGY: 30
FORMULA: C45H73NO15
RETENTIONTIME: 4.9416
IONMODE: Negative
Comment: registered in RIKEN PlaSMA
Num Peaks: 7
151.05151	119
290.09976	185
558.3714	133
704.45135	1000
706.44507	126
866.48352	119
866.51141	252

NAME: alpha-Solanine
PRECURSORMZ: 912.496223504
PRECURSORTYPE: [M+FA-H]-
INSTRUMENTTYPE: LC-ESI-QTOF
SMILES: CC1C2CCC(C)CN2C2CC3C4CC=C5CC(CCC5(C)C4CCC3(C)C12)OC1OC(CO)C(O)C(OC2OC(CO)C(O)C(O)C2O)C1OC1OC(C)C(O)C(O)C1O
INCHIKEY: ZGVSETXHNHBTRK-UHFFFAOYNA-N
Ontology: Steroidal saponins
COLLISIONENERGY: 30
FORMULA: C45H73NO15
RETENTIONTIME: 4.9416
IONMODE: Negative
Comment: registered in RIKEN PlaSMA
Num Peaks: 16
101.02328	10
113.0244	5
119.03506	7
143.03314	9
179.05789	6
704.43787	503
705.43964	229
706.44214	71
720.43604	23
721.4342	6
866.49091	1000
867.49457	506
867.56384	5
868.50232	154
869.48682	12
869.51154	16

NAME: Ginsenoside F3
PRECURSORMZ: 815.479845104
PRECURSORTYPE: [M+FA-H]-
INSTRUMENTTYPE: LC-ESI-QTOF
SMILES: CC(C)=CCCC(C)(OC1OC(COC2OCC(O)C(O)C2O)C(O)C(O)C1O)C1CCC2(C)C1C(O)CC1C3(C)CCC(O)C(C)(C)C3C(O)CC21C
INCHIKEY: HJRVLGWTJSLQIG-UHFFFAOYNA-N
Ontology: Triterpenoids
COLLISIONENERGY: 30
FORMULA: C41H70O13
RETENTIONTIME: 6.1149
IONMODE: Negative
Comment: registered in RIKEN PlaSMA
Num Peaks: 34
59.01506	5
71.0131	33
89.02386	114
101.02345	116
102.02625	5
113.02398	25
119.03366	41
125.02408	28
131.03366	186
132.03499	5
143.03571	9
149.04459	1000
150.04836	49
151.05051	7
161.04547	35
191.05484	108
192.05717	11
221.06487	115
233.06766	11
251.07626	38
281.09338	8
282.09158	6
293.06076	6
293.08813	349
294.08521	16
294.09769	10
311.09399	48
475.36917	5
637.40808	6
769.47461	448
770.47626	241
771.48132	45
772.4696	5
815.49402	11

NAME: Ginsenoside Rh1
PRECURSORMZ: 683.437586404
PRECURSORTYPE: [M+FA-H]-
INSTRUMENTTYPE: LC-ESI-QTOF
SMILES: CC(C)=CCCC(C)(O)C1CCC2(C)C1C(O)CC1C3(C)CCC(O)C(C)(C)C3C(CC21C)OC1OC(CO)C(O)C(O)C1O
INCHIKEY: RAQNTCRNSXYLAH-UHFFFAOYNA-N
Ontology: Triterpenoids
COLLISIONENERGY: 30
FORMULA: C36H62O9
RETENTIONTIME: 6.292917
IONMODE: Negative
Comment: registered in RIKEN PlaSMA
Num Peaks: 53
55.01412	21
59.01236	38
59.0169	17
68.67064	21
71.01227	158
72.01495	19
73.02718	119
83.01279	65
85.02737	40
89.01831	20
89.02405	58
99.00751	36
99.04875	27
101.02317	425
102.02428	26
103.03931	19
113.02261	169
113.03321	42
114.02719	39
115.03028	21
119.03232	20
127.02892	20
129.02011	91
138.47383	21
143.03445	40
143.04251	37
151.08638	28
159.0269	145
159.0345	64
160.02972	117
161.04401	1000
162.04822	39
162.16711	24
229.38683	25
391.27768	18
421.12784	24
475.38174	887
475.40829	49
476.37622	212
476.39029	245
477.375	133
477.40182	37
518.37982	21
545.37537	17
621.37067	19
637.43146	620
637.45349	143
638.39282	25
638.42828	282
638.46326	48
638.79657	17
639.44006	78
683.43915	175

NAME: alpha-Solanine
PRECURSORMZ: 866.4907442
PRECURSORTYPE: [M-H]-
INSTRUMENTTYPE: LC-ESI-QTOF
SMILES: CC1C2CCC(C)CN2C2CC3C4CC=C5CC(CCC5(C)C4CCC3(C)C12)OC1OC(CO)C(O)C(OC2OC(CO)C(O)C(O)C2O)C1OC1OC(C)C(O)C(O)C1O
INCHIKEY: ZGVSETXHNHBTRK-UHFFFAOYNA-N
Ontology: Steroidal saponins
COLLISIONENERGY: 50
FORMULA: C45H73NO15
RETENTIONTIME: 4.9416
IONMODE: Negative
Comment: registered in RIKEN PlaSMA
Num Peaks: 10
89.02197	1000
103.04598	338
113.02612	800
119.02766	385
131.03262	292
143.02498	431
143.03561	600
144.04704	246
163.06181	308
474.34622	246

NAME: alpha-Solanine
PRECURSORMZ: 912.496223504
PRECURSORTYPE: [M+FA-H]-
INSTRUMENTTYPE: LC-ESI-QTOF
SMILES: CC1C2CCC(C)CN2C2CC3C4CC=C5CC(CCC5(C)C4CCC3(C)C12)OC1OC(CO)C(O)C(OC2OC(CO)C(O)C(O)C2O)C1OC1OC(C)C(O)C(O)C1O
INCHIKEY: ZGVSETXHNHBTRK-UHFFFAOYNA-N
Ontology: Steroidal saponins
COLLISIONENERGY: 50
FORMULA: C45H73NO15
RETENTIONTIME: 4.9416
IONMODE: Negative
Comment: registered in RIKEN PlaSMA
Num Peaks: 100
55.01374	8
59.01358	156
60.01706	7
70.76681	6
71.01256	213
73.02924	37
78.6301	6
83.01369	35
85.02936	32
87.00471	21
87.01408	5
89.02365	852
89.09373	5
89.21158	10
90.02384	6
90.02711	14
95.01427	9
97.02743	41
99.00896	7
99.05408	6
101.02372	1000
102.00907	14
102.02796	10
103.03931	252
107.03529	20
112.01884	11
113.02377	376
114.02462	10
115.03415	16
115.04202	54
119.0346	623
120.03919	33
121.03184	6
122.50991	7
124.35909	10
125.02319	82
125.02972	24
126.02614	6
127.04008	25
128.03932	6
129.0145	5
131.03477	156
132.03571	12
143.03476	524
144.03862	20
145.03949	9
145.04942	48
146.05508	6
147.0522	8
149.04303	63
155.02901	8
155.03409	5
159.0307	10
161.0461	170
162.04555	25
163.06065	319
164.06917	10
167.03578	5
179.05614	123
179.15024	5
181.07843	5
205.07121	177
206.07234	28
207.07837	11
247.08395	30
247.1078	6
249.10619	6
289.09656	5
290.09024	26
336.34192	6
456.67407	10
492.34625	36
493.34927	18
501.51392	9
505.33942	9
540.37646	5
558.38	216
558.40778	25
559.35553	11
559.38635	62
560.39191	23
594.77448	5
600.3902	8
704.43823	860
704.48578	23
704.51953	6
705.44037	331
706.42401	32
706.45129	66
706.49225	12
707.43774	6
707.45996	10
708.27637	8
708.46271	6
710.09625	6
720.42578	18
720.44611	9
721.41187	13
723.65881	6
867.4928	9

NAME: Ginsenoside F3
PRECURSORMZ: 769.4743658
PRECURSORTYPE: [M-H]-
INSTRUMENTTYPE: LC-ESI-QTOF
SMILES: CC(C)=CCCC(C)(OC1OC(COC2OCC(O)C(O)C2O)C(O)C(O)C1O)C1CCC2(C)C1C(O)CC1C3(C)CCC(O)C(C)(C)C3C(O)CC21C
INCHIKEY: HJRVLGWTJSLQIG-UHFFFAOYNA-N
Ontology: Triterpenoids
COLLISIONENERGY: 50
FORMULA: C41H70O13
RETENTIONTIME: 6.1149
IONMODE: Negative
Comment: registered in RIKEN PlaSMA
Num Peaks: 4
89.02378	1000
111.04246	913
131.03004	696
475.40451	783

NAME: Ginsenoside F3
PRECURSORMZ: 815.479845104
PRECURSORTYPE: [M+FA-H]-
INSTRUMENTTYPE: LC-ESI-QTOF
SMILES: CC(C)=CCCC(C)(OC1OC(COC2OCC(O)C(O)C2O)C(O)C(O)C1O)C1CCC2(C)C1C(O)CC1C3(C)CCC(O)C(C)(C)C3C(O)CC21C
INCHIKEY: HJRVLGWTJSLQIG-UHFFFAOYNA-N
Ontology: Triterpenoids
COLLISIONENERGY: 50
FORMULA: C41H70O13
RETENTIONTIME: 6.1149
IONMODE: Negative
Comment: registered in RIKEN PlaSMA
Num Peaks: 60
59.01234	125
60.0174	6
71.01337	214
72.01559	9
73.02805	25
77.02412	8
81.035	15
85.02932	37
87.00833	14
89.02312	1000
90.02881	49
91.02969	17
95.013	10
97.02679	17
101.02333	296
101.03577	8
102.0284	16
103.03321	9
109.02811	5
111.0098	15
112.01393	10
113.02431	178
114.02811	9
119.02945	28
119.03594	46
120.0373	6
121.03594	7
125.0246	48
127.03179	7
131.03432	637
132.03162	6
132.03801	19
142.03165	11
143.03459	32
143.04036	9
149.04416	613
149.1705	8
150.049	46
151.04819	11
161.03836	6
161.04639	13
162.04811	13
167.64745	10
191.05437	398
192.06088	28
221.06837	5
233.05659	9
233.06929	28
250.81734	5
284.06293	6
293.08875	34
390.29047	13
457.36249	13
458.37317	14
475.367	34
475.39548	10
476.3743	15
476.39194	8
805.46136	13
815.47626	344

NAME: alpha-Solanine
PRECURSORMZ: 866.4907442
PRECURSORTYPE: [M-H]-
INSTRUMENTTYPE: LC-ESI-QTOF
SMILES: CC1C2CCC(C)CN2C2CC3C4CC=C5CC(CCC5(C)C4CCC3(C)C12)OC1OC(CO)C(O)C(OC2OC(CO)C(O)C(O)C2O)C1OC1OC(C)C(O)C(O)C1O
INCHIKEY: ZGVSETXHNHBTRK-UHFFFAOYNA-N
Ontology: Steroidal saponins
COLLISIONENERGY: 10
FORMULA: C45H73NO15
RETENTIONTIME: 4.9416
IONMODE: Negative
Comment: registered in RIKEN PlaSMA
Num Peaks: 6
291.07089	267
704.43866	267
705.44519	240
705.47241	280
866.30481	360
866.50623	1000

NAME: Ginsenoside F3
PRECURSORMZ: 769.4743658
PRECURSORTYPE: [M-H]-
INSTRUMENTTYPE: LC-ESI-QTOF
SMILES: CC(C)=CCCC(C)(OC1OC(COC2OCC(O)C(O)C2O)C(O)C(O)C1O)C1CCC2(C)C1C(O)CC1C3(C)CCC(O)C(C)(C)C3C(O)CC21C
INCHIKEY: HJRVLGWTJSLQIG-UHFFFAOYNA-N
Ontology: Triterpenoids
COLLISIONENERGY: 10
FORMULA: C41H70O13
RETENTIONTIME: 6.1149
IONMODE: Negative
Comment: registered in RIKEN PlaSMA
Num Peaks: 4
131.03374	757
293.0932	459
769.47931	973
769.50171	1000

NAME: Ginsenoside F3
PRECURSORMZ: 815.479845104
PRECURSORTYPE: [M+FA-H]-
INSTRUMENTTYPE: LC-ESI-QTOF
SMILES: CC(C)=CCCC(C)(OC1OC(COC2OCC(O)C(O)C2O)C(O)C(O)C1O)C1CCC2(C)C1C(O)CC1C3(C)CCC(O)C(C)(C)C3C(O)CC21C
INCHIKEY: HJRVLGWTJSLQIG-UHFFFAOYNA-N
Ontology: Triterpenoids
COLLISIONENERGY: 10
FORMULA: C41H70O13
RETENTIONTIME: 6.1149
IONMODE: Negative
Comment: registered in RIKEN PlaSMA
Num Peaks: 25
71.01376	13
89.02474	51
101.02216	37
101.02686	23
113.02433	27
119.03215	9
125.02045	8
125.02728	7
131.03407	85
143.03609	6
149.04491	353
150.04723	28
191.05579	52
192.06238	6
221.06519	36
251.07634	11
293.08606	133
294.0864	13
311.0979	26
769.47351	440
770.47491	195
771.48181	55
772.47803	5
815.47858	1000
815.54858	11

NAME: Ginsenoside Rh1
PRECURSORMZ: 683.437586404
PRECURSORTYPE: [M+FA-H]-
INSTRUMENTTYPE: LC-ESI-QTOF
SMILES: CC(C)=CCCC(C)(O)C1CCC2(C)C1C(O)CC1C3(C)CCC(O)C(C)(C)C3C(CC21C)OC1OC(CO)C(O)C(O)C1O
INCHIKEY: RAQNTCRNSXYLAH-UHFFFAOYNA-N
Ontology: Triterpenoids
COLLISIONENERGY: 10
FORMULA: C36H62O9
RETENTIONTIME: 6.292917
IONMODE: Negative
Comment: registered in RIKEN PlaSMA
Num Peaks: 9
101.02393	8
161.04556	17
475.37558	12
475.39722	7
476.38409	5
637.43329	42
638.42712	15
683.43695	1000
683.50751	6

NAME: alpha-Solanine
PRECURSORMZ: 912.496223504
PRECURSORTYPE: [M+FA-H]-
INSTRUMENTTYPE: LC-ESI-QTOF
SMILES: CC1C2CCC(C)CN2C2CC3C4CC=C5CC(CCC5(C)C4CCC3(C)C12)OC1OC(CO)C(O)C(OC2OC(CO)C(O)C(O)C2O)C1OC1OC(C)C(O)C(O)C1O
INCHIKEY: ZGVSETXHNHBTRK-UHFFFAOYNA-N
Ontology: Steroidal saponins
COLLISIONENERGY: 10
FORMULA: C45H73NO15
RETENTIONTIME: 4.9416
IONMODE: Negative
Comment: registered in RIKEN PlaSMA
Num Peaks: 6
866.49249	95
867.48328	40
867.50446	13
868.49597	15
912.49463	1000
912.57092	7

NAME: Ginsenoside F3
PRECURSORMZ: 815.479845104
PRECURSORTYPE: [M+FA-H]-
INSTRUMENTTYPE: LC-ESI-QTOF
SMILES: CC(C)=CCCC(C)(OC1OC(COC2OCC(O)C(O)C2O)C(O)C(O)C1O)C1CCC2(C)C1C(O)CC1C3(C)CCC(O)C(C)(C)C3C(O)CC21C
INCHIKEY: HJRVLGWTJSLQIG-UHFFFAOYNA-N
Ontology: Triterpenoids
COLLISIONENERGY: 10
FORMULA: C41H70O13
RETENTIONTIME: 6.1149
IONMODE: Negative
Comment: registered in RIKEN PlaSMA
Num Peaks: 5
769.47021	29
769.48822	13
770.46527	13
815.47699	1000
815.55768	6

NAME: alpha-Solanine
PRECURSORMZ: 866.4907442
PRECURSORTYPE: [M-H]-
INSTRUMENTTYPE: LC-ESI-QTOF
SMILES: CC1C2CCC(C)CN2C2CC3C4CC=C5CC(CCC5(C)C4CCC3(C)C12)OC1OC(CO)C(O)C(OC2OC(CO)C(O)C(O)C2O)C1OC1OC(C)C(O)C(O)C1O
INCHIKEY: ZGVSETXHNHBTRK-UHFFFAOYNA-N
Ontology: Steroidal saponins
COLLISIONENERGY: 30
FORMULA: C45H73NO15
RETENTIONTIME: 4.9416
IONMODE: Negative
Comment: registered in RIKEN PlaSMA
Num Peaks: 10
70.78569	117
89.02037	145
119.03922	117
704.41058	110
704.44031	793
705.42456	234
706.43976	166
707.49097	159
866.47662	1000
866.51697	138

NAME: alpha-Solanine
PRECURSORMZ: 912.496223504
PRECURSORTYPE: [M+FA-H]-
INSTRUMENTTYPE: LC-ESI-QTOF
SMILES: CC1C2CCC(C)CN2C2CC3C4CC=C5CC(CCC5(C)C4CCC3(C)C12)OC1OC(CO)C(O)C(OC2OC(CO)C(O)C(O)C2O)C1OC1OC(C)C(O)C(O)C1O
INCHIKEY: ZGVSETXHNHBTRK-UHFFFAOYNA-N
Ontology: Steroidal saponins
COLLISIONENERGY: 30
FORMULA: C45H73NO15
RETENTIONTIME: 4.9416
IONMODE: Negative
Comment: registered in RIKEN PlaSMA
Num Peaks: 17
101.02388	6
161.04124	5
161.04956	6
163.05849	5
179.05702	7
464.63721	5
704.43738	475
705.44232	221
706.44849	29
720.4281	23
721.4267	6
866.49091	1000
866.55621	9
867.49774	503
868.49689	163
869.48016	11
870.48456	7

NAME: Ginsenoside F3
PRECURSORMZ: 769.4743658
PRECURSORTYPE: [M-H]-
INSTRUMENTTYPE: LC-ESI-QTOF
SMILES: CC(C)=CCCC(C)(OC1OC(COC2OCC(O)C(O)C2O)C(O)C(O)C1O)C1CCC2(C)C1C(O)CC1C3(C)CCC(O)C(C)(C)C3C(O)CC21C
INCHIKEY: HJRVLGWTJSLQIG-UHFFFAOYNA-N
Ontology: Triterpenoids
COLLISIONENERGY: 30
FORMULA: C41H70O13
RETENTIONTIME: 6.1149
IONMODE: Negative
Comment: registered in RIKEN PlaSMA
Num Peaks: 5
101.02282	441
131.03439	426
149.04457	1000
336.04242	324
563.36084	250

NAME: Ginsenoside F3
PRECURSORMZ: 815.479845104
PRECURSORTYPE: [M+FA-H]-
INSTRUMENTTYPE: LC-ESI-QTOF
SMILES: CC(C)=CCCC(C)(OC1OC(COC2OCC(O)C(O)C2O)C(O)C(O)C1O)C1CCC2(C)C1C(O)CC1C3(C)CCC(O)C(C)(C)C3C(O)CC21C
INCHIKEY: HJRVLGWTJSLQIG-UHFFFAOYNA-N
Ontology: Triterpenoids
COLLISIONENERGY: 30
FORMULA: C41H70O13
RETENTIONTIME: 6.1149
IONMODE: Negative
Comment: registered in RIKEN PlaSMA
Num Peaks: 38
71.01302	29
89.02415	134
90.02752	6
97.02735	5
101.02335	111
102.02795	11
113.02278	36
119.03236	20
125.02627	30
126.02747	6
131.03445	173
132.03929	7
143.03706	7
149.02542	6
149.04561	1000
150.04567	16
150.05156	25
151.0504	8
161.04558	40
191.05688	135
221.06538	101
222.06956	10
233.06642	25
251.08055	51
281.0824	12
281.09387	15
293.0889	326
294.09439	32
295.08554	8
311.09915	70
769.47833	463
769.52887	9
770.47693	212
770.52716	16
771.48291	57
772.48486	7
772.50433	6
815.47839	7

NAME: alpha-Solanine
PRECURSORMZ: 866.4907442
PRECURSORTYPE: [M-H]-
INSTRUMENTTYPE: LC-ESI-QTOF
SMILES: CC1C2CCC(C)CN2C2CC3C4CC=C5CC(CCC5(C)C4CCC3(C)C12)OC1OC(CO)C(O)C(OC2OC(CO)C(O)C(O)C2O)C1OC1OC(C)C(O)C(O)C1O
INCHIKEY: ZGVSETXHNHBTRK-UHFFFAOYNA-N
Ontology: Steroidal saponins
COLLISIONENERGY: 50
FORMULA: C45H73NO15
RETENTIONTIME: 4.9416
IONMODE: Negative
Comment: registered in RIKEN PlaSMA
Num Peaks: 8
67.41281	218
71.01332	218
72.99302	282
101.01903	1000
113.02636	487
119.03383	321
163.05896	385
205.06702	244

NAME: alpha-Solanine
PRECURSORMZ: 912.496223504
PRECURSORTYPE: [M+FA-H]-
INSTRUMENTTYPE: LC-ESI-QTOF
SMILES: CC1C2CCC(C)CN2C2CC3C4CC=C5CC(CCC5(C)C4CCC3(C)C12)OC1OC(CO)C(O)C(OC2OC(CO)C(O)C(O)C2O)C1OC1OC(C)C(O)C(O)C1O
INCHIKEY: ZGVSETXHNHBTRK-UHFFFAOYNA-N
Ontology: Steroidal saponins
COLLISIONENERGY: 50
FORMULA: C45H73NO15
RETENTIONTIME: 4.9416
IONMODE: Negative
Comment: registered in RIKEN PlaSMA
Num Peaks: 116
59.012	231
60.01339	5
64.50504	6
70.6711	6
71.01328	170
72.01569	22
73.02748	16
83.00921	10
83.01569	21
85.02917	46
86.03421	17
87.00893	19
87.01747	5
87.04351	8
88.01773	5
89.02392	758
89.77232	5
90.02633	53
91.00514	5
91.03027	9
91.83263	5
95.00803	12
97.02607	10
97.03169	9
99.00455	11
99.00895	9
101.02335	693
102.02601	36
103.03917	167
104.04627	6
107.03519	13
112.01736	5
113.02287	420
114.02658	21
114.03553	15
115.03703	25
115.04331	12
116.0274	5
119.03361	721
119.68283	6
120.03528	32
125.02144	30
125.02895	20
126.02594	5
129.01682	12
130.43048	12
131.02661	18
131.03612	137
132.0359	15
132.0444	8
133.04683	6
133.05194	6
143.02022	13
143.03363	479
144.04025	30
145.03639	7
145.04836	72
146.05435	8
148.36601	6
149.04349	56
150.04597	13
155.03694	32
159.03181	26
160.02626	5
161.04361	256
162.05379	5
163.05972	336
164.06512	10
179.05554	66
180.0612	6
188.41124	6
205.06979	329
206.0694	31
206.08546	14
232.24582	5
247.06509	5
247.07634	15
247.08569	28
265.0921	5
289.09122	25
359.59222	15
369.15475	6
392.03467	5
412.98029	7
413.56061	6
435.50626	8
482.84296	7
492.34854	45
493.34317	12
493.39401	6
494.35449	5
558.37842	143
558.40228	33
558.42328	12
559.37756	93
559.49164	7
560.37286	11
560.40118	5
561.65527	5
566.19116	5
638.1861	7
703.28955	7
704.43781	1000
705.44049	444
706.41827	28
706.44513	79
706.47955	12
707.43713	15
720.41711	12
720.43811	15
721.43756	6
722.43024	5
866.51093	12
867.47607	15
867.50037	7
893.02307	7

NAME: Ginsenoside F3
PRECURSORMZ: 769.4743658
PRECURSORTYPE: [M-H]-
INSTRUMENTTYPE: LC-ESI-QTOF
SMILES: CC(C)=CCCC(C)(OC1OC(COC2OCC(O)C(O)C2O)C(O)C(O)C1O)C1CCC2(C)C1C(O)CC1C3(C)CCC(O)C(C)(C)C3C(O)CC21C
INCHIKEY: HJRVLGWTJSLQIG-UHFFFAOYNA-N
Ontology: Triterpenoids
COLLISIONENERGY: 50
FORMULA: C41H70O13
RETENTIONTIME: 6.1149
IONMODE: Negative
Comment: registered in RIKEN PlaSMA
Num Peaks: 3
71.01165	632
89.02338	474
131.03362	1000

NAME: Ginsenoside F3
PRECURSORMZ: 815.479845104
PRECURSORTYPE: [M+FA-H]-
INSTRUMENTTYPE: LC-ESI-QTOF
SMILES: CC(C)=CCCC(C)(OC1OC(COC2OCC(O)C(O)C2O)C(O)C(O)C1O)C1CCC2(C)C1C(O)CC1C3(C)CCC(O)C(C)(C)C3C(O)CC21C
INCHIKEY: HJRVLGWTJSLQIG-UHFFFAOYNA-N
Ontology: Triterpenoids
COLLISIONENERGY: 50
FORMULA: C41H70O13
RETENTIONTIME: 6.1149
IONMODE: Negative
Comment: registered in RIKEN PlaSMA
Num Peaks: 52
59.0139	117
60.01892	9
61.01671	6
71.01268	159
72.01553	11
73.03186	8
77.02472	12
81.02946	16
83.01552	11
85.02908	37
87.00636	14
87.01315	6
89.02424	1000
90.02723	52
97.02718	19
97.03306	8
99.00861	17
101.02369	413
102.02613	27
111.00822	31
111.01608	11
113.02456	195
114.02618	16
115.03829	7
119.03436	95
125.02408	110
131.03423	641
132.0329	15
132.04028	13
139.0392	10
143.02972	11
143.03725	16
143.71992	8
144.03699	6
149.04469	663
150.04669	63
151.04773	9
159.03999	7
191.05565	378
192.05627	34
193.05524	12
233.06441	18
234.06914	8
293.08368	7
293.09158	17
391.28534	19
457.38123	8
459.33743	8
475.37909	90
475.42664	10
476.3782	11
476.39499	10

NAME: Saikosaponin C
PRECURSORMZ: 925.51662464783
PRECURSORTYPE: [M-H]-
INSTRUMENTTYPE: LC-ESI-QTOF
SMILES: CC1OC(OC2C(COC3OC(CO)C(O)C(O)C3O)OC(OC3CCC4(C)C(CCC5(C)C4C=CC4=C6CC(C)(C)CCC6(CO)C(O)CC54C)C3(C)C)C(O)C2O)C(O)C(O)C1O
INCHIKEY: PYJMYPPFWASOJX-UHFFFAOYNA-N
Ontology: Triterpene saponins
COLLISIONENERGY: 10
FORMULA: C48H78O17
RETENTIONTIME: 6.299417
IONMODE: Negative
Comment: registered in RIKEN PlaSMA
Num Peaks: 4
214.82805	296
478.35751	370
925.47601	704
925.54065	1000

NAME: Saikosaponin C
PRECURSORMZ: 971.52210395183
PRECURSORTYPE: [M+FA-H]-
INSTRUMENTTYPE: LC-ESI-QTOF
SMILES: CC1OC(OC2C(COC3OC(CO)C(O)C(O)C3O)OC(OC3CCC4(C)C(CCC5(C)C4C=CC4=C6CC(C)(C)CCC6(CO)C(O)CC54C)C3(C)C)C(O)C2O)C(O)C(O)C1O
INCHIKEY: PYJMYPPFWASOJX-UHFFFAOYNA-N
Ontology: Triterpene saponins
COLLISIONENERGY: 10
FORMULA: C48H78O17
RETENTIONTIME: 6.299417
IONMODE: Negative
Comment: registered in RIKEN PlaSMA
Num Peaks: 20
89.02345	7
143.03745	7
161.04515	18
179.05006	8
235.07748	7
305.08682	5
617.40015	13
617.41919	8
763.45996	21
764.47156	10
779.45612	60
780.47302	23
781.46094	6
925.51556	1000
925.58386	8
926.51819	508
927.48773	22
927.52899	115
928.52673	37
971.52209	656

NAME: Ginsenoside F1
PRECURSORMZ: 637.43210714783
PRECURSORTYPE: [M-H]-
INSTRUMENTTYPE: LC-ESI-QTOF
SMILES: CC(C)=CCCC(C)(OC1OC(CO)C(O)C(O)C1O)C1CCC2(C)C1C(O)CC1C3(C)CCC(O)C(C)(C)C3C(O)CC21C
INCHIKEY: XNGXWSFSJIQMNC-UHFFFAOYNA-N
Ontology: Triterpene saponins
COLLISIONENERGY: 10
FORMULA: C36H62O9
RETENTIONTIME: 6.594883
IONMODE: Negative
Comment: registered in RIKEN PlaSMA
Num Peaks: 7
85.02712	1000
101.02153	340
113.02687	340
161.04581	774
476.37155	340
637.43042	736
637.44897	321

NAME: Ginsenoside F1
PRECURSORMZ: 683.43758645183
PRECURSORTYPE: [M+FA-H]-
INSTRUMENTTYPE: LC-ESI-QTOF
SMILES: CC(C)=CCCC(C)(OC1OC(CO)C(O)C(O)C1O)C1CCC2(C)C1C(O)CC1C3(C)CCC(O)C(C)(C)C3C(O)CC21C
INCHIKEY: XNGXWSFSJIQMNC-UHFFFAOYNA-N
Ontology: Triterpene saponins
COLLISIONENERGY: 10
FORMULA: C36H62O9
RETENTIONTIME: 6.594883
IONMODE: Negative
Comment: registered in RIKEN PlaSMA
Num Peaks: 16
71.01289	8
89.02284	15
101.02327	14
113.02368	16
119.03486	16
143.03326	16
159.02905	7
161.04576	65
162.05263	7
179.0518	18
475.37732	58
476.38586	20
637.43158	238
638.43658	90
639.4342	16
683.43835	1000

NAME: Saikosaponin D
PRECURSORMZ: 779.45871584783
PRECURSORTYPE: [M-H]-
INSTRUMENTTYPE: LC-ESI-QTOF
SMILES: CC1OC(OC2CCC3(C)C(CCC4(C)C3C=CC35OCC6(CCC(C)(C)CC36)C(O)CC45C)C2(C)CO)C(O)C(OC2OC(CO)C(O)C(O)C2O)C1O
INCHIKEY: KYWSCMDFVARMPN-UHFFFAOYNA-N
Ontology: Triterpene saponins
COLLISIONENERGY: 10
FORMULA: C42H68O13
RETENTIONTIME: 8.267016
IONMODE: Negative
Comment: registered in RIKEN PlaSMA
Num Peaks: 16
80.65192	18
90.02266	18
99.04234	43
101.02101	31
109.0281	15
114.02655	17
145.05138	33
161.04515	46
161.05283	15
480.65204	30
617.39398	33
617.41522	86
617.56689	15
618.42249	17
619.40887	47
779.45966	1000

NAME: Saikosaponin D
PRECURSORMZ: 825.46419515183
PRECURSORTYPE: [M+FA-H]-
INSTRUMENTTYPE: LC-ESI-QTOF
SMILES: CC1OC(OC2CCC3(C)C(CCC4(C)C3C=CC35OCC6(CCC(C)(C)CC36)C(O)CC45C)C2(C)CO)C(O)C(OC2OC(CO)C(O)C(O)C2O)C1O
INCHIKEY: KYWSCMDFVARMPN-UHFFFAOYNA-N
Ontology: Triterpene saponins
COLLISIONENERGY: 10
FORMULA: C42H68O13
RETENTIONTIME: 8.267016
IONMODE: Negative
Comment: registered in RIKEN PlaSMA
Num Peaks: 17
101.02463	10
145.04869	7
161.04329	7
161.05324	6
617.40771	124
618.40717	47
618.43921	5
619.4024	7
619.42853	16
779.46014	1000
779.51935	6
780.46326	461
781.46539	106
782.46082	11
782.48779	7
783.47644	5
825.4657	332

NAME: Saikosaponin C
PRECURSORMZ: 925.51662464783
PRECURSORTYPE: [M-H]-
INSTRUMENTTYPE: LC-ESI-QTOF
SMILES: CC1OC(OC2C(COC3OC(CO)C(O)C(O)C3O)OC(OC3CCC4(C)C(CCC5(C)C4C=CC4=C6CC(C)(C)CCC6(CO)C(O)CC54C)C3(C)C)C(O)C2O)C(O)C(O)C1O
INCHIKEY: PYJMYPPFWASOJX-UHFFFAOYNA-N
Ontology: Triterpene saponins
COLLISIONENERGY: 10
FORMULA: C48H78O17
RETENTIONTIME: 6.299417
IONMODE: Negative
Comment: registered in RIKEN PlaSMA
Num Peaks: 3
925.48114	310
925.51123	1000
925.54254	524

NAME: Saikosaponin C
PRECURSORMZ: 971.52210395183
PRECURSORTYPE: [M+FA-H]-
INSTRUMENTTYPE: LC-ESI-QTOF
SMILES: CC1OC(OC2C(COC3OC(CO)C(O)C(O)C3O)OC(OC3CCC4(C)C(CCC5(C)C4C=CC4=C6CC(C)(C)CCC6(CO)C(O)CC54C)C3(C)C)C(O)C2O)C(O)C(O)C1O
INCHIKEY: PYJMYPPFWASOJX-UHFFFAOYNA-N
Ontology: Triterpene saponins
COLLISIONENERGY: 10
FORMULA: C48H78O17
RETENTIONTIME: 6.299417
IONMODE: Negative
Comment: registered in RIKEN PlaSMA
Num Peaks: 4
925.51666	71
926.53302	19
927.52032	7
971.52075	1000

NAME: Ginsenoside F1
PRECURSORMZ: 683.43758645183
PRECURSORTYPE: [M+FA-H]-
INSTRUMENTTYPE: LC-ESI-QTOF
SMILES: CC(C)=CCCC(C)(OC1OC(CO)C(O)C(O)C1O)C1CCC2(C)C1C(O)CC1C3(C)CCC(O)C(C)(C)C3C(O)CC21C
INCHIKEY: XNGXWSFSJIQMNC-UHFFFAOYNA-N
Ontology: Triterpene saponins
COLLISIONENERGY: 10
FORMULA: C36H62O9
RETENTIONTIME: 6.594883
IONMODE: Negative
Comment: registered in RIKEN PlaSMA
Num Peaks: 3
637.43256	50
638.43567	20
683.43823	1000

NAME: Saikosaponin D
PRECURSORMZ: 779.45871584783
PRECURSORTYPE: [M-H]-
INSTRUMENTTYPE: LC-ESI-QTOF
SMILES: CC1OC(OC2CCC3(C)C(CCC4(C)C3C=CC35OCC6(CCC(C)(C)CC36)C(O)CC45C)C2(C)CO)C(O)C(OC2OC(CO)C(O)C(O)C2O)C1O
INCHIKEY: KYWSCMDFVARMPN-UHFFFAOYNA-N
Ontology: Triterpene saponins
COLLISIONENERGY: 10
FORMULA: C42H68O13
RETENTIONTIME: 8.267016
IONMODE: Negative
Comment: registered in RIKEN PlaSMA
Num Peaks: 7
120.75778	10
152.66734	10
169.42252	14
492.96439	12
505.74594	18
779.46057	1000
779.57458	16

NAME: Saikosaponin D
PRECURSORMZ: 825.46419515183
PRECURSORTYPE: [M+FA-H]-
INSTRUMENTTYPE: LC-ESI-QTOF
SMILES: CC1OC(OC2CCC3(C)C(CCC4(C)C3C=CC35OCC6(CCC(C)(C)CC36)C(O)CC45C)C2(C)CO)C(O)C(OC2OC(CO)C(O)C(O)C2O)C1O
INCHIKEY: KYWSCMDFVARMPN-UHFFFAOYNA-N
Ontology: Triterpene saponins
COLLISIONENERGY: 10
FORMULA: C42H68O13
RETENTIONTIME: 8.267016
IONMODE: Negative
Comment: registered in RIKEN PlaSMA
Num Peaks: 6
779.45813	420
780.46185	190
781.44574	22
781.47205	39
782.47583	10
825.46356	1000

NAME: Saikosaponin C
PRECURSORMZ: 925.51662464783
PRECURSORTYPE: [M-H]-
INSTRUMENTTYPE: LC-ESI-QTOF
SMILES: CC1OC(OC2C(COC3OC(CO)C(O)C(O)C3O)OC(OC3CCC4(C)C(CCC5(C)C4C=CC4=C6CC(C)(C)CCC6(CO)C(O)CC54C)C3(C)C)C(O)C2O)C(O)C(O)C1O
INCHIKEY: PYJMYPPFWASOJX-UHFFFAOYNA-N
Ontology: Triterpene saponins
COLLISIONENERGY: 30
FORMULA: C48H78O17
RETENTIONTIME: 6.299417
IONMODE: Negative
Comment: registered in RIKEN PlaSMA
Num Peaks: 3
305.08972	189
763.47522	119
925.51978	1000

NAME: Ginsenoside F1
PRECURSORMZ: 637.43210714783
PRECURSORTYPE: [M-H]-
INSTRUMENTTYPE: LC-ESI-QTOF
SMILES: CC(C)=CCCC(C)(OC1OC(CO)C(O)C(O)C1O)C1CCC2(C)C1C(O)CC1C3(C)CCC(O)C(C)(C)C3C(O)CC21C
INCHIKEY: XNGXWSFSJIQMNC-UHFFFAOYNA-N
Ontology: Triterpene saponins
COLLISIONENERGY: 30
FORMULA: C36H62O9
RETENTIONTIME: 6.594883
IONMODE: Negative
Comment: registered in RIKEN PlaSMA
Num Peaks: 3
71.01151	667
89.02805	1000
101.02368	833

NAME: Ginsenoside F1
PRECURSORMZ: 683.43758645183
PRECURSORTYPE: [M+FA-H]-
INSTRUMENTTYPE: LC-ESI-QTOF
SMILES: CC(C)=CCCC(C)(OC1OC(CO)C(O)C(O)C1O)C1CCC2(C)C1C(O)CC1C3(C)CCC(O)C(C)(C)C3C(O)CC21C
INCHIKEY: XNGXWSFSJIQMNC-UHFFFAOYNA-N
Ontology: Triterpene saponins
COLLISIONENERGY: 30
FORMULA: C36H62O9
RETENTIONTIME: 6.594883
IONMODE: Negative
Comment: registered in RIKEN PlaSMA
Num Peaks: 76
55.01609	9
55.02151	8
59.01505	70
70.14953	8
71.01229	139
73.02701	73
75.00725	12
85.02699	53
85.75299	10
87.0075	27
87.76255	7
88.34504	6
88.95529	10
89.0239	458
89.06112	27
90.02728	17
91.53462	6
97.03021	22
99.00872	48
99.01699	9
101.02354	562
102.02596	19
102.826	8
103.08768	6
107.03345	14
113.02259	348
113.0304	68
113.5217	6
114.02593	8
115.0326	22
115.03706	11
119.0331	275
120.03221	13
125.02071	18
129.01277	15
129.02432	10
131.02489	12
131.03491	43
132.03716	10
143.03645	103
143.19827	12
145.03008	6
149.04254	55
150.04585	6
150.0537	17
159.02794	91
159.03978	27
160.02924	7
160.04607	11
161.04451	1000
162.04887	60
179.0562	244
180.05727	7
181.05948	9
242.23808	6
248.87288	7
267.36801	6
286.96573	9
428.58969	7
457.36807	7
474.36908	7
475.34344	13
475.37811	835
476.37946	272
476.41766	8
477.35037	6
477.38461	122
478.38498	7
637.43237	257
638.4209	44
638.44012	69
638.47583	6
639.44281	41
639.47021	13
683.4201	28
683.45129	27

NAME: Saikosaponin D
PRECURSORMZ: 779.45871584783
PRECURSORTYPE: [M-H]-
INSTRUMENTTYPE: LC-ESI-QTOF
SMILES: CC1OC(OC2CCC3(C)C(CCC4(C)C3C=CC35OCC6(CCC(C)(C)CC36)C(O)CC45C)C2(C)CO)C(O)C(OC2OC(CO)C(O)C(O)C2O)C1O
INCHIKEY: KYWSCMDFVARMPN-UHFFFAOYNA-N
Ontology: Triterpene saponins
COLLISIONENERGY: 30
FORMULA: C42H68O13
RETENTIONTIME: 8.267016
IONMODE: Negative
Comment: registered in RIKEN PlaSMA
Num Peaks: 21
71.01269	21
73.03163	14
99.00703	17
101.01857	14
101.02483	20
113.01923	71
125.02533	29
145.0463	17
159.02827	24
161.04808	51
162.04787	15
186.12329	21
326.84595	35
337.50391	14
617.38763	312
617.40674	407
618.38556	15
618.41968	163
618.44885	20
619.41846	60
779.45752	1000

NAME: Saikosaponin D
PRECURSORMZ: 825.46419515183
PRECURSORTYPE: [M+FA-H]-
INSTRUMENTTYPE: LC-ESI-QTOF
SMILES: CC1OC(OC2CCC3(C)C(CCC4(C)C3C=CC35OCC6(CCC(C)(C)CC36)C(O)CC45C)C2(C)CO)C(O)C(OC2OC(CO)C(O)C(O)C2O)C1O
INCHIKEY: KYWSCMDFVARMPN-UHFFFAOYNA-N
Ontology: Triterpene saponins
COLLISIONENERGY: 30
FORMULA: C42H68O13
RETENTIONTIME: 8.267016
IONMODE: Negative
Comment: registered in RIKEN PlaSMA
Num Peaks: 11
101.02084	7
161.04494	7
617.40375	112
618.41077	44
779.45801	1000
779.52924	9
780.46124	451
781.46594	135
782.46027	6
782.48389	11
825.46332	49

NAME: Saikosaponin C
PRECURSORMZ: 925.51662464783
PRECURSORTYPE: [M-H]-
INSTRUMENTTYPE: LC-ESI-QTOF
SMILES: CC1OC(OC2C(COC3OC(CO)C(O)C(O)C3O)OC(OC3CCC4(C)C(CCC5(C)C4C=CC4=C6CC(C)(C)CCC6(CO)C(O)CC54C)C3(C)C)C(O)C2O)C(O)C(O)C1O
INCHIKEY: PYJMYPPFWASOJX-UHFFFAOYNA-N
Ontology: Triterpene saponins
COLLISIONENERGY: 50
FORMULA: C48H78O17
RETENTIONTIME: 6.299417
IONMODE: Negative
Comment: registered in RIKEN PlaSMA
Num Peaks: 5
59.01072	414
95.01197	397
119.03171	1000
145.04872	328
149.05074	379

NAME: Ginsenoside F1
PRECURSORMZ: 637.43210714783
PRECURSORTYPE: [M-H]-
INSTRUMENTTYPE: LC-ESI-QTOF
SMILES: CC(C)=CCCC(C)(OC1OC(CO)C(O)C(O)C1O)C1CCC2(C)C1C(O)CC1C3(C)CCC(O)C(C)(C)C3C(O)CC21C
INCHIKEY: XNGXWSFSJIQMNC-UHFFFAOYNA-N
Ontology: Triterpene saponins
COLLISIONENERGY: 50
FORMULA: C36H62O9
RETENTIONTIME: 6.594883
IONMODE: Negative
Comment: registered in RIKEN PlaSMA
Num Peaks: 4
89.02415	750
101.02425	1000
373.26782	714
437.34335	786

NAME: Ginsenoside F1
PRECURSORMZ: 683.43758645183
PRECURSORTYPE: [M+FA-H]-
INSTRUMENTTYPE: LC-ESI-QTOF
SMILES: CC(C)=CCCC(C)(OC1OC(CO)C(O)C(O)C1O)C1CCC2(C)C1C(O)CC1C3(C)CCC(O)C(C)(C)C3C(O)CC21C
INCHIKEY: XNGXWSFSJIQMNC-UHFFFAOYNA-N
Ontology: Triterpene saponins
COLLISIONENERGY: 50
FORMULA: C36H62O9
RETENTIONTIME: 6.594883
IONMODE: Negative
Comment: registered in RIKEN PlaSMA
Num Peaks: 59
51.02163	25
52.84116	37
59.01287	265
60.01726	24
71.01165	272
73.03185	25
74.03252	31
75.00381	48
83.01299	56
85.02844	52
85.03685	28
86.02863	24
86.03411	28
88.01195	22
89.02291	617
89.02868	126
89.08936	27
95.01241	192
97.01897	28
97.02634	35
101.02365	1000
102.02303	58
102.03144	22
113.0161	49
113.02372	303
116.92896	29
119.03192	247
120.03999	49
124.88746	32
125.09743	58
159.02997	24
161.03549	24
161.04837	24
175.4646	22
189.1618	25
237.19351	29
255.17123	32
347.2431	22
349.28073	39
358.9978	29
371.21329	39
373.29285	35
387.27118	27
389.26868	37
389.30954	22
391.24692	25
391.26572	65
391.28467	423
391.31696	35
393.28171	65
457.36545	251
458.38297	58
459.33667	25
459.35321	28
460.33923	62
475.37973	63
476.37054	41
477.39215	22
478.38599	29

NAME: Saikosaponin D
PRECURSORMZ: 779.45871584783
PRECURSORTYPE: [M-H]-
INSTRUMENTTYPE: LC-ESI-QTOF
SMILES: CC1OC(OC2CCC3(C)C(CCC4(C)C3C=CC35OCC6(CCC(C)(C)CC36)C(O)CC45C)C2(C)CO)C(O)C(OC2OC(CO)C(O)C(O)C2O)C1O
INCHIKEY: KYWSCMDFVARMPN-UHFFFAOYNA-N
Ontology: Triterpene saponins
COLLISIONENERGY: 50
FORMULA: C42H68O13
RETENTIONTIME: 8.267016
IONMODE: Negative
Comment: registered in RIKEN PlaSMA
Num Peaks: 32
59.01355	223
71.00648	81
71.01152	289
85.03045	198
89.02349	416
99.01086	162
101.0244	1000
103.03964	81
113.0238	254
113.0309	178
119.0302	91
127.0423	81
145.04544	264
145.0527	376
145.06013	122
159.02525	86
161.04494	102
163.06183	96
169.04881	91
309.26901	96
437.29535	81
471.34769	132
472.34976	137
473.35605	81
541.37225	203
569.37158	96
617.38293	91
617.40851	198
618.37195	102
618.40863	91
619.41266	310
620.42566	152

NAME: Saikosaponin C
PRECURSORMZ: 925.51662464783
PRECURSORTYPE: [M-H]-
INSTRUMENTTYPE: LC-ESI-QTOF
SMILES: CC1OC(OC2C(COC3OC(CO)C(O)C(O)C3O)OC(OC3CCC4(C)C(CCC5(C)C4C=CC4=C6CC(C)(C)CCC6(CO)C(O)CC54C)C3(C)C)C(O)C2O)C(O)C(O)C1O
INCHIKEY: PYJMYPPFWASOJX-UHFFFAOYNA-N
Ontology: Triterpene saponins
COLLISIONENERGY: 10
FORMULA: C48H78O17
RETENTIONTIME: 6.299417
IONMODE: Negative
Comment: registered in RIKEN PlaSMA
Num Peaks: 3
423.57953	333
925.51025	1000
925.53979	261

NAME: Saikosaponin C
PRECURSORMZ: 971.52210395183
PRECURSORTYPE: [M+FA-H]-
INSTRUMENTTYPE: LC-ESI-QTOF
SMILES: CC1OC(OC2C(COC3OC(CO)C(O)C(O)C3O)OC(OC3CCC4(C)C(CCC5(C)C4C=CC4=C6CC(C)(C)CCC6(CO)C(O)CC54C)C3(C)C)C(O)C2O)C(O)C(O)C1O
INCHIKEY: PYJMYPPFWASOJX-UHFFFAOYNA-N
Ontology: Triterpene saponins
COLLISIONENERGY: 10
FORMULA: C48H78O17
RETENTIONTIME: 6.299417
IONMODE: Negative
Comment: registered in RIKEN PlaSMA
Num Peaks: 20
89.02543	7
101.02511	6
119.03384	7
161.04419	16
163.05945	11
179.05356	11
617.39319	6
763.46704	15
779.45294	42
780.47083	21
781.48431	5
925.5177	1000
925.60522	10
926.52069	581
927.52142	157
928.48236	5
928.5202	31
928.55389	17
929.5199	10
971.52362	579

NAME: Ginsenoside F1
PRECURSORMZ: 683.43758645183
PRECURSORTYPE: [M+FA-H]-
INSTRUMENTTYPE: LC-ESI-QTOF
SMILES: CC(C)=CCCC(C)(OC1OC(CO)C(O)C(O)C1O)C1CCC2(C)C1C(O)CC1C3(C)CCC(O)C(C)(C)C3C(O)CC21C
INCHIKEY: XNGXWSFSJIQMNC-UHFFFAOYNA-N
Ontology: Triterpene saponins
COLLISIONENERGY: 10
FORMULA: C36H62O9
RETENTIONTIME: 6.594883
IONMODE: Negative
Comment: registered in RIKEN PlaSMA
Num Peaks: 15
71.01363	7
89.02317	13
101.02451	14
113.02322	16
119.03424	9
143.03604	15
161.0448	83
162.04639	7
179.05415	29
475.37918	48
476.38403	21
637.43372	206
638.4386	80
639.44702	13
683.43756	1000

NAME: Saikosaponin D
PRECURSORMZ: 779.45871584783
PRECURSORTYPE: [M-H]-
INSTRUMENTTYPE: LC-ESI-QTOF
SMILES: CC1OC(OC2CCC3(C)C(CCC4(C)C3C=CC35OCC6(CCC(C)(C)CC36)C(O)CC45C)C2(C)CO)C(O)C(OC2OC(CO)C(O)C(O)C2O)C1O
INCHIKEY: KYWSCMDFVARMPN-UHFFFAOYNA-N
Ontology: Triterpene saponins
COLLISIONENERGY: 10
FORMULA: C42H68O13
RETENTIONTIME: 8.267016
IONMODE: Negative
Comment: registered in RIKEN PlaSMA
Num Peaks: 12
73.0296	17
304.39008	18
390.54858	26
617.37708	56
617.40118	55
617.41937	68
617.44397	15
618.3808	15
618.4184	61
619.42035	15
779.40381	31
779.45386	1000

NAME: Saikosaponin D
PRECURSORMZ: 825.46419515183
PRECURSORTYPE: [M+FA-H]-
INSTRUMENTTYPE: LC-ESI-QTOF
SMILES: CC1OC(OC2CCC3(C)C(CCC4(C)C3C=CC35OCC6(CCC(C)(C)CC36)C(O)CC45C)C2(C)CO)C(O)C(OC2OC(CO)C(O)C(O)C2O)C1O
INCHIKEY: KYWSCMDFVARMPN-UHFFFAOYNA-N
Ontology: Triterpene saponins
COLLISIONENERGY: 10
FORMULA: C42H68O13
RETENTIONTIME: 8.267016
IONMODE: Negative
Comment: registered in RIKEN PlaSMA
Num Peaks: 13
101.02294	8
113.02509	7
145.0481	5
179.05725	6
617.40338	143
618.40747	64
619.40576	14
779.45764	1000
779.51843	6
780.46106	462
781.46436	108
782.46887	17
825.46124	248

NAME: Saikosaponin C
PRECURSORMZ: 925.51662464783
PRECURSORTYPE: [M-H]-
INSTRUMENTTYPE: LC-ESI-QTOF
SMILES: CC1OC(OC2C(COC3OC(CO)C(O)C(O)C3O)OC(OC3CCC4(C)C(CCC5(C)C4C=CC4=C6CC(C)(C)CCC6(CO)C(O)CC54C)C3(C)C)C(O)C2O)C(O)C(O)C1O
INCHIKEY: PYJMYPPFWASOJX-UHFFFAOYNA-N
Ontology: Triterpene saponins
COLLISIONENERGY: 10
FORMULA: C48H78O17
RETENTIONTIME: 6.299417
IONMODE: Negative
Comment: registered in RIKEN PlaSMA
Num Peaks: 2
925.46765	588
925.52502	1000

NAME: Ginsenoside F1
PRECURSORMZ: 637.43210714783
PRECURSORTYPE: [M-H]-
INSTRUMENTTYPE: LC-ESI-QTOF
SMILES: CC(C)=CCCC(C)(OC1OC(CO)C(O)C(O)C1O)C1CCC2(C)C1C(O)CC1C3(C)CCC(O)C(C)(C)C3C(O)CC21C
INCHIKEY: XNGXWSFSJIQMNC-UHFFFAOYNA-N
Ontology: Triterpene saponins
COLLISIONENERGY: 10
FORMULA: C36H62O9
RETENTIONTIME: 6.594883
IONMODE: Negative
Comment: registered in RIKEN PlaSMA
Num Peaks: 4
99.04411	107
279.89752	160
637.42548	133
637.45557	1000

NAME: Ginsenoside F1
PRECURSORMZ: 683.43758645183
PRECURSORTYPE: [M+FA-H]-
INSTRUMENTTYPE: LC-ESI-QTOF
SMILES: CC(C)=CCCC(C)(OC1OC(CO)C(O)C(O)C1O)C1CCC2(C)C1C(O)CC1C3(C)CCC(O)C(C)(C)C3C(O)CC21C
INCHIKEY: XNGXWSFSJIQMNC-UHFFFAOYNA-N
Ontology: Triterpene saponins
COLLISIONENERGY: 10
FORMULA: C36H62O9
RETENTIONTIME: 6.594883
IONMODE: Negative
Comment: registered in RIKEN PlaSMA
Num Peaks: 4
637.43384	54
638.43866	18
639.43213	7
683.43805	1000

NAME: Saikosaponin D
PRECURSORMZ: 779.45871584783
PRECURSORTYPE: [M-H]-
INSTRUMENTTYPE: LC-ESI-QTOF
SMILES: CC1OC(OC2CCC3(C)C(CCC4(C)C3C=CC35OCC6(CCC(C)(C)CC36)C(O)CC45C)C2(C)CO)C(O)C(OC2OC(CO)C(O)C(O)C2O)C1O
INCHIKEY: KYWSCMDFVARMPN-UHFFFAOYNA-N
Ontology: Triterpene saponins
COLLISIONENERGY: 10
FORMULA: C42H68O13
RETENTIONTIME: 8.267016
IONMODE: Negative
Comment: registered in RIKEN PlaSMA
Num Peaks: 3
170.27762	19
385.57083	25
779.45551	1000

NAME: Saikosaponin C
PRECURSORMZ: 925.51662464783
PRECURSORTYPE: [M-H]-
INSTRUMENTTYPE: LC-ESI-QTOF
SMILES: CC1OC(OC2C(COC3OC(CO)C(O)C(O)C3O)OC(OC3CCC4(C)C(CCC5(C)C4C=CC4=C6CC(C)(C)CCC6(CO)C(O)CC54C)C3(C)C)C(O)C2O)C(O)C(O)C1O
INCHIKEY: PYJMYPPFWASOJX-UHFFFAOYNA-N
Ontology: Triterpene saponins
COLLISIONENERGY: 30
FORMULA: C48H78O17
RETENTIONTIME: 6.299417
IONMODE: Negative
Comment: registered in RIKEN PlaSMA
Num Peaks: 5
784.66492	451
925.48553	1000
925.52325	431
925.547	314
925.58417	314

NAME: Saikosaponin D
PRECURSORMZ: 779.45871584783
PRECURSORTYPE: [M-H]-
INSTRUMENTTYPE: LC-ESI-QTOF
SMILES: CC1OC(OC2CCC3(C)C(CCC4(C)C3C=CC35OCC6(CCC(C)(C)CC36)C(O)CC45C)C2(C)CO)C(O)C(OC2OC(CO)C(O)C(O)C2O)C1O
INCHIKEY: KYWSCMDFVARMPN-UHFFFAOYNA-N
Ontology: Triterpene saponins
COLLISIONENERGY: 30
FORMULA: C42H68O13
RETENTIONTIME: 8.267016
IONMODE: Negative
Comment: registered in RIKEN PlaSMA
Num Peaks: 25
71.00479	29
71.0099	16
73.02727	18
85.03439	15
113.02509	59
127.03831	18
143.03322	18
145.05017	16
146.04874	16
159.02667	20
161.04669	68
161.06248	16
179.0488	18
229.07451	21
471.35135	17
541.3421	17
544.0296	20
617.39191	154
617.40948	124
617.43066	112
618.39111	62
618.4118	160
619.40906	16
779.45819	1000
779.52734	21

NAME: Saikosaponin D
PRECURSORMZ: 825.46419515183
PRECURSORTYPE: [M+FA-H]-
INSTRUMENTTYPE: LC-ESI-QTOF
SMILES: CC1OC(OC2CCC3(C)C(CCC4(C)C3C=CC35OCC6(CCC(C)(C)CC36)C(O)CC45C)C2(C)CO)C(O)C(OC2OC(CO)C(O)C(O)C2O)C1O
INCHIKEY: KYWSCMDFVARMPN-UHFFFAOYNA-N
Ontology: Triterpene saponins
COLLISIONENERGY: 30
FORMULA: C42H68O13
RETENTIONTIME: 8.267016
IONMODE: Negative
Comment: registered in RIKEN PlaSMA
Num Peaks: 10
101.02329	6
113.02543	6
161.0446	9
617.40454	112
618.40955	40
619.40985	7
779.45605	1000
780.46112	456
781.46326	127
782.45923	19

NAME: Saikosaponin C
PRECURSORMZ: 925.51662464783
PRECURSORTYPE: [M-H]-
INSTRUMENTTYPE: LC-ESI-QTOF
SMILES: CC1OC(OC2C(COC3OC(CO)C(O)C(O)C3O)OC(OC3CCC4(C)C(CCC5(C)C4C=CC4=C6CC(C)(C)CCC6(CO)C(O)CC54C)C3(C)C)C(O)C2O)C(O)C(O)C1O
INCHIKEY: PYJMYPPFWASOJX-UHFFFAOYNA-N
Ontology: Triterpene saponins
COLLISIONENERGY: 50
FORMULA: C48H78O17
RETENTIONTIME: 6.299417
IONMODE: Negative
Comment: registered in RIKEN PlaSMA
Num Peaks: 8
59.01437	277
89.01785	462
100.87413	292
101.02177	1000
159.02777	262
161.04102	246
487.46643	292
617.40186	262

NAME: Ginsenoside F1
PRECURSORMZ: 637.43210714783
PRECURSORTYPE: [M-H]-
INSTRUMENTTYPE: LC-ESI-QTOF
SMILES: CC(C)=CCCC(C)(OC1OC(CO)C(O)C(O)C1O)C1CCC2(C)C1C(O)CC1C3(C)CCC(O)C(C)(C)C3C(O)CC21C
INCHIKEY: XNGXWSFSJIQMNC-UHFFFAOYNA-N
Ontology: Triterpene saponins
COLLISIONENERGY: 50
FORMULA: C36H62O9
RETENTIONTIME: 6.594883
IONMODE: Negative
Comment: registered in RIKEN PlaSMA
Num Peaks: 2
71.01556	1000
183.90741	944

NAME: Saikosaponin D
PRECURSORMZ: 779.45871584783
PRECURSORTYPE: [M-H]-
INSTRUMENTTYPE: LC-ESI-QTOF
SMILES: CC1OC(OC2CCC3(C)C(CCC4(C)C3C=CC35OCC6(CCC(C)(C)CC36)C(O)CC45C)C2(C)CO)C(O)C(OC2OC(CO)C(O)C(O)C2O)C1O
INCHIKEY: KYWSCMDFVARMPN-UHFFFAOYNA-N
Ontology: Triterpene saponins
COLLISIONENERGY: 50
FORMULA: C42H68O13
RETENTIONTIME: 8.267016
IONMODE: Negative
Comment: registered in RIKEN PlaSMA
Num Peaks: 25
59.01383	171
71.01042	198
73.0293	293
85.02847	72
87.0413	117
89.02477	108
95.0176	104
99.04111	171
101.02275	1000
113.01966	108
113.02631	108
115.04305	95
145.05269	374
146.05295	131
147.05815	81
159.02667	81
161.04327	162
307.24097	81
439.30984	77
472.34592	90
513.34729	95
541.36548	86
617.39398	185
617.43207	252
618.40369	72

NAME: Saikosaponin D
PRECURSORMZ: 825.46419515183
PRECURSORTYPE: [M+FA-H]-
INSTRUMENTTYPE: LC-ESI-QTOF
SMILES: CC1OC(OC2CCC3(C)C(CCC4(C)C3C=CC35OCC6(CCC(C)(C)CC36)C(O)CC45C)C2(C)CO)C(O)C(OC2OC(CO)C(O)C(O)C2O)C1O
INCHIKEY: KYWSCMDFVARMPN-UHFFFAOYNA-N
Ontology: Triterpene saponins
COLLISIONENERGY: 50
FORMULA: C42H68O13
RETENTIONTIME: 8.267016
IONMODE: Negative
Comment: registered in RIKEN PlaSMA
Num Peaks: 100
59.01278	127
69.03479	9
71.01273	141
72.01564	5
72.99599	5
73.02934	33
81.03427	22
83.01253	30
83.04695	15
84.02041	6
85.01805	15
85.02852	215
86.02962	16
87.00612	6
87.01353	6
89.02247	147
90.02959	9
95.0121	10
97.03035	23
99.00761	51
99.04092	36
99.05036	12
100.04381	11
101.02354	644
102.02938	6
103.03809	42
103.53083	6
109.02844	49
112.04857	24
113.02293	193
114.02593	13
115.03417	8
115.04169	32
119.02677	30
119.03609	60
123.98518	6
125.02647	25
127.03938	30
128.04086	18
137.46927	7
143.03493	57
145.05009	607
146.04994	11
146.0558	21
147.0526	6
148.63008	9
159.02515	21
159.0338	15
161.04482	99
163.06232	18
165.21857	5
169.99171	6
179.06744	7
181.06017	7
197.05078	14
218.09163	5
242.79695	6
249.09917	9
293.66971	6
298.45712	6
307.06226	7
317.31656	6
335.23016	8
422.32379	6
439.31079	12
439.33649	10
439.89029	6
440.32159	12
442.00171	10
451.32175	5
469.33505	9
471.34787	32
471.35901	17
472.34897	16
473.36441	7
483.3992	5
541.34717	28
541.37286	18
542.32281	10
542.35352	25
558.39447	6
581.36859	9
602.95526	6
617.24957	8
617.4054	1000
617.89435	7
618.17035	9
618.40912	415
618.56177	6
619.38177	10
619.40924	35
619.42712	49
620.43652	5
779.43384	13
779.46051	45
780.44519	15
780.47107	24
781.45819	16
781.48242	14
782.44836	7

NAME: Saikosaponin C
PRECURSORMZ: 925.51662464783
PRECURSORTYPE: [M-H]-
INSTRUMENTTYPE: LC-ESI-QTOF
SMILES: CC1OC(OC2C(COC3OC(CO)C(O)C(O)C3O)OC(OC3CCC4(C)C(CCC5(C)C4C=CC4=C6CC(C)(C)CCC6(CO)C(O)CC54C)C3(C)C)C(O)C2O)C(O)C(O)C1O
INCHIKEY: PYJMYPPFWASOJX-UHFFFAOYNA-N
Ontology: Triterpene saponins
COLLISIONENERGY: 10
FORMULA: C48H78O17
RETENTIONTIME: 6.299417
IONMODE: Negative
Comment: registered in RIKEN PlaSMA
Num Peaks: 3
925.4942	641
925.51697	1000
925.54242	744

NAME: Saikosaponin C
PRECURSORMZ: 971.52210395183
PRECURSORTYPE: [M+FA-H]-
INSTRUMENTTYPE: LC-ESI-QTOF
SMILES: CC1OC(OC2C(COC3OC(CO)C(O)C(O)C3O)OC(OC3CCC4(C)C(CCC5(C)C4C=CC4=C6CC(C)(C)CCC6(CO)C(O)CC54C)C3(C)C)C(O)C2O)C(O)C(O)C1O
INCHIKEY: PYJMYPPFWASOJX-UHFFFAOYNA-N
Ontology: Triterpene saponins
COLLISIONENERGY: 10
FORMULA: C48H78O17
RETENTIONTIME: 6.299417
IONMODE: Negative
Comment: registered in RIKEN PlaSMA
Num Peaks: 21
119.03258	8
143.02736	5
161.04514	15
163.06157	6
179.0596	8
617.41339	12
618.40704	6
763.46191	19
779.45129	37
779.47449	29
780.44995	10
780.47491	14
780.49329	7
781.44971	5
781.48389	9
925.51825	1000
926.52246	526
927.52435	131
928.52661	35
929.5379	6
971.52161	494

NAME: Ginsenoside F1
PRECURSORMZ: 637.43210714783
PRECURSORTYPE: [M-H]-
INSTRUMENTTYPE: LC-ESI-QTOF
SMILES: CC(C)=CCCC(C)(OC1OC(CO)C(O)C(O)C1O)C1CCC2(C)C1C(O)CC1C3(C)CCC(O)C(C)(C)C3C(O)CC21C
INCHIKEY: XNGXWSFSJIQMNC-UHFFFAOYNA-N
Ontology: Triterpene saponins
COLLISIONENERGY: 10
FORMULA: C36H62O9
RETENTIONTIME: 6.594883
IONMODE: Negative
Comment: registered in RIKEN PlaSMA
Num Peaks: 2
371.27872	310
637.43164	1000

NAME: Ginsenoside F1
PRECURSORMZ: 683.43758645183
PRECURSORTYPE: [M+FA-H]-
INSTRUMENTTYPE: LC-ESI-QTOF
SMILES: CC(C)=CCCC(C)(OC1OC(CO)C(O)C(O)C1O)C1CCC2(C)C1C(O)CC1C3(C)CCC(O)C(C)(C)C3C(O)CC21C
INCHIKEY: XNGXWSFSJIQMNC-UHFFFAOYNA-N
Ontology: Triterpene saponins
COLLISIONENERGY: 10
FORMULA: C36H62O9
RETENTIONTIME: 6.594883
IONMODE: Negative
Comment: registered in RIKEN PlaSMA
Num Peaks: 19
89.0236	11
89.02769	8
101.02502	19
113.02087	10
113.02687	13
119.03194	9
119.03816	10
131.03305	7
143.03358	6
159.02785	7
159.03464	6
161.04536	61
179.05466	26
475.37915	54
476.38339	12
637.43219	215
638.43903	94
639.4328	16
683.43878	1000

NAME: Saikosaponin D
PRECURSORMZ: 779.45871584783
PRECURSORTYPE: [M-H]-
INSTRUMENTTYPE: LC-ESI-QTOF
SMILES: CC1OC(OC2CCC3(C)C(CCC4(C)C3C=CC35OCC6(CCC(C)(C)CC36)C(O)CC45C)C2(C)CO)C(O)C(OC2OC(CO)C(O)C(O)C2O)C1O
INCHIKEY: KYWSCMDFVARMPN-UHFFFAOYNA-N
Ontology: Triterpene saponins
COLLISIONENERGY: 10
FORMULA: C42H68O13
RETENTIONTIME: 8.267016
IONMODE: Negative
Comment: registered in RIKEN PlaSMA
Num Peaks: 9
71.01532	25
145.04424	18
305.36404	25
438.57388	22
471.35208	27
617.40985	335
618.41595	35
619.41315	24
779.46167	1000

NAME: Saikosaponin D
PRECURSORMZ: 825.46419515183
PRECURSORTYPE: [M+FA-H]-
INSTRUMENTTYPE: LC-ESI-QTOF
SMILES: CC1OC(OC2CCC3(C)C(CCC4(C)C3C=CC35OCC6(CCC(C)(C)CC36)C(O)CC45C)C2(C)CO)C(O)C(OC2OC(CO)C(O)C(O)C2O)C1O
INCHIKEY: KYWSCMDFVARMPN-UHFFFAOYNA-N
Ontology: Triterpene saponins
COLLISIONENERGY: 10
FORMULA: C42H68O13
RETENTIONTIME: 8.267016
IONMODE: Negative
Comment: registered in RIKEN PlaSMA
Num Peaks: 15
101.02485	13
145.05299	10
161.04361	9
617.40784	132
618.40887	35
619.40308	11
619.42297	8
779.4588	1000
779.52734	14
780.46356	468
781.45331	69
781.47357	84
782.45337	19
782.48895	8
825.46509	303

NAME: Saikosaponin C
PRECURSORMZ: 925.51662464783
PRECURSORTYPE: [M-H]-
INSTRUMENTTYPE: LC-ESI-QTOF
SMILES: CC1OC(OC2C(COC3OC(CO)C(O)C(O)C3O)OC(OC3CCC4(C)C(CCC5(C)C4C=CC4=C6CC(C)(C)CCC6(CO)C(O)CC54C)C3(C)C)C(O)C2O)C(O)C(O)C1O
INCHIKEY: PYJMYPPFWASOJX-UHFFFAOYNA-N
Ontology: Triterpene saponins
COLLISIONENERGY: 10
FORMULA: C48H78O17
RETENTIONTIME: 6.299417
IONMODE: Negative
Comment: registered in RIKEN PlaSMA
Num Peaks: 2
924.36755	443
925.52972	1000

NAME: Ginsenoside F1
PRECURSORMZ: 637.43210714783
PRECURSORTYPE: [M-H]-
INSTRUMENTTYPE: LC-ESI-QTOF
SMILES: CC(C)=CCCC(C)(OC1OC(CO)C(O)C(O)C1O)C1CCC2(C)C1C(O)CC1C3(C)CCC(O)C(C)(C)C3C(O)CC21C
INCHIKEY: XNGXWSFSJIQMNC-UHFFFAOYNA-N
Ontology: Triterpene saponins
COLLISIONENERGY: 10
FORMULA: C36H62O9
RETENTIONTIME: 6.594883
IONMODE: Negative
Comment: registered in RIKEN PlaSMA
Num Peaks: 2
179.05197	618
637.43158	1000

NAME: Ginsenoside F1
PRECURSORMZ: 683.43758645183
PRECURSORTYPE: [M+FA-H]-
INSTRUMENTTYPE: LC-ESI-QTOF
SMILES: CC(C)=CCCC(C)(OC1OC(CO)C(O)C(O)C1O)C1CCC2(C)C1C(O)CC1C3(C)CCC(O)C(C)(C)C3C(O)CC21C
INCHIKEY: XNGXWSFSJIQMNC-UHFFFAOYNA-N
Ontology: Triterpene saponins
COLLISIONENERGY: 10
FORMULA: C36H62O9
RETENTIONTIME: 6.594883
IONMODE: Negative
Comment: registered in RIKEN PlaSMA
Num Peaks: 4
637.43347	49
638.41888	6
638.43536	12
683.43695	1000

NAME: Saikosaponin D
PRECURSORMZ: 779.45871584783
PRECURSORTYPE: [M-H]-
INSTRUMENTTYPE: LC-ESI-QTOF
SMILES: CC1OC(OC2CCC3(C)C(CCC4(C)C3C=CC35OCC6(CCC(C)(C)CC36)C(O)CC45C)C2(C)CO)C(O)C(OC2OC(CO)C(O)C(O)C2O)C1O
INCHIKEY: KYWSCMDFVARMPN-UHFFFAOYNA-N
Ontology: Triterpene saponins
COLLISIONENERGY: 10
FORMULA: C42H68O13
RETENTIONTIME: 8.267016
IONMODE: Negative
Comment: registered in RIKEN PlaSMA
Num Peaks: 4
431.28018	19
550.05414	12
779.45868	1000
779.53503	11

NAME: Saikosaponin C
PRECURSORMZ: 925.51662464783
PRECURSORTYPE: [M-H]-
INSTRUMENTTYPE: LC-ESI-QTOF
SMILES: CC1OC(OC2C(COC3OC(CO)C(O)C(O)C3O)OC(OC3CCC4(C)C(CCC5(C)C4C=CC4=C6CC(C)(C)CCC6(CO)C(O)CC54C)C3(C)C)C(O)C2O)C(O)C(O)C1O
INCHIKEY: PYJMYPPFWASOJX-UHFFFAOYNA-N
Ontology: Triterpene saponins
COLLISIONENERGY: 30
FORMULA: C48H78O17
RETENTIONTIME: 6.299417
IONMODE: Negative
Comment: registered in RIKEN PlaSMA
Num Peaks: 4
763.46082	198
779.44794	319
925.49426	648
925.53662	1000

NAME: Ginsenoside F1
PRECURSORMZ: 637.43210714783
PRECURSORTYPE: [M-H]-
INSTRUMENTTYPE: LC-ESI-QTOF
SMILES: CC(C)=CCCC(C)(OC1OC(CO)C(O)C(O)C1O)C1CCC2(C)C1C(O)CC1C3(C)CCC(O)C(C)(C)C3C(O)CC21C
INCHIKEY: XNGXWSFSJIQMNC-UHFFFAOYNA-N
Ontology: Triterpene saponins
COLLISIONENERGY: 30
FORMULA: C36H62O9
RETENTIONTIME: 6.594883
IONMODE: Negative
Comment: registered in RIKEN PlaSMA
Num Peaks: 4
159.03018	1000
161.04376	667
475.35764	704
498.36105	315

NAME: Saikosaponin D
PRECURSORMZ: 779.45871584783
PRECURSORTYPE: [M-H]-
INSTRUMENTTYPE: LC-ESI-QTOF
SMILES: CC1OC(OC2CCC3(C)C(CCC4(C)C3C=CC35OCC6(CCC(C)(C)CC36)C(O)CC45C)C2(C)CO)C(O)C(OC2OC(CO)C(O)C(O)C2O)C1O
INCHIKEY: KYWSCMDFVARMPN-UHFFFAOYNA-N
Ontology: Triterpene saponins
COLLISIONENERGY: 30
FORMULA: C42H68O13
RETENTIONTIME: 8.267016
IONMODE: Negative
Comment: registered in RIKEN PlaSMA
Num Peaks: 18
85.0294	56
89.0242	33
100.01351	24
101.02366	28
114.02864	30
180.06586	21
306.47116	45
307.11823	17
307.22708	19
394.7796	16
617.37408	37
617.40631	540
617.45325	36
618.39532	35
618.43927	82
619.12384	15
619.46033	16
779.45923	1000

NAME: Saikosaponin D
PRECURSORMZ: 825.46419515183
PRECURSORTYPE: [M+FA-H]-
INSTRUMENTTYPE: LC-ESI-QTOF
SMILES: CC1OC(OC2CCC3(C)C(CCC4(C)C3C=CC35OCC6(CCC(C)(C)CC36)C(O)CC45C)C2(C)CO)C(O)C(OC2OC(CO)C(O)C(O)C2O)C1O
INCHIKEY: KYWSCMDFVARMPN-UHFFFAOYNA-N
Ontology: Triterpene saponins
COLLISIONENERGY: 30
FORMULA: C42H68O13
RETENTIONTIME: 8.267016
IONMODE: Negative
Comment: registered in RIKEN PlaSMA
Num Peaks: 12
101.02348	6
102.02985	5
145.05202	5
161.04753	12
617.40723	134
618.4115	46
619.40381	6
779.45923	1000
780.46472	455
781.46552	139
782.43903	5
782.48083	18

NAME: Saikosaponin C
PRECURSORMZ: 925.51662464783
PRECURSORTYPE: [M-H]-
INSTRUMENTTYPE: LC-ESI-QTOF
SMILES: CC1OC(OC2C(COC3OC(CO)C(O)C(O)C3O)OC(OC3CCC4(C)C(CCC5(C)C4C=CC4=C6CC(C)(C)CCC6(CO)C(O)CC54C)C3(C)C)C(O)C2O)C(O)C(O)C1O
INCHIKEY: PYJMYPPFWASOJX-UHFFFAOYNA-N
Ontology: Triterpene saponins
COLLISIONENERGY: 50
FORMULA: C48H78O17
RETENTIONTIME: 6.299417
IONMODE: Negative
Comment: registered in RIKEN PlaSMA
Num Peaks: 11
89.02251	513
100.96249	205
101.0239	1000
113.02869	218
114.02367	256
119.03291	256
131.03473	321
161.03911	654
179.0518	231
233.06601	218
746.44995	205

NAME: Saikosaponin C
PRECURSORMZ: 971.52210395183
PRECURSORTYPE: [M+FA-H]-
INSTRUMENTTYPE: LC-ESI-QTOF
SMILES: CC1OC(OC2C(COC3OC(CO)C(O)C(O)C3O)OC(OC3CCC4(C)C(CCC5(C)C4C=CC4=C6CC(C)(C)CCC6(CO)C(O)CC54C)C3(C)C)C(O)C2O)C(O)C(O)C1O
INCHIKEY: PYJMYPPFWASOJX-UHFFFAOYNA-N
Ontology: Triterpene saponins
COLLISIONENERGY: 50
FORMULA: C48H78O17
RETENTIONTIME: 6.299417
IONMODE: Negative
Comment: registered in RIKEN PlaSMA
Num Peaks: 156
53.03864	5
59.01186	117
59.01769	5
68.12782	6
69.03103	9
71.00124	6
71.01169	224
72.01757	12
73.02825	69
74.87861	6
81.03614	21
83.00275	6
83.01393	9
84.0173	5
85.02216	13
85.02969	83
85.67719	7
87.00807	16
87.04435	6
89.02392	417
90.02767	11
90.03557	9
91.1899	7
95.01768	7
97.02784	57
99.00697	12
99.0144	12
100.01182	6
101.02357	909
102.02835	64
103.03627	58
103.04045	164
104.04313	7
105.88997	5
106.79083	8
107.02856	14
107.03857	6
113.02446	263
114.02656	22
114.03242	11
115.03209	6
115.04044	13
117.57264	5
119.03439	387
120.03396	21
124.01517	17
125.02385	139
127.03759	12
127.0444	5
129.01845	22
131.03207	44
131.04259	12
133.0542	7
141.01817	20
143.03279	164
144.03696	9
145.05226	51
146.05919	7
149.0441	47
149.05742	6
150.04645	7
159.02757	122
159.15463	7
160.03137	5
161.04442	1000
161.86066	7
162.04504	48
162.05559	12
163.06088	159
163.0668	56
164.06029	6
179.05495	325
179.09486	6
180.05447	18
182.29996	5
190.30095	5
203.05974	5
221.06996	8
228.55998	6
231.23689	5
234.07407	11
235.08229	46
245.06584	36
246.08315	6
248.07532	6
263.06421	12
263.07626	18
263.09003	12
265.09818	6
287.07501	13
287.09372	6
305.0871	59
307.04312	6
318.58105	5
325.10895	12
395.78278	5
396.05151	7
418.4039	5
432.78333	10
433.23984	17
455.34802	30
456.36685	5
515.22235	5
515.38257	7
526.33569	5
549.84631	9
563.36169	10
563.37762	9
564.39429	14
599.37537	6
599.40228	18
604.49963	6
615.7124	5
617.40424	491
617.44824	16
617.91046	6
618.40985	209
618.51178	9
618.75616	7
619.41199	61
620.71161	7
621.40857	5
644.62213	5
671.64508	5
745.42609	6
745.44922	5
746.45349	9
761.46167	9
762.4425	12
763.44305	69
763.47028	167
763.53693	6
764.46729	50
764.54443	7
764.59631	5
765.47137	35
765.50226	15
766.48871	9
779.45923	594
779.53088	5
780.4599	273
781.10956	6
781.44244	16
781.47546	72
782.49115	11
784.39325	6
838.69733	8
847.85437	6
925.51227	351
926.31793	7
926.50592	145
926.53766	119
927.49036	24
927.52112	46
928.52399	9
929.19836	6

NAME: Ginsenoside F1
PRECURSORMZ: 637.43210714783
PRECURSORTYPE: [M-H]-
INSTRUMENTTYPE: LC-ESI-QTOF
SMILES: CC(C)=CCCC(C)(OC1OC(CO)C(O)C(O)C1O)C1CCC2(C)C1C(O)CC1C3(C)CCC(O)C(C)(C)C3C(O)CC21C
INCHIKEY: XNGXWSFSJIQMNC-UHFFFAOYNA-N
Ontology: Triterpene saponins
COLLISIONENERGY: 50
FORMULA: C36H62O9
RETENTIONTIME: 6.594883
IONMODE: Negative
Comment: registered in RIKEN PlaSMA
Num Peaks: 2
101.01981	1000
113.02435	974

NAME: Saikosaponin D
PRECURSORMZ: 779.45871584783
PRECURSORTYPE: [M-H]-
INSTRUMENTTYPE: LC-ESI-QTOF
SMILES: CC1OC(OC2CCC3(C)C(CCC4(C)C3C=CC35OCC6(CCC(C)(C)CC36)C(O)CC45C)C2(C)CO)C(O)C(OC2OC(CO)C(O)C(O)C2O)C1O
INCHIKEY: KYWSCMDFVARMPN-UHFFFAOYNA-N
Ontology: Triterpene saponins
COLLISIONENERGY: 50
FORMULA: C42H68O13
RETENTIONTIME: 8.267016
IONMODE: Negative
Comment: registered in RIKEN PlaSMA
Num Peaks: 33
59.01231	96
59.01783	382
71.01336	174
85.02911	573
89.02161	360
91.02577	96
99.00515	152
99.01086	112
99.04531	169
101.02368	1000
103.04113	118
104.12374	90
109.02573	112
109.03558	365
110.03246	90
113.02368	258
115.03879	90
119.03613	399
126.03391	140
127.03293	90
127.04222	90
128.04156	90
145.03975	101
145.0489	483
146.04678	101
223.4422	124
439.32385	107
439.33801	185
478.33344	90
541.36365	140
617.41241	320
618.40546	365
619.42877	107

NAME: Saikosaponin D
PRECURSORMZ: 825.46419515183
PRECURSORTYPE: [M+FA-H]-
INSTRUMENTTYPE: LC-ESI-QTOF
SMILES: CC1OC(OC2CCC3(C)C(CCC4(C)C3C=CC35OCC6(CCC(C)(C)CC36)C(O)CC45C)C2(C)CO)C(O)C(OC2OC(CO)C(O)C(O)C2O)C1O
INCHIKEY: KYWSCMDFVARMPN-UHFFFAOYNA-N
Ontology: Triterpene saponins
COLLISIONENERGY: 50
FORMULA: C42H68O13
RETENTIONTIME: 8.267016
IONMODE: Negative
Comment: registered in RIKEN PlaSMA
Num Peaks: 99
59.01277	135
60.01805	7
69.03359	6
71.01153	157
71.047	5
73.02351	17
73.02879	94
81.03272	5
82.46247	5
83.01254	25
85.02701	75
85.03239	66
86.03191	13
87.00661	5
87.02022	11
87.04546	31
87.10798	15
89.02305	205
90.02988	6
92.50166	9
95.01203	6
97.02757	18
97.03207	22
99.00813	19
99.04263	48
100.05083	5
101.02314	509
101.0513	5
102.02388	23
102.68432	6
103.03709	17
103.04227	23
109.02695	58
111.0079	6
113.02296	124
114.02381	13
115.03693	23
115.04343	11
119.03366	56
119.04099	20
120.03536	10
127.04045	67
128.04111	13
129.01552	14
129.01926	7
131.02625	8
133.04741	5
137.02643	5
137.50696	6
141.05807	5
143.02681	12
143.0331	13
145.04991	489
146.05232	48
149.43279	8
159.02742	35
161.04391	81
162.04587	10
163.05724	21
163.06497	7
166.25804	6
170.36935	8
179.05696	11
199.05939	6
282.43262	9
340.27109	7
342.33609	6
357.06851	9
421.31146	6
439.32257	30
440.31348	18
441.34747	6
465.32812	7
471.35059	53
472.34348	31
513.36646	8
541.35382	29
549.85669	6
587.31085	6
609.18842	9
616.66095	5
617.3479	9
617.40332	1000
617.44812	24
617.93066	5
618.40643	371
618.453	15
619.3996	17
619.4176	67
619.44586	9
620.38	5
620.4201	9
779.44995	40
779.47443	75
780.4397	17
780.4624	17
781.4635	21
781.49176	6
782.44922	6

NAME: Ginsenoside Rb3
PRECURSORMZ: 1077.58509854783
PRECURSORTYPE: [M-H]-
INSTRUMENTTYPE: LC-ESI-QTOF
SMILES: CCC(C)=CCCC(C)(OC1OC(COC2OCC(O)C(O)C2O)C(O)C(O)C1O)C1CCC2(C)C1C(O)CC1C2CCC2C(C)(C)C(CCC12C)OC1OC(CO)C(O)C(O)C1OC1OC(CO)C(O)C(O)C1O
INCHIKEY: SNPYJWZTTUVUIS-UHFFFAOYNA-N
Ontology: Triterpenoids
COLLISIONENERGY: 10
FORMULA: C53H90O22
RETENTIONTIME: 6.186333
IONMODE: Negative
Comment: registered in RIKEN PlaSMA
Num Peaks: 11
89.02612	10
131.02867	6
149.04605	55
179.05356	7
349.66028	6
783.48126	13
783.51318	11
945.56488	5
946.54956	10
1077.58459	1000
1077.66077	29

NAME: Ginsenoside Rb3
PRECURSORMZ: 1123.59057785183
PRECURSORTYPE: [M+FA-H]-
INSTRUMENTTYPE: LC-ESI-QTOF
SMILES: CCC(C)=CCCC(C)(OC1OC(COC2OCC(O)C(O)C2O)C(O)C(O)C1O)C1CCC2(C)C1C(O)CC1C2CCC2C(C)(C)C(CCC12C)OC1OC(CO)C(O)C(O)C1OC1OC(CO)C(O)C(O)C1O
INCHIKEY: SNPYJWZTTUVUIS-UHFFFAOYNA-N
Ontology: Triterpenoids
COLLISIONENERGY: 10
FORMULA: C53H90O22
RETENTIONTIME: 6.186333
IONMODE: Negative
Comment: registered in RIKEN PlaSMA
Num Peaks: 16
149.0417	7
783.49231	6
784.5014	14
916.526	8
945.52899	7
1077.58362	1000
1078.09326	28
1078.13696	5
1078.59253	659
1079.0979	11
1079.13855	5
1079.59229	227
1080.59534	43
1081.59753	9
1123.59155	546
1123.68018	6

NAME: Ginsenoside F2
PRECURSORMZ: 783.49001594783
PRECURSORTYPE: [M-H]-
INSTRUMENTTYPE: LC-ESI-QTOF
SMILES: CC(C)=CCCC(C)(OC1OC(CO)C(O)C(O)C1O)C1CCC2(C)C1C(O)CC1C3(C)CCC(OC4OC(CO)C(O)C(O)C4O)C(C)(C)C3CCC21C
INCHIKEY: SWIROVJVGRGSPO-UHFFFAOYNA-N
Ontology: Triterpene saponins
COLLISIONENERGY: 10
FORMULA: C42H72O13
RETENTIONTIME: 7.656466
IONMODE: Negative
Comment: registered in RIKEN PlaSMA
Num Peaks: 21
71.01494	73
89.02261	43
89.02687	49
101.02504	26
113.02719	30
119.03237	65
131.03592	44
143.02795	21
143.03957	19
145.04051	20
153.69173	19
161.04741	147
179.0531	19
179.06052	46
432.79526	19
537.32324	20
621.41553	37
621.43848	148
621.46631	23
622.43286	85
783.48486	1000

NAME: Ginsenoside Rb3
PRECURSORMZ: 1077.58509854783
PRECURSORTYPE: [M-H]-
INSTRUMENTTYPE: LC-ESI-QTOF
SMILES: CCC(C)=CCCC(C)(OC1OC(COC2OCC(O)C(O)C2O)C(O)C(O)C1O)C1CCC2(C)C1C(O)CC1C2CCC2C(C)(C)C(CCC12C)OC1OC(CO)C(O)C(O)C1OC1OC(CO)C(O)C(O)C1O
INCHIKEY: SNPYJWZTTUVUIS-UHFFFAOYNA-N
Ontology: Triterpenoids
COLLISIONENERGY: 10
FORMULA: C53H90O22
RETENTIONTIME: 6.186333
IONMODE: Negative
Comment: registered in RIKEN PlaSMA
Num Peaks: 4
472.01566	5
592.5874	6
777.39258	7
1077.58313	1000

NAME: Ginsenoside Rb3
PRECURSORMZ: 1123.59057785183
PRECURSORTYPE: [M+FA-H]-
INSTRUMENTTYPE: LC-ESI-QTOF
SMILES: CCC(C)=CCCC(C)(OC1OC(COC2OCC(O)C(O)C2O)C(O)C(O)C1O)C1CCC2(C)C1C(O)CC1C2CCC2C(C)(C)C(CCC12C)OC1OC(CO)C(O)C(O)C1OC1OC(CO)C(O)C(O)C1O
INCHIKEY: SNPYJWZTTUVUIS-UHFFFAOYNA-N
Ontology: Triterpenoids
COLLISIONENERGY: 10
FORMULA: C53H90O22
RETENTIONTIME: 6.186333
IONMODE: Negative
Comment: registered in RIKEN PlaSMA
Num Peaks: 36
205.18744	6
524.98065	7
544.867	11
632.87061	7
676.38489	6
676.74188	6
739.14142	8
965.78009	8
999.38666	6
1077.58105	584
1078.08289	82
1078.11353	20
1078.51123	19
1078.56873	190
1078.59729	193
1078.65918	6
1079.10144	42
1079.56592	36
1079.61389	42
1079.98364	6
1080.11365	9
1080.59644	48
1080.93274	9
1081.00049	8
1081.94666	7
1086.51794	10
1100.59241	15
1101.04785	6
1101.08545	9
1101.38184	24
1101.55798	11
1101.61194	9
1102.08606	7
1104.50256	6
1116.12891	6
1123.58984	1000

NAME: Ginsenoside F2
PRECURSORMZ: 783.49001594783
PRECURSORTYPE: [M-H]-
INSTRUMENTTYPE: LC-ESI-QTOF
SMILES: CC(C)=CCCC(C)(OC1OC(CO)C(O)C(O)C1O)C1CCC2(C)C1C(O)CC1C3(C)CCC(OC4OC(CO)C(O)C(O)C4O)C(C)(C)C3CCC21C
INCHIKEY: SWIROVJVGRGSPO-UHFFFAOYNA-N
Ontology: Triterpene saponins
COLLISIONENERGY: 10
FORMULA: C42H72O13
RETENTIONTIME: 7.656466
IONMODE: Negative
Comment: registered in RIKEN PlaSMA
Num Peaks: 4
85.52283	12
353.00522	26
610.37195	22
783.49072	1000

NAME: Ginsenoside F2
PRECURSORMZ: 829.49549525183
PRECURSORTYPE: [M+FA-H]-
INSTRUMENTTYPE: LC-ESI-QTOF
SMILES: CC(C)=CCCC(C)(OC1OC(CO)C(O)C(O)C1O)C1CCC2(C)C1C(O)CC1C3(C)CCC(OC4OC(CO)C(O)C(O)C4O)C(C)(C)C3CCC21C
INCHIKEY: SWIROVJVGRGSPO-UHFFFAOYNA-N
Ontology: Triterpene saponins
COLLISIONENERGY: 10
FORMULA: C42H72O13
RETENTIONTIME: 7.656466
IONMODE: Negative
Comment: registered in RIKEN PlaSMA
Num Peaks: 3
783.4928	21
784.50293	5
829.49719	1000

NAME: Ginsenoside Rb3
PRECURSORMZ: 1077.58509854783
PRECURSORTYPE: [M-H]-
INSTRUMENTTYPE: LC-ESI-QTOF
SMILES: CCC(C)=CCCC(C)(OC1OC(COC2OCC(O)C(O)C2O)C(O)C(O)C1O)C1CCC2(C)C1C(O)CC1C2CCC2C(C)(C)C(CCC12C)OC1OC(CO)C(O)C(O)C1OC1OC(CO)C(O)C(O)C1O
INCHIKEY: SNPYJWZTTUVUIS-UHFFFAOYNA-N
Ontology: Triterpenoids
COLLISIONENERGY: 30
FORMULA: C53H90O22
RETENTIONTIME: 6.186333
IONMODE: Negative
Comment: registered in RIKEN PlaSMA
Num Peaks: 7
149.04407	11
915.53949	14
916.50244	5
945.55194	10
945.59998	6
1077.5874	1000
1077.68909	14

NAME: Ginsenoside F2
PRECURSORMZ: 783.49001594783
PRECURSORTYPE: [M-H]-
INSTRUMENTTYPE: LC-ESI-QTOF
SMILES: CC(C)=CCCC(C)(OC1OC(CO)C(O)C(O)C1O)C1CCC2(C)C1C(O)CC1C3(C)CCC(OC4OC(CO)C(O)C(O)C4O)C(C)(C)C3CCC21C
INCHIKEY: SWIROVJVGRGSPO-UHFFFAOYNA-N
Ontology: Triterpene saponins
COLLISIONENERGY: 30
FORMULA: C42H72O13
RETENTIONTIME: 7.656466
IONMODE: Negative
Comment: registered in RIKEN PlaSMA
Num Peaks: 30
59.01153	182
59.01544	101
71.01111	110
73.02817	61
73.03343	55
89.02232	439
95.01665	78
97.02391	46
101.02486	662
101.03116	95
103.02355	64
113.02359	500
119.03631	393
120.03794	145
129.03418	46
131.03815	46
143.03934	361
159.03174	116
161.04469	1000
162.05246	72
179.0542	159
373.0079	84
459.38535	55
460.38745	58
621.43884	763
621.46771	130
622.42932	197
622.45062	321
623.46918	58
783.50183	130

NAME: Ginsenoside Rb3
PRECURSORMZ: 1077.58509854783
PRECURSORTYPE: [M-H]-
INSTRUMENTTYPE: LC-ESI-QTOF
SMILES: CCC(C)=CCCC(C)(OC1OC(COC2OCC(O)C(O)C2O)C(O)C(O)C1O)C1CCC2(C)C1C(O)CC1C2CCC2C(C)(C)C(CCC12C)OC1OC(CO)C(O)C(O)C1OC1OC(CO)C(O)C(O)C1O
INCHIKEY: SNPYJWZTTUVUIS-UHFFFAOYNA-N
Ontology: Triterpenoids
COLLISIONENERGY: 50
FORMULA: C53H90O22
RETENTIONTIME: 6.186333
IONMODE: Negative
Comment: registered in RIKEN PlaSMA
Num Peaks: 133
59.01252	74
64.57427	7
71.01102	97
71.41784	6
73.02796	30
85.02653	22
87.00812	6
89.02377	597
90.02402	18
94.04947	8
95.01011	6
96.01307	9
97.03126	8
99.00858	10
99.01673	6
101.02316	453
102.02956	16
102.53702	7
107.0302	7
107.03651	6
113.02431	244
114.02818	7
117.00692	6
119.03211	84
119.03677	67
120.03375	25
120.12711	7
125.02198	101
129.01561	14
131.0343	379
132.03564	6
132.10156	6
132.78662	13
133.03748	17
133.0462	8
139.0415	16
141.01549	10
143.03455	57
144.03525	10
149.04497	1000
149.15053	9
150.03989	9
150.04964	69
150.53458	6
151.04785	13
159.0273	20
159.03564	37
160.02556	7
160.03409	9
161.04402	276
162.05624	7
164.13884	6
173.04979	7
179.05396	30
180.06206	7
180.0769	7
183.16859	13
184.57222	7
191.05544	278
221.06407	72
223.07497	7
233.06715	51
238.36533	7
251.08528	6
275.0831	7
293.07953	31
293.091	57
294.08231	6
295.0947	7
299.26596	8
302.26294	7
311.10822	12
459.38388	56
460.40619	6
494.64597	7
508.52115	9
511.11398	12
537.35052	8
554.40485	8
555.42072	10
603.41437	7
604.41608	7
605.41034	12
621.39996	7
621.43707	146
622.38812	7
622.44122	73
622.97174	8
623.42743	6
627.27924	7
646.83136	20
707.50134	7
709.74451	17
737.56207	7
752.27789	7
753.65332	7
765.00415	7
765.47223	32
765.50842	6
766.46631	26
766.4989	7
783.39575	8
783.43365	14
783.46259	40
783.49854	98
784.01605	9
784.46362	29
784.49561	125
785.48395	6
785.51624	21
788.95532	6
868.18805	10
902.20532	6
915.51953	39
915.56238	12
916.5592	31
945.29596	8
945.50903	79
945.54456	80
946.55408	93
947.43842	6
947.54883	13
948.5611	7
948.5863	6
949.33478	10
951.42743	7
952.16705	9
957.54059	7
967.19409	9
969.59564	7
1020.89331	8
1077.53418	28
1077.58472	226

NAME: Ginsenoside F2
PRECURSORMZ: 783.49001594783
PRECURSORTYPE: [M-H]-
INSTRUMENTTYPE: LC-ESI-QTOF
SMILES: CC(C)=CCCC(C)(OC1OC(CO)C(O)C(O)C1O)C1CCC2(C)C1C(O)CC1C3(C)CCC(OC4OC(CO)C(O)C(O)C4O)C(C)(C)C3CCC21C
INCHIKEY: SWIROVJVGRGSPO-UHFFFAOYNA-N
Ontology: Triterpene saponins
COLLISIONENERGY: 50
FORMULA: C42H72O13
RETENTIONTIME: 7.656466
IONMODE: Negative
Comment: registered in RIKEN PlaSMA
Num Peaks: 15
71.01342	725
75.00897	107
83.00845	90
83.01306	112
85.02731	348
89.02592	90
95.0154	146
101.02362	1000
102.01922	90
102.02437	169
119.0302	287
131.03496	90
143.03334	124
159.01828	101
161.04457	522

NAME: Ginsenoside F2
PRECURSORMZ: 829.49549525183
PRECURSORTYPE: [M+FA-H]-
INSTRUMENTTYPE: LC-ESI-QTOF
SMILES: CC(C)=CCCC(C)(OC1OC(CO)C(O)C(O)C1O)C1CCC2(C)C1C(O)CC1C3(C)CCC(OC4OC(CO)C(O)C(O)C4O)C(C)(C)C3CCC21C
INCHIKEY: SWIROVJVGRGSPO-UHFFFAOYNA-N
Ontology: Triterpene saponins
COLLISIONENERGY: 50
FORMULA: C42H72O13
RETENTIONTIME: 7.656466
IONMODE: Negative
Comment: registered in RIKEN PlaSMA
Num Peaks: 44
59.01363	229
71.01354	383
73.02753	31
83.01306	25
85.02517	69
85.03071	129
89.02271	488
90.02614	21
95.01537	45
96.01752	29
101.02328	1000
102.02496	23
102.76969	20
103.02939	21
113.02197	308
114.02345	23
118.9753	43
119.03373	344
125.0191	45
126.02621	24
129.02016	46
131.03264	31
143.03407	23
143.04074	25
159.028	28
159.03566	20
161.03546	35
161.04996	129
179.05826	25
256.00766	25
373.28903	53
375.29395	20
385.31195	41
459.29343	25
459.36624	54
459.38971	140
460.37292	49
460.4035	23
537.34985	25
538.36597	115
538.42041	29
605.38776	26
606.3924	20
621.43536	120

NAME: Ginsenoside Rb3
PRECURSORMZ: 1077.58509854783
PRECURSORTYPE: [M-H]-
INSTRUMENTTYPE: LC-ESI-QTOF
SMILES: CCC(C)=CCCC(C)(OC1OC(COC2OCC(O)C(O)C2O)C(O)C(O)C1O)C1CCC2(C)C1C(O)CC1C2CCC2C(C)(C)C(CCC12C)OC1OC(CO)C(O)C(O)C1OC1OC(CO)C(O)C(O)C1O
INCHIKEY: SNPYJWZTTUVUIS-UHFFFAOYNA-N
Ontology: Triterpenoids
COLLISIONENERGY: 10
FORMULA: C53H90O22
RETENTIONTIME: 6.186333
IONMODE: Negative
Comment: registered in RIKEN PlaSMA
Num Peaks: 12
149.03954	14
149.04553	27
161.04018	7
221.06592	6
765.48511	7
767.63654	5
783.4826	8
783.51892	17
784.49133	8
915.52753	12
945.56061	5
1077.58472	1000

NAME: Ginsenoside Rb3
PRECURSORMZ: 1123.59057785183
PRECURSORTYPE: [M+FA-H]-
INSTRUMENTTYPE: LC-ESI-QTOF
SMILES: CCC(C)=CCCC(C)(OC1OC(COC2OCC(O)C(O)C2O)C(O)C(O)C1O)C1CCC2(C)C1C(O)CC1C2CCC2C(C)(C)C(CCC12C)OC1OC(CO)C(O)C(O)C1OC1OC(CO)C(O)C(O)C1O
INCHIKEY: SNPYJWZTTUVUIS-UHFFFAOYNA-N
Ontology: Triterpenoids
COLLISIONENERGY: 10
FORMULA: C53H90O22
RETENTIONTIME: 6.186333
IONMODE: Negative
Comment: registered in RIKEN PlaSMA
Num Peaks: 21
149.04492	10
251.07726	5
293.08511	6
915.50781	8
915.53955	11
949.28375	7
1005.92627	7
1077.58728	1000
1077.66138	12
1077.70471	6
1078.09314	8
1078.58679	643
1078.83203	5
1079.09607	22
1079.58521	172
1079.60913	72
1080.58215	42
1080.63379	11
1081.56616	7
1104.5719	11
1123.58777	123

NAME: Ginsenoside F2
PRECURSORMZ: 783.49001594783
PRECURSORTYPE: [M-H]-
INSTRUMENTTYPE: LC-ESI-QTOF
SMILES: CC(C)=CCCC(C)(OC1OC(CO)C(O)C(O)C1O)C1CCC2(C)C1C(O)CC1C3(C)CCC(OC4OC(CO)C(O)C(O)C4O)C(C)(C)C3CCC21C
INCHIKEY: SWIROVJVGRGSPO-UHFFFAOYNA-N
Ontology: Triterpene saponins
COLLISIONENERGY: 10
FORMULA: C42H72O13
RETENTIONTIME: 7.656466
IONMODE: Negative
Comment: registered in RIKEN PlaSMA
Num Peaks: 19
59.01397	20
71.01183	40
87.00664	21
89.02827	20
101.01894	20
101.02392	51
113.02351	62
118.79147	25
119.03515	20
125.01915	22
159.03474	20
161.04352	120
161.05321	21
179.05482	27
621.43646	240
622.44977	25
623.44458	21
703.94983	22
783.49731	1000

NAME: Ginsenoside Rb3
PRECURSORMZ: 1077.58509854783
PRECURSORTYPE: [M-H]-
INSTRUMENTTYPE: LC-ESI-QTOF
SMILES: CCC(C)=CCCC(C)(OC1OC(COC2OCC(O)C(O)C2O)C(O)C(O)C1O)C1CCC2(C)C1C(O)CC1C2CCC2C(C)(C)C(CCC12C)OC1OC(CO)C(O)C(O)C1OC1OC(CO)C(O)C(O)C1O
INCHIKEY: SNPYJWZTTUVUIS-UHFFFAOYNA-N
Ontology: Triterpenoids
COLLISIONENERGY: 10
FORMULA: C53H90O22
RETENTIONTIME: 6.186333
IONMODE: Negative
Comment: registered in RIKEN PlaSMA
Num Peaks: 4
761.7276	6
1030.0553	6
1077.58838	1000
1077.67834	6

NAME: Ginsenoside Rb3
PRECURSORMZ: 1123.59057785183
PRECURSORTYPE: [M+FA-H]-
INSTRUMENTTYPE: LC-ESI-QTOF
SMILES: CCC(C)=CCCC(C)(OC1OC(COC2OCC(O)C(O)C2O)C(O)C(O)C1O)C1CCC2(C)C1C(O)CC1C2CCC2C(C)(C)C(CCC12C)OC1OC(CO)C(O)C(O)C1OC1OC(CO)C(O)C(O)C1O
INCHIKEY: SNPYJWZTTUVUIS-UHFFFAOYNA-N
Ontology: Triterpenoids
COLLISIONENERGY: 10
FORMULA: C53H90O22
RETENTIONTIME: 6.186333
IONMODE: Negative
Comment: registered in RIKEN PlaSMA
Num Peaks: 35
64.46102	5
67.65631	8
98.40102	7
114.95678	8
120.58078	20
247.99292	8
579.16718	15
619.41199	10
655.84265	5
716.46368	7
794.51764	7
835.21765	5
1030.27856	7
1066.06238	5
1067.47424	5
1073.53967	7
1077.58582	544
1078.07861	81
1078.1073	38
1078.58118	277
1079.13	7
1079.5387	21
1079.59912	65
1079.83032	7
1080.58447	22
1081.58337	14
1082.59119	8
1101.08569	16
1104.06262	5
1104.56067	11
1107.69983	5
1121.49438	20
1123.59216	1000
1123.69604	10
1123.77795	6

NAME: Ginsenoside F2
PRECURSORMZ: 783.49001594783
PRECURSORTYPE: [M-H]-
INSTRUMENTTYPE: LC-ESI-QTOF
SMILES: CC(C)=CCCC(C)(OC1OC(CO)C(O)C(O)C1O)C1CCC2(C)C1C(O)CC1C3(C)CCC(OC4OC(CO)C(O)C(O)C4O)C(C)(C)C3CCC21C
INCHIKEY: SWIROVJVGRGSPO-UHFFFAOYNA-N
Ontology: Triterpene saponins
COLLISIONENERGY: 10
FORMULA: C42H72O13
RETENTIONTIME: 7.656466
IONMODE: Negative
Comment: registered in RIKEN PlaSMA
Num Peaks: 11
78.4187	24
189.78871	12
319.62421	12
385.87564	15
387.39664	12
510.25842	13
543.79858	12
606.24261	15
780.9151	13
783.49194	1000
783.66809	13

NAME: Ginsenoside Rb3
PRECURSORMZ: 1077.58509854783
PRECURSORTYPE: [M-H]-
INSTRUMENTTYPE: LC-ESI-QTOF
SMILES: CCC(C)=CCCC(C)(OC1OC(COC2OCC(O)C(O)C2O)C(O)C(O)C1O)C1CCC2(C)C1C(O)CC1C2CCC2C(C)(C)C(CCC12C)OC1OC(CO)C(O)C(O)C1OC1OC(CO)C(O)C(O)C1O
INCHIKEY: SNPYJWZTTUVUIS-UHFFFAOYNA-N
Ontology: Triterpenoids
COLLISIONENERGY: 30
FORMULA: C53H90O22
RETENTIONTIME: 6.186333
IONMODE: Negative
Comment: registered in RIKEN PlaSMA
Num Peaks: 8
149.0434	12
293.08215	6
783.48431	6
915.53967	15
916.53955	12
945.53156	10
1077.58508	1000
1077.65479	19

NAME: Ginsenoside Rb3
PRECURSORMZ: 1123.59057785183
PRECURSORTYPE: [M+FA-H]-
INSTRUMENTTYPE: LC-ESI-QTOF
SMILES: CCC(C)=CCCC(C)(OC1OC(COC2OCC(O)C(O)C2O)C(O)C(O)C1O)C1CCC2(C)C1C(O)CC1C2CCC2C(C)(C)C(CCC12C)OC1OC(CO)C(O)C(O)C1OC1OC(CO)C(O)C(O)C1O
INCHIKEY: SNPYJWZTTUVUIS-UHFFFAOYNA-N
Ontology: Triterpenoids
COLLISIONENERGY: 30
FORMULA: C53H90O22
RETENTIONTIME: 6.186333
IONMODE: Negative
Comment: registered in RIKEN PlaSMA
Num Peaks: 8
915.52991	7
1077.58264	1000
1077.69189	8
1078.58447	593
1079.58899	202
1080.56372	15
1080.60059	24
1080.63574	7

NAME: Ginsenoside F2
PRECURSORMZ: 783.49001594783
PRECURSORTYPE: [M-H]-
INSTRUMENTTYPE: LC-ESI-QTOF
SMILES: CC(C)=CCCC(C)(OC1OC(CO)C(O)C(O)C1O)C1CCC2(C)C1C(O)CC1C3(C)CCC(OC4OC(CO)C(O)C(O)C4O)C(C)(C)C3CCC21C
INCHIKEY: SWIROVJVGRGSPO-UHFFFAOYNA-N
Ontology: Triterpene saponins
COLLISIONENERGY: 30
FORMULA: C42H72O13
RETENTIONTIME: 7.656466
IONMODE: Negative
Comment: registered in RIKEN PlaSMA
Num Peaks: 27
57.03186	82
59.00895	56
59.01369	96
71.01314	96
73.0284	89
85.0256	85
86.17278	42
87.00858	42
89.02051	87
89.02636	106
98.03477	61
101.02436	519
113.02241	275
119.03188	110
120.03774	40
121.04528	70
143.02702	38
143.03596	218
149.03705	42
159.02611	52
161.04402	1000
179.05504	113
459.38531	190
459.4057	42
603.40234	40
621.43738	718
783.49707	49

NAME: Ginsenoside F2
PRECURSORMZ: 829.49549525183
PRECURSORTYPE: [M+FA-H]-
INSTRUMENTTYPE: LC-ESI-QTOF
SMILES: CC(C)=CCCC(C)(OC1OC(CO)C(O)C(O)C1O)C1CCC2(C)C1C(O)CC1C3(C)CCC(OC4OC(CO)C(O)C(O)C4O)C(C)(C)C3CCC21C
INCHIKEY: SWIROVJVGRGSPO-UHFFFAOYNA-N
Ontology: Triterpene saponins
COLLISIONENERGY: 30
FORMULA: C42H72O13
RETENTIONTIME: 7.656466
IONMODE: Negative
Comment: registered in RIKEN PlaSMA
Num Peaks: 80
59.01257	7
71.01128	79
72.01709	12
73.02613	16
83.22501	8
85.02551	13
85.02874	7
86.83189	7
87.01393	10
87.04305	6
89.02369	201
97.0265	12
99.0079	12
99.04554	9
100.01617	6
101.02412	265
102.02642	16
113.02409	214
114.02643	14
119.03285	226
120.03911	13
125.02256	17
129.01736	6
129.02438	6
131.03398	32
141.7751	7
143.03262	52
144.03258	7
144.04025	6
144.04762	10
149.03658	7
149.04643	7
159.02864	94
161.04506	722
162.05357	35
163.05244	6
179.04131	26
179.05508	221
180.06204	15
260.69757	6
261.80783	6
303.78519	6
316.76279	6
379.87903	6
387.44907	6
459.36609	11
459.38135	25
459.39865	29
460.37955	28
460.40759	6
461.3576	13
461.38156	9
489.47318	14
538.33112	6
545.94452	8
590.60571	7
621.43689	1000
621.49133	12
622.05579	9
622.43195	216
622.45142	266
623.42395	38
623.48199	6
623.91577	6
624.4386	21
663.44476	19
664.46851	6
783.42999	8
783.48175	515
783.55475	6
784.46149	40
784.48798	167
785.48926	57
787.51202	6
791.05682	6
810.46265	6
810.9549	7
829.46838	50
829.4939	150
829.52264	32

NAME: Ginsenoside Rb3
PRECURSORMZ: 1077.58509854783
PRECURSORTYPE: [M-H]-
INSTRUMENTTYPE: LC-ESI-QTOF
SMILES: CCC(C)=CCCC(C)(OC1OC(COC2OCC(O)C(O)C2O)C(O)C(O)C1O)C1CCC2(C)C1C(O)CC1C2CCC2C(C)(C)C(CCC12C)OC1OC(CO)C(O)C(O)C1OC1OC(CO)C(O)C(O)C1O
INCHIKEY: SNPYJWZTTUVUIS-UHFFFAOYNA-N
Ontology: Triterpenoids
COLLISIONENERGY: 50
FORMULA: C53H90O22
RETENTIONTIME: 6.186333
IONMODE: Negative
Comment: registered in RIKEN PlaSMA
Num Peaks: 162
54.78896	5
59.01216	52
59.01734	11
67.02186	5
69.03001	6
71.01225	111
71.05155	12
71.08963	8
72.99337	6
73.02822	41
85.02974	62
85.03642	8
87.56727	9
89.02317	515
90.01849	6
90.02781	16
91.02686	15
93.8522	19
97.02786	24
98.03312	16
99.00822	16
101.02293	470
101.66512	7
102.02729	23
102.98107	10
103.02352	12
110.94591	5
110.96118	7
113.02331	176
114.02533	9
115.03709	7
117.01173	5
119.03374	231
119.8539	15
120.04127	7
125.02309	100
126.02426	5
127.02895	9
127.04041	9
129.01959	13
131.03453	286
132.03601	38
133.03278	10
135.0257	6
143.02341	9
143.03445	53
143.04918	7
144.03712	8
145.04364	11
146.19394	5
149.04472	1000
150.04341	42
150.05615	20
151.05864	5
159.02548	50
161.0441	194
161.05971	14
162.05069	14
163.05467	5
167.49571	7
175.173	7
179.05125	37
180.06189	12
189.8418	5
191.05339	226
191.06323	68
192.06351	21
221.05785	40
221.06717	96
222.06059	9
222.07651	5
233.06435	15
233.07133	7
245.87804	8
250.06824	5
251.07428	17
251.08627	5
262.56332	11
291.06851	7
293.06293	7
293.09061	49
294.08713	7
295.08551	6
295.10117	7
313.26349	6
361.69867	6
371.26367	6
426.73636	10
454.82635	7
459.3804	33
459.40356	15
459.43576	6
460.37515	7
460.39062	19
461.15295	7
473.04037	6
479.66052	8
499.56766	9
502.98892	14
513.40491	8
533.42542	9
537.35388	7
552.40039	7
576.5614	8
603.42303	20
604.43866	6
621.43536	23
621.45642	59
622.42737	40
622.45428	21
622.48389	6
623.43488	6
624.65778	6
626.90741	15
681.11261	8
712.29047	5
765.40405	8
765.45502	25
765.4834	47
766.48059	11
766.50323	8
766.96912	10
773.03339	5
783.47443	119
783.50342	102
784.49634	72
784.91315	5
785.46899	9
785.51996	12
789.02637	8
824.492	5
872.36151	6
884.33582	7
891.8855	6
915.54541	20
916.48956	5
916.55713	7
916.58893	6
917.55664	5
918.00494	9
920.51514	8
924.62665	6
929.5304	7
945.51294	55
945.55072	58
945.57788	15
946.47925	6
946.52075	83
946.56329	21
947.53998	7
947.56622	14
948.59027	15
951.70905	5
965.71631	10
1016.03101	7
1018.8822	7
1035.01086	6
1073.0033	6
1075.56616	8
1077.57239	135
1077.59924	98
1077.66626	17

NAME: Ginsenoside Rb3
PRECURSORMZ: 1123.59057785183
PRECURSORTYPE: [M+FA-H]-
INSTRUMENTTYPE: LC-ESI-QTOF
SMILES: CCC(C)=CCCC(C)(OC1OC(COC2OCC(O)C(O)C2O)C(O)C(O)C1O)C1CCC2(C)C1C(O)CC1C2CCC2C(C)(C)C(CCC12C)OC1OC(CO)C(O)C(O)C1OC1OC(CO)C(O)C(O)C1O
INCHIKEY: SNPYJWZTTUVUIS-UHFFFAOYNA-N
Ontology: Triterpenoids
COLLISIONENERGY: 50
FORMULA: C53H90O22
RETENTIONTIME: 6.186333
IONMODE: Negative
Comment: registered in RIKEN PlaSMA
Num Peaks: 126
59.01169	26
59.01594	22
71.01199	30
83.01614	8
85.02894	20
89.02254	242
89.69515	17
90.02639	8
97.03172	10
101.02425	232
101.03505	28
102.03078	10
102.65228	8
107.03876	10
113.02311	109
114.03078	8
119.02889	22
119.03832	10
120.03755	19
121.04427	9
125.02326	42
131.03488	141
137.03735	8
143.03571	47
143.0461	11
144.02534	8
145.03961	17
148.47652	7
149.04555	1000
149.08005	11
150.04913	27
159.02585	8
159.0361	7
161.04213	175
179.05099	48
180.05664	9
191.05237	156
192.0551	7
194.43552	7
212.06018	8
221.06384	65
221.84151	9
233.06111	9
239.08087	10
251.07678	9
263.07297	8
293.08972	65
294.08713	20
294.10086	10
311.09561	9
322.08963	11
337.17014	10
390.14185	8
426.08731	7
459.39066	29
460.39059	7
478.56375	9
520.55518	10
551.98145	8
621.40045	9
621.4375	120
622.43195	41
623.62415	7
625.46484	9
625.48236	8
625.54883	8
625.93738	19
643.39001	7
683.56689	13
693.45782	8
711.48706	8
723.19818	9
732.14014	16
733.74817	7
743.42883	8
753.48755	7
765.43976	24
765.47565	32
767.48682	11
771.68994	7
772.98798	14
783.47595	150
783.5022	120
784.44263	7
784.4895	110
784.51862	38
785.48431	41
785.5177	11
786.2337	7
786.5022	10
825.18024	8
876.84863	11
915.49493	22
915.53992	86
916.51562	18
916.7995	7
917.5647	19
918.53717	7
928.39233	8
945.47595	7
945.54059	131
945.59692	18
946.20685	8
946.51166	14
946.56226	61
946.66028	7
947.52917	10
947.55585	8
950.52747	12
962.58356	7
979.16504	7
1005.14069	7
1068.91907	7
1071.75183	8
1077.5697	368
1077.60339	347
1077.71008	7
1078.57678	305
1078.61462	237
1079.11584	9
1079.55396	36
1079.59888	73
1079.64697	7
1080.60278	62
1081.57336	8
1112.60522	7

NAME: Ginsenoside F2
PRECURSORMZ: 783.49001594783
PRECURSORTYPE: [M-H]-
INSTRUMENTTYPE: LC-ESI-QTOF
SMILES: CC(C)=CCCC(C)(OC1OC(CO)C(O)C(O)C1O)C1CCC2(C)C1C(O)CC1C3(C)CCC(OC4OC(CO)C(O)C(O)C4O)C(C)(C)C3CCC21C
INCHIKEY: SWIROVJVGRGSPO-UHFFFAOYNA-N
Ontology: Triterpene saponins
COLLISIONENERGY: 50
FORMULA: C42H72O13
RETENTIONTIME: 7.656466
IONMODE: Negative
Comment: registered in RIKEN PlaSMA
Num Peaks: 16
59.01318	180
71.01113	683
71.35012	95
73.02776	333
83.01233	90
85.02702	312
89.02316	370
101.02052	640
101.07832	85
101.78493	106
113.0237	1000
119.03458	122
143.03442	450
159.02132	143
459.39096	238
537.33948	85

NAME: Ginsenoside F2
PRECURSORMZ: 829.49549525183
PRECURSORTYPE: [M+FA-H]-
INSTRUMENTTYPE: LC-ESI-QTOF
SMILES: CC(C)=CCCC(C)(OC1OC(CO)C(O)C(O)C1O)C1CCC2(C)C1C(O)CC1C3(C)CCC(OC4OC(CO)C(O)C(O)C4O)C(C)(C)C3CCC21C
INCHIKEY: SWIROVJVGRGSPO-UHFFFAOYNA-N
Ontology: Triterpene saponins
COLLISIONENERGY: 50
FORMULA: C42H72O13
RETENTIONTIME: 7.656466
IONMODE: Negative
Comment: registered in RIKEN PlaSMA
Num Peaks: 53
59.01115	150
71.01421	253
71.03661	28
73.02129	26
73.02935	176
81.03486	49
83.01214	85
83.01581	34
83.35418	31
83.50402	26
85.02898	108
85.03262	46
85.9995	54
89.021	398
89.02774	103
95.01288	82
97.02567	60
99.03954	34
101.02389	699
113.0238	1000
119.03336	96
119.04134	26
121.03858	32
125.01678	29
129.0127	25
131.02966	59
131.03896	37
139.21106	25
143.0352	37
144.03996	37
159.02585	88
159.03418	32
160.02914	37
161.04375	207
161.04929	99
163.05336	49
180.0594	25
196.1301	40
208.20018	28
252.87506	54
377.29678	63
459.37482	79
459.39746	93
460.39056	25
460.41672	25
461.38501	63
461.4017	26
530.40106	25
537.34436	54
621.42139	35
621.44977	56
622.43842	46
803.86322	31

NAME: Ginsenoside Rb3
PRECURSORMZ: 1077.58509854783
PRECURSORTYPE: [M-H]-
INSTRUMENTTYPE: LC-ESI-QTOF
SMILES: CCC(C)=CCCC(C)(OC1OC(COC2OCC(O)C(O)C2O)C(O)C(O)C1O)C1CCC2(C)C1C(O)CC1C2CCC2C(C)(C)C(CCC12C)OC1OC(CO)C(O)C(O)C1OC1OC(CO)C(O)C(O)C1O
INCHIKEY: SNPYJWZTTUVUIS-UHFFFAOYNA-N
Ontology: Triterpenoids
COLLISIONENERGY: 10
FORMULA: C53H90O22
RETENTIONTIME: 6.186333
IONMODE: Negative
Comment: registered in RIKEN PlaSMA
Num Peaks: 14
71.01139	8
131.03021	8
149.04564	34
161.04596	13
179.05518	6
191.06183	11
293.08643	9
783.45282	6
783.5	8
904.80627	5
915.53668	7
916.52191	5
945.53601	8
1077.58447	1000

NAME: Ginsenoside Rb3
PRECURSORMZ: 1123.59057785183
PRECURSORTYPE: [M+FA-H]-
INSTRUMENTTYPE: LC-ESI-QTOF
SMILES: CCC(C)=CCCC(C)(OC1OC(COC2OCC(O)C(O)C2O)C(O)C(O)C1O)C1CCC2(C)C1C(O)CC1C2CCC2C(C)(C)C(CCC12C)OC1OC(CO)C(O)C(O)C1OC1OC(CO)C(O)C(O)C1O
INCHIKEY: SNPYJWZTTUVUIS-UHFFFAOYNA-N
Ontology: Triterpenoids
COLLISIONENERGY: 10
FORMULA: C53H90O22
RETENTIONTIME: 6.186333
IONMODE: Negative
Comment: registered in RIKEN PlaSMA
Num Peaks: 18
149.04239	18
559.73682	6
765.49536	5
784.49884	7
915.53253	8
945.57587	5
1077.58459	1000
1077.67151	7
1078.08777	25
1078.58875	642
1079.0625	15
1079.10266	10
1079.58716	154
1079.63953	22
1080.56421	8
1080.6106	55
1081.60925	10
1123.5896	152

NAME: Ginsenoside F2
PRECURSORMZ: 783.49001594783
PRECURSORTYPE: [M-H]-
INSTRUMENTTYPE: LC-ESI-QTOF
SMILES: CC(C)=CCCC(C)(OC1OC(CO)C(O)C(O)C1O)C1CCC2(C)C1C(O)CC1C3(C)CCC(OC4OC(CO)C(O)C(O)C4O)C(C)(C)C3CCC21C
INCHIKEY: SWIROVJVGRGSPO-UHFFFAOYNA-N
Ontology: Triterpene saponins
COLLISIONENERGY: 10
FORMULA: C42H72O13
RETENTIONTIME: 7.656466
IONMODE: Negative
Comment: registered in RIKEN PlaSMA
Num Peaks: 32
68.83026	47
85.02515	31
89.02428	45
97.02579	36
99.0088	32
111.07785	29
113.0253	70
119.03405	70
119.03951	29
120.04202	72
131.03581	45
143.03461	31
161.04475	355
162.04692	38
179.05855	38
179.06703	36
181.07231	47
339.73657	29
366.43188	31
459.38535	36
460.38754	38
506.91965	36
538.30011	36
560.39612	68
574.03217	36
621.4408	283
621.50177	43
622.43829	65
703.46667	31
743.16589	67
783.48553	1000
783.51605	380

NAME: Ginsenoside F2
PRECURSORMZ: 829.49549525183
PRECURSORTYPE: [M+FA-H]-
INSTRUMENTTYPE: LC-ESI-QTOF
SMILES: CC(C)=CCCC(C)(OC1OC(CO)C(O)C(O)C1O)C1CCC2(C)C1C(O)CC1C3(C)CCC(OC4OC(CO)C(O)C(O)C4O)C(C)(C)C3CCC21C
INCHIKEY: SWIROVJVGRGSPO-UHFFFAOYNA-N
Ontology: Triterpene saponins
COLLISIONENERGY: 10
FORMULA: C42H72O13
RETENTIONTIME: 7.656466
IONMODE: Negative
Comment: registered in RIKEN PlaSMA
Num Peaks: 18
89.02212	9
101.02242	14
113.02521	20
119.03072	11
119.03675	7
143.03551	7
159.02682	7
161.04347	57
179.05473	19
459.38272	6
621.43878	89
622.42084	8
622.44159	15
623.45361	7
783.48877	132
784.49652	66
785.49005	28
829.49475	1000

NAME: Ginsenoside Rb3
PRECURSORMZ: 1077.58509854783
PRECURSORTYPE: [M-H]-
INSTRUMENTTYPE: LC-ESI-QTOF
SMILES: CCC(C)=CCCC(C)(OC1OC(COC2OCC(O)C(O)C2O)C(O)C(O)C1O)C1CCC2(C)C1C(O)CC1C2CCC2C(C)(C)C(CCC12C)OC1OC(CO)C(O)C(O)C1OC1OC(CO)C(O)C(O)C1O
INCHIKEY: SNPYJWZTTUVUIS-UHFFFAOYNA-N
Ontology: Triterpenoids
COLLISIONENERGY: 10
FORMULA: C53H90O22
RETENTIONTIME: 6.186333
IONMODE: Negative
Comment: registered in RIKEN PlaSMA
Num Peaks: 2
711.95947	6
1077.58533	1000

NAME: Ginsenoside Rb3
PRECURSORMZ: 1123.59057785183
PRECURSORTYPE: [M+FA-H]-
INSTRUMENTTYPE: LC-ESI-QTOF
SMILES: CCC(C)=CCCC(C)(OC1OC(COC2OCC(O)C(O)C2O)C(O)C(O)C1O)C1CCC2(C)C1C(O)CC1C2CCC2C(C)(C)C(CCC12C)OC1OC(CO)C(O)C(O)C1OC1OC(CO)C(O)C(O)C1O
INCHIKEY: SNPYJWZTTUVUIS-UHFFFAOYNA-N
Ontology: Triterpenoids
COLLISIONENERGY: 10
FORMULA: C53H90O22
RETENTIONTIME: 6.186333
IONMODE: Negative
Comment: registered in RIKEN PlaSMA
Num Peaks: 39
196.97433	9
221.43626	8
277.67252	6
394.57074	5
452.59616	5
455.63852	5
562.58923	10
596.29034	8
617.15863	13
621.30646	7
709.66803	7
1012.89911	8
1065.58704	6
1077.58447	739
1078.04321	23
1078.08594	125
1078.13965	6
1078.27197	5
1078.57886	364
1078.63611	37
1078.85742	5
1079.07593	23
1079.58826	127
1079.8595	6
1079.92139	8
1080.10461	6
1080.599	49
1080.65479	5
1081.60425	5
1081.63135	5
1100.56726	6
1101.10181	18
1101.57739	6
1101.61621	8
1103.09985	6
1104.54932	7
1114.52869	6
1121.5564	7
1123.59143	1000

NAME: Ginsenoside F2
PRECURSORMZ: 783.49001594783
PRECURSORTYPE: [M-H]-
INSTRUMENTTYPE: LC-ESI-QTOF
SMILES: CC(C)=CCCC(C)(OC1OC(CO)C(O)C(O)C1O)C1CCC2(C)C1C(O)CC1C3(C)CCC(OC4OC(CO)C(O)C(O)C4O)C(C)(C)C3CCC21C
INCHIKEY: SWIROVJVGRGSPO-UHFFFAOYNA-N
Ontology: Triterpene saponins
COLLISIONENERGY: 10
FORMULA: C42H72O13
RETENTIONTIME: 7.656466
IONMODE: Negative
Comment: registered in RIKEN PlaSMA
Num Peaks: 5
161.04602	11
621.43317	11
756.86853	13
777.01764	15
783.49591	1000

NAME: Ginsenoside F2
PRECURSORMZ: 829.49549525183
PRECURSORTYPE: [M+FA-H]-
INSTRUMENTTYPE: LC-ESI-QTOF
SMILES: CC(C)=CCCC(C)(OC1OC(CO)C(O)C(O)C1O)C1CCC2(C)C1C(O)CC1C3(C)CCC(OC4OC(CO)C(O)C(O)C4O)C(C)(C)C3CCC21C
INCHIKEY: SWIROVJVGRGSPO-UHFFFAOYNA-N
Ontology: Triterpene saponins
COLLISIONENERGY: 10
FORMULA: C42H72O13
RETENTIONTIME: 7.656466
IONMODE: Negative
Comment: registered in RIKEN PlaSMA
Num Peaks: 2
783.49554	13
829.49365	1000

NAME: Ginsenoside Rb3
PRECURSORMZ: 1077.58509854783
PRECURSORTYPE: [M-H]-
INSTRUMENTTYPE: LC-ESI-QTOF
SMILES: CCC(C)=CCCC(C)(OC1OC(COC2OCC(O)C(O)C2O)C(O)C(O)C1O)C1CCC2(C)C1C(O)CC1C2CCC2C(C)(C)C(CCC12C)OC1OC(CO)C(O)C(O)C1OC1OC(CO)C(O)C(O)C1O
INCHIKEY: SNPYJWZTTUVUIS-UHFFFAOYNA-N
Ontology: Triterpenoids
COLLISIONENERGY: 30
FORMULA: C53H90O22
RETENTIONTIME: 6.186333
IONMODE: Negative
Comment: registered in RIKEN PlaSMA
Num Peaks: 6
149.04555	10
765.47577	8
915.53552	17
945.54163	16
946.54016	8
1077.58301	1000

NAME: Ginsenoside Rb3
PRECURSORMZ: 1123.59057785183
PRECURSORTYPE: [M+FA-H]-
INSTRUMENTTYPE: LC-ESI-QTOF
SMILES: CCC(C)=CCCC(C)(OC1OC(COC2OCC(O)C(O)C2O)C(O)C(O)C1O)C1CCC2(C)C1C(O)CC1C2CCC2C(C)(C)C(CCC12C)OC1OC(CO)C(O)C(O)C1OC1OC(CO)C(O)C(O)C1O
INCHIKEY: SNPYJWZTTUVUIS-UHFFFAOYNA-N
Ontology: Triterpenoids
COLLISIONENERGY: 30
FORMULA: C53H90O22
RETENTIONTIME: 6.186333
IONMODE: Negative
Comment: registered in RIKEN PlaSMA
Num Peaks: 10
1077.5824	1000
1077.76294	7
1078.58899	581
1078.66614	10
1079.57898	110
1079.60742	116
1080.55225	10
1080.57959	34
1080.61096	15
1081.59985	13

NAME: Ginsenoside F2
PRECURSORMZ: 783.49001594783
PRECURSORTYPE: [M-H]-
INSTRUMENTTYPE: LC-ESI-QTOF
SMILES: CC(C)=CCCC(C)(OC1OC(CO)C(O)C(O)C1O)C1CCC2(C)C1C(O)CC1C3(C)CCC(OC4OC(CO)C(O)C(O)C4O)C(C)(C)C3CCC21C
INCHIKEY: SWIROVJVGRGSPO-UHFFFAOYNA-N
Ontology: Triterpene saponins
COLLISIONENERGY: 30
FORMULA: C42H72O13
RETENTIONTIME: 7.656466
IONMODE: Negative
Comment: registered in RIKEN PlaSMA
Num Peaks: 41
71.01025	54
71.01646	186
73.03032	57
83.01261	57
87.01048	73
89.01841	73
89.02338	262
96.01343	151
101.01968	142
101.02689	407
102.02837	57
109.03858	189
113.02542	770
113.03333	69
114.02233	60
119.0312	202
119.03694	79
120.03799	54
129.02226	54
132.04233	164
143.02934	50
143.03804	76
159.02263	76
159.02773	155
160.03412	104
161.04541	789
162.04674	265
162.05478	73
179.05656	107
437.11533	63
441.39291	50
459.36716	82
459.38513	205
460.38727	85
532.62457	63
621.41345	66
621.44287	1000
622.42987	50
622.45734	132
623.43842	129
747.25183	50

NAME: Ginsenoside F2
PRECURSORMZ: 829.49549525183
PRECURSORTYPE: [M+FA-H]-
INSTRUMENTTYPE: LC-ESI-QTOF
SMILES: CC(C)=CCCC(C)(OC1OC(CO)C(O)C(O)C1O)C1CCC2(C)C1C(O)CC1C3(C)CCC(OC4OC(CO)C(O)C(O)C4O)C(C)(C)C3CCC21C
INCHIKEY: SWIROVJVGRGSPO-UHFFFAOYNA-N
Ontology: Triterpene saponins
COLLISIONENERGY: 30
FORMULA: C42H72O13
RETENTIONTIME: 7.656466
IONMODE: Negative
Comment: registered in RIKEN PlaSMA
Num Peaks: 76
61.53992	6
71.01278	88
71.02016	6
73.02802	17
85.02992	22
87.00871	13
87.01294	11
87.04456	9
89.02349	200
90.02621	7
91.02746	6
95.02087	8
97.02818	25
99.00809	28
101.02289	246
102.02728	22
103.03172	6
113.02372	221
113.03471	5
114.02367	10
115.04824	5
119.00066	6
119.03315	126
120.03818	20
125.02617	5
129.02052	6
131.03278	22
143.03346	149
144.02829	6
144.03923	6
149.04079	19
149.04924	16
159.02968	40
161.04407	610
161.05443	61
162.04947	44
179.04698	32
179.05527	141
180.05495	19
202.8774	9
250.72627	7
311.94226	9
318.56702	7
319.27469	6
324.13376	6
352.55026	5
459.38651	36
460.39081	21
461.38614	9
461.3992	6
462.3862	6
471.86649	6
540.46539	6
603.41394	9
604.43646	8
620.4538	8
621.4375	1000
622.4375	328
622.47333	35
623.4425	76
626.22742	6
663.44067	9
689.38623	8
708.17493	8
725.06299	7
783.47321	126
783.49927	251
783.70099	6
784.49579	193
785.46185	6
785.4931	27
785.57312	9
786.5437	5
810.44098	6
829.47089	58
829.5047	103

NAME: Ginsenoside Rb3
PRECURSORMZ: 1077.58509854783
PRECURSORTYPE: [M-H]-
INSTRUMENTTYPE: LC-ESI-QTOF
SMILES: CCC(C)=CCCC(C)(OC1OC(COC2OCC(O)C(O)C2O)C(O)C(O)C1O)C1CCC2(C)C1C(O)CC1C2CCC2C(C)(C)C(CCC12C)OC1OC(CO)C(O)C(O)C1OC1OC(CO)C(O)C(O)C1O
INCHIKEY: SNPYJWZTTUVUIS-UHFFFAOYNA-N
Ontology: Triterpenoids
COLLISIONENERGY: 50
FORMULA: C53H90O22
RETENTIONTIME: 6.186333
IONMODE: Negative
Comment: registered in RIKEN PlaSMA
Num Peaks: 150
59.01256	25
71.01316	206
73.02296	6
73.02906	20
81.03667	9
83.00861	6
83.01605	6
85.02755	37
86.79456	9
87.05032	6
88.21047	7
89.02336	580
90.02602	42
91.0261	32
93.09306	7
97.02811	33
99.00848	12
100.00591	21
101.0234	467
102.02119	8
102.03078	12
103.90671	6
107.01325	13
107.03053	7
108.02252	6
110.60105	6
113.02375	163
114.02708	13
114.03284	7
115.03587	7
119.03162	124
119.16144	8
122.35761	8
125.02436	54
131.03384	310
131.05396	6
131.8726	12
132.03783	13
133.03604	6
133.05191	10
143.03183	85
143.58525	6
148.976	6
149.02487	7
149.04431	1000
149.15099	6
149.9252	6
150.0461	75
150.79161	6
151.04842	20
153.05119	7
154.72299	7
158.23328	7
159.02791	63
161.04398	299
162.05153	9
163.04155	9
163.63058	6
171.67407	7
179.05167	50
180.05008	9
191.05519	298
192.05875	47
193.06389	8
199.06114	6
221.05862	76
221.07011	30
221.0887	6
233.05457	16
233.06981	7
251.05367	8
251.07359	16
287.86023	8
293.0863	24
293.1604	11
294.08682	14
295.0863	9
311.09894	7
326.70731	9
345.22968	7
373.49252	18
404.41321	6
414.54312	10
436.17496	6
443.81018	6
459.3757	28
459.397	20
460.38351	35
461.38828	12
461.40994	6
489.62634	8
490.57074	6
505.67172	6
522.23407	9
538.65112	8
555.43237	8
603.43237	12
604.43213	18
606.40863	6
617.66669	6
621.43201	78
621.44916	41
622.28534	10
622.44342	76
622.4754	12
622.53955	6
623.44202	27
623.46509	7
624.37054	6
691.47363	6
735.56848	6
736.44379	7
765.43701	6
765.46802	28
765.50214	15
765.55609	6
766.46991	23
766.49835	39
783.4325	6
783.49127	144
783.51538	34
784.47577	9
784.49872	41
784.52356	40
784.59534	6
785.47473	15
786.49127	9
788.85419	6
789.73297	6
800.263	6
897.50116	6
915.51746	17
915.55383	27
915.60852	6
916.54395	9
917.53705	11
922.29602	6
922.67395	8
945.51392	18
945.55286	101
946.55872	42
947.52802	14
947.55994	8
947.61761	6
948.53876	6
1009.49512	6
1077.55664	127
1077.59351	212
1077.62988	38
1077.70911	6

NAME: Ginsenoside Rb3
PRECURSORMZ: 1123.59057785183
PRECURSORTYPE: [M+FA-H]-
INSTRUMENTTYPE: LC-ESI-QTOF
SMILES: CCC(C)=CCCC(C)(OC1OC(COC2OCC(O)C(O)C2O)C(O)C(O)C1O)C1CCC2(C)C1C(O)CC1C2CCC2C(C)(C)C(CCC12C)OC1OC(CO)C(O)C(O)C1OC1OC(CO)C(O)C(O)C1O
INCHIKEY: SNPYJWZTTUVUIS-UHFFFAOYNA-N
Ontology: Triterpenoids
COLLISIONENERGY: 50
FORMULA: C53H90O22
RETENTIONTIME: 6.186333
IONMODE: Negative
Comment: registered in RIKEN PlaSMA
Num Peaks: 155
52.55347	12
52.76561	10
59.0153	14
59.01895	8
71.01277	91
73.02924	25
76.82996	9
77.02357	10
85.027	8
87.00562	18
89.0234	281
90.02702	19
99.0498	8
101.02261	166
101.03463	9
102.02469	20
113.02146	111
113.02885	23
114.02638	8
115.03032	11
116.02547	8
117.01469	16
119.03293	72
119.03965	19
125.02127	27
126.03436	12
129.01257	10
131.0322	216
131.69257	11
132.03131	8
132.60916	13
143.03474	39
146.48563	16
149.04443	1000
149.11093	8
150.04378	38
151.04259	13
159.02896	35
160.03125	9
161.03561	24
161.04504	125
163.05193	9
179.05437	15
179.06105	16
191.05394	190
191.06651	11
197.7455	8
215.05702	8
216.99902	21
221.0665	95
233.06697	28
251.07991	43
275.07901	27
276.15894	8
293.07938	69
293.09268	76
294.07581	8
319.32846	10
401.52631	9
422.18716	11
431.53311	9
438.46262	8
439.8006	16
444.39297	8
459.36533	9
466.72427	10
467.9538	8
471.86987	14
478.52673	11
580.02747	9
603.42114	8
603.44635	9
605.39404	22
616.92548	13
618.38855	10
620.60919	8
621.39764	9
621.4187	38
621.44885	55
622.0332	10
622.44025	20
622.47327	8
623.44958	9
623.46509	9
663.40027	11
676.53271	10
709.71179	8
711.69232	10
713.85242	10
748.69537	10
765.47412	52
766.47449	8
766.51038	30
766.86017	8
767.49561	8
767.54089	8
770.18195	15
783.47229	109
783.50665	155
784.06329	8
784.45166	16
784.48444	86
784.51556	48
785.46039	29
785.55511	8
785.98425	9
786.51343	11
789.35486	18
789.73218	20
789.77472	8
796.59503	13
869.66425	8
897.67767	9
915.53015	66
915.56415	74
916.53516	44
917.53882	9
922.09052	8
924.43109	8
927.53503	8
927.56641	10
944.42993	8
945.4884	12
945.5379	144
945.58057	29
946.53186	42
946.5647	33
947.52509	9
947.55042	18
947.60529	12
948.60425	12
949.59332	26
952.65686	13
956.60059	9
960.9433	19
968.47681	16
983.02844	16
987.9267	8
1017.05188	8
1077.38977	10
1077.48022	8
1077.58411	850
1077.72229	8
1078.53772	57
1078.58398	437
1078.64307	74
1078.69128	8
1079.57922	123
1079.61536	76
1080.55261	12
1080.59033	31
1081.37012	8
1081.56824	24
1081.60803	9
1082.58301	8

NAME: Ginsenoside F2
PRECURSORMZ: 783.49001594783
PRECURSORTYPE: [M-H]-
INSTRUMENTTYPE: LC-ESI-QTOF
SMILES: CC(C)=CCCC(C)(OC1OC(CO)C(O)C(O)C1O)C1CCC2(C)C1C(O)CC1C3(C)CCC(OC4OC(CO)C(O)C(O)C4O)C(C)(C)C3CCC21C
INCHIKEY: SWIROVJVGRGSPO-UHFFFAOYNA-N
Ontology: Triterpene saponins
COLLISIONENERGY: 50
FORMULA: C42H72O13
RETENTIONTIME: 7.656466
IONMODE: Negative
Comment: registered in RIKEN PlaSMA
Num Peaks: 20
59.00761	89
59.01194	144
59.01589	68
71.01358	195
85.02818	102
89.02286	831
89.03027	68
101.02223	1000
101.03181	114
113.01652	93
113.02247	203
119.03162	157
119.03938	140
120.03596	114
125.02622	72
125.09035	72
149.04649	72
161.041	165
373.3103	81
459.37534	169

NAME: Ginsenoside F2
PRECURSORMZ: 829.49549525183
PRECURSORTYPE: [M+FA-H]-
INSTRUMENTTYPE: LC-ESI-QTOF
SMILES: CC(C)=CCCC(C)(OC1OC(CO)C(O)C(O)C1O)C1CCC2(C)C1C(O)CC1C3(C)CCC(OC4OC(CO)C(O)C(O)C4O)C(C)(C)C3CCC21C
INCHIKEY: SWIROVJVGRGSPO-UHFFFAOYNA-N
Ontology: Triterpene saponins
COLLISIONENERGY: 50
FORMULA: C42H72O13
RETENTIONTIME: 7.656466
IONMODE: Negative
Comment: registered in RIKEN PlaSMA
Num Peaks: 46
57.02973	22
59.01312	108
71.01212	295
73.02321	22
73.02805	25
75.00751	19
83.01039	50
83.01488	39
83.12638	30
83.14888	27
83.19183	19
85.02811	47
88.01266	19
89.02352	508
90.02828	23
97.03198	28
99.01117	23
101.02273	1000
103.03413	23
113.02331	498
113.19261	19
113.55685	20
114.02944	21
116.92616	21
119.0326	317
120.04148	23
125.09267	19
129.02148	42
130.0201	19
143.03658	70
156.37648	19
156.69696	27
159.03053	124
159.67763	19
161.04422	318
162.05652	39
179.05515	49
376.29626	19
443.32788	20
459.36746	33
459.38617	102
537.32513	21
539.00366	19
621.43127	55
622.45105	58
623.45129	20

NAME: Digitonin
PRECURSORMZ: 1227.56515054783
PRECURSORTYPE: [M-H]-
INSTRUMENTTYPE: LC-ESI-QTOF
SMILES: CC1C2C(OC11CCC(C)CO1)C(O)C1C3CCC4CC(OC5OC(CO)C(OC6OC(CO)C(O)C(OC7OCC(O)C(O)C7O)C6OC6OC(CO)C(O)C(OC7OC(CO)C(O)C(O)C7O)C6O)C(O)C5O)C(O)CC4(C)C3CCC21C
INCHIKEY: UVYVLBIGDKGWPX-UHFFFAOYNA-N
Ontology: Steroidal saponins
COLLISIONENERGY: 10
FORMULA: C56H92O29
RETENTIONTIME: 6.9815
IONMODE: Negative
Comment: registered in RIKEN PlaSMA
Num Peaks: 20
143.0271	7
609.37305	9
716.67572	6
771.39484	5
772.45898	8
781.31415	6
903.43414	40
903.48645	17
904.42926	8
904.47052	8
915.41956	9
929.46497	12
933.46222	6
1048.53674	5
1066.58044	10
1095.50171	49
1095.54358	37
1096.47302	5
1227.31934	6
1227.5697	1000

NAME: Digitonin
PRECURSORMZ: 1273.57062985183
PRECURSORTYPE: [M+FA-H]-
INSTRUMENTTYPE: LC-ESI-QTOF
SMILES: CC1C2C(OC11CCC(C)CO1)C(O)C1C3CCC4CC(OC5OC(CO)C(OC6OC(CO)C(O)C(OC7OCC(O)C(O)C7O)C6OC6OC(CO)C(O)C(OC7OC(CO)C(O)C(O)C7O)C6O)C(O)C5O)C(O)CC4(C)C3CCC21C
INCHIKEY: UVYVLBIGDKGWPX-UHFFFAOYNA-N
Ontology: Steroidal saponins
COLLISIONENERGY: 10
FORMULA: C56H92O29
RETENTIONTIME: 6.9815
IONMODE: Negative
Comment: registered in RIKEN PlaSMA
Num Peaks: 16
903.47443	16
1095.50598	11
1095.5387	6
1096.54797	5
1097.5332	5
1227.56458	1000
1227.63159	15
1228.57056	628
1228.66455	6
1229.57422	260
1230.56299	57
1230.60522	30
1231.55005	11
1231.59619	12
1273.57605	38
1273.62622	9

NAME: Ginsenoside Rg6
PRECURSORMZ: 765.47945124783
PRECURSORTYPE: [M-H]-
INSTRUMENTTYPE: LC-ESI-QTOF
SMILES: CC1OC(OC2C(O)C(O)C(CO)OC2OC2CC3(C)C(CC(O)C4C(CCC34C)C(=C)CCC=C(C)C)C3(C)CCC(O)C(C)(C)C23)C(O)C(O)C1O
INCHIKEY: ZVTVWDXRNMHGNY-UHFFFAOYNA-N
Ontology: Triterpenoids
COLLISIONENERGY: 10
FORMULA: C42H70O12
RETENTIONTIME: 7.570883
IONMODE: Negative
Comment: registered in RIKEN PlaSMA
Num Peaks: 10
89.02065	25
101.02409	37
145.0517	31
159.03336	31
161.04311	66
163.05844	25
205.0728	42
365.11182	25
620.42017	25
765.48169	1000

NAME: Ginsenoside Rg6
PRECURSORMZ: 811.48493055183
PRECURSORTYPE: [M+FA-H]-
INSTRUMENTTYPE: LC-ESI-QTOF
SMILES: CC1OC(OC2C(O)C(O)C(CO)OC2OC2CC3(C)C(CC(O)C4C(CCC34C)C(=C)CCC=C(C)C)C3(C)CCC(O)C(C)(C)C23)C(O)C(O)C1O
INCHIKEY: ZVTVWDXRNMHGNY-UHFFFAOYNA-N
Ontology: Triterpenoids
COLLISIONENERGY: 10
FORMULA: C42H70O12
RETENTIONTIME: 7.570883
IONMODE: Negative
Comment: registered in RIKEN PlaSMA
Num Peaks: 18
73.02881	5
101.02215	36
103.04111	10
113.02197	16
143.03452	9
159.02812	10
161.04597	77
163.05975	25
205.06807	11
601.42017	5
619.41827	60
620.41943	28
765.47699	1000
766.48291	463
766.54578	7
767.48578	119
768.49121	16
811.48352	313

NAME: Ginsenoside Rg3(S-FORM)
PRECURSORMZ: 783.49001594783
PRECURSORTYPE: [M-H]-
INSTRUMENTTYPE: LC-ESI-QTOF
SMILES: CC(C)=CCCC(C)(O)C1CCC2(C)C1C(O)CC1C3(C)CCC(OC4OC(CO)C(O)C(O)C4OC4OC(CO)C(O)C(O)C4O)C(C)(C)C3CCC21C
INCHIKEY: RWXIFXNRCLMQCD-UHFFFAOYNA-N
Ontology: Triterpene saponins
COLLISIONENERGY: 10
FORMULA: C42H72O13
RETENTIONTIME: 8.197184
IONMODE: Negative
Comment: registered in RIKEN PlaSMA
Num Peaks: 17
89.02297	12
101.02286	31
101.02898	9
125.02316	24
161.04478	127
163.05124	12
245.06438	22
417.77975	14
418.05933	10
459.41144	12
460.39212	11
461.38205	22
621.42401	53
622.45361	55
779.85443	10
783.48981	1000
783.55426	10

NAME: Ginsenoside Rg3(S-FORM)
PRECURSORMZ: 829.49549525183
PRECURSORTYPE: [M+FA-H]-
INSTRUMENTTYPE: LC-ESI-QTOF
SMILES: CC(C)=CCCC(C)(O)C1CCC2(C)C1C(O)CC1C3(C)CCC(OC4OC(CO)C(O)C(O)C4OC4OC(CO)C(O)C(O)C4O)C(C)(C)C3CCC21C
INCHIKEY: RWXIFXNRCLMQCD-UHFFFAOYNA-N
Ontology: Triterpene saponins
COLLISIONENERGY: 10
FORMULA: C42H72O13
RETENTIONTIME: 8.197184
IONMODE: Negative
Comment: registered in RIKEN PlaSMA
Num Peaks: 16
101.02358	22
113.02489	12
119.03337	12
159.03053	9
161.04401	42
459.38663	12
460.392	5
621.43658	39
622.43817	15
783.4906	1000
783.56531	7
784.49231	480
785.49445	114
786.4834	11
786.50598	18
829.49335	239

NAME: Ginsenoside Rh2 (S-FORM)
PRECURSORMZ: 667.442671804
PRECURSORTYPE: [M+FA-H]-
INSTRUMENTTYPE: LC-ESI-QTOF
SMILES: CC(C)=CCCC(C)(O)C1CCC2(C)C1C(O)CC1C3(C)CCC(OC4OC(CO)C(O)C(O)C4O)C(C)(C)C3CCC21C
INCHIKEY: CKUVNOCSBYYHIS-UHFFFAOYNA-N
Ontology: Triterpene saponins
COLLISIONENERGY: 10
FORMULA: C36H62O8
RETENTIONTIME: 9.842167
IONMODE: Negative
Comment: registered in RIKEN PlaSMA
Num Peaks: 2
621.43555	17
667.44238	1000

NAME: Digitonin
PRECURSORMZ: 1227.56515054783
PRECURSORTYPE: [M-H]-
INSTRUMENTTYPE: LC-ESI-QTOF
SMILES: CC1C2C(OC11CCC(C)CO1)C(O)C1C3CCC4CC(OC5OC(CO)C(OC6OC(CO)C(O)C(OC7OCC(O)C(O)C7O)C6OC6OC(CO)C(O)C(OC7OC(CO)C(O)C(O)C7O)C6O)C(O)C5O)C(O)CC4(C)C3CCC21C
INCHIKEY: UVYVLBIGDKGWPX-UHFFFAOYNA-N
Ontology: Steroidal saponins
COLLISIONENERGY: 10
FORMULA: C56H92O29
RETENTIONTIME: 6.9815
IONMODE: Negative
Comment: registered in RIKEN PlaSMA
Num Peaks: 11
65.83821	5
549.60626	9
567.14404	7
575.19891	6
583.24066	5
637.36871	6
725.19611	19
866.01904	7
1217.30676	6
1227.56396	1000
1227.66479	11

NAME: Digitonin
PRECURSORMZ: 1273.57062985183
PRECURSORTYPE: [M+FA-H]-
INSTRUMENTTYPE: LC-ESI-QTOF
SMILES: CC1C2C(OC11CCC(C)CO1)C(O)C1C3CCC4CC(OC5OC(CO)C(OC6OC(CO)C(O)C(OC7OCC(O)C(O)C7O)C6OC6OC(CO)C(O)C(OC7OC(CO)C(O)C(O)C7O)C6O)C(O)C5O)C(O)CC4(C)C3CCC21C
INCHIKEY: UVYVLBIGDKGWPX-UHFFFAOYNA-N
Ontology: Steroidal saponins
COLLISIONENERGY: 10
FORMULA: C56H92O29
RETENTIONTIME: 6.9815
IONMODE: Negative
Comment: registered in RIKEN PlaSMA
Num Peaks: 13
809.21906	7
878.87891	6
1217.78528	6
1227.56323	1000
1227.64551	7
1228.57007	549
1229.46436	7
1229.54736	107
1229.58142	65
1230.55664	78
1230.59778	19
1231.53918	14
1273.56763	333

NAME: Ginsenoside Rg6
PRECURSORMZ: 765.47945124783
PRECURSORTYPE: [M-H]-
INSTRUMENTTYPE: LC-ESI-QTOF
SMILES: CC1OC(OC2C(O)C(O)C(CO)OC2OC2CC3(C)C(CC(O)C4C(CCC34C)C(=C)CCC=C(C)C)C3(C)CCC(O)C(C)(C)C23)C(O)C(O)C1O
INCHIKEY: ZVTVWDXRNMHGNY-UHFFFAOYNA-N
Ontology: Triterpenoids
COLLISIONENERGY: 10
FORMULA: C42H70O12
RETENTIONTIME: 7.570883
IONMODE: Negative
Comment: registered in RIKEN PlaSMA
Num Peaks: 4
129.48329	29
366.22186	24
613.07648	15
765.4809	1000

NAME: Ginsenoside Rg6
PRECURSORMZ: 811.48493055183
PRECURSORTYPE: [M+FA-H]-
INSTRUMENTTYPE: LC-ESI-QTOF
SMILES: CC1OC(OC2C(O)C(O)C(CO)OC2OC2CC3(C)C(CC(O)C4C(CCC34C)C(=C)CCC=C(C)C)C3(C)CCC(O)C(C)(C)C23)C(O)C(O)C1O
INCHIKEY: ZVTVWDXRNMHGNY-UHFFFAOYNA-N
Ontology: Triterpenoids
COLLISIONENERGY: 10
FORMULA: C42H70O12
RETENTIONTIME: 7.570883
IONMODE: Negative
Comment: registered in RIKEN PlaSMA
Num Peaks: 7
765.47839	379
766.48029	159
767.48291	29
767.50916	13
768.46997	9
768.5	8
811.48431	1000

NAME: Ginsenoside Rg3(S-FORM)
PRECURSORMZ: 783.49001594783
PRECURSORTYPE: [M-H]-
INSTRUMENTTYPE: LC-ESI-QTOF
SMILES: CC(C)=CCCC(C)(O)C1CCC2(C)C1C(O)CC1C3(C)CCC(OC4OC(CO)C(O)C(O)C4OC4OC(CO)C(O)C(O)C4O)C(C)(C)C3CCC21C
INCHIKEY: RWXIFXNRCLMQCD-UHFFFAOYNA-N
Ontology: Triterpene saponins
COLLISIONENERGY: 10
FORMULA: C42H72O13
RETENTIONTIME: 8.197184
IONMODE: Negative
Comment: registered in RIKEN PlaSMA
Num Peaks: 7
355.31653	9
374.86533	11
442.70084	15
551.34424	13
589.75873	9
783.48962	1000
783.54871	20

NAME: Digitonin
PRECURSORMZ: 1227.56515054783
PRECURSORTYPE: [M-H]-
INSTRUMENTTYPE: LC-ESI-QTOF
SMILES: CC1C2C(OC11CCC(C)CO1)C(O)C1C3CCC4CC(OC5OC(CO)C(OC6OC(CO)C(O)C(OC7OCC(O)C(O)C7O)C6OC6OC(CO)C(O)C(OC7OC(CO)C(O)C(O)C7O)C6O)C(O)C5O)C(O)CC4(C)C3CCC21C
INCHIKEY: UVYVLBIGDKGWPX-UHFFFAOYNA-N
Ontology: Steroidal saponins
COLLISIONENERGY: 30
FORMULA: C56H92O29
RETENTIONTIME: 6.9815
IONMODE: Negative
Comment: registered in RIKEN PlaSMA
Num Peaks: 13
589.24762	6
594.96014	5
799.5874	8
903.45599	9
903.48029	6
1070.10132	6
1095.48804	7
1095.52771	6
1096.49353	5
1096.54004	11
1097.5321	9
1227.5647	1000
1227.69312	5

NAME: Digitonin
PRECURSORMZ: 1273.57062985183
PRECURSORTYPE: [M+FA-H]-
INSTRUMENTTYPE: LC-ESI-QTOF
SMILES: CC1C2C(OC11CCC(C)CO1)C(O)C1C3CCC4CC(OC5OC(CO)C(OC6OC(CO)C(O)C(OC7OCC(O)C(O)C7O)C6OC6OC(CO)C(O)C(OC7OC(CO)C(O)C(O)C7O)C6O)C(O)C5O)C(O)CC4(C)C3CCC21C
INCHIKEY: UVYVLBIGDKGWPX-UHFFFAOYNA-N
Ontology: Steroidal saponins
COLLISIONENERGY: 30
FORMULA: C56H92O29
RETENTIONTIME: 6.9815
IONMODE: Negative
Comment: registered in RIKEN PlaSMA
Num Peaks: 5
1227.56592	1000
1228.57117	652
1229.5769	202
1230.57336	55
1231.57727	6

NAME: Ginsenoside Rg6
PRECURSORMZ: 765.47945124783
PRECURSORTYPE: [M-H]-
INSTRUMENTTYPE: LC-ESI-QTOF
SMILES: CC1OC(OC2C(O)C(O)C(CO)OC2OC2CC3(C)C(CC(O)C4C(CCC34C)C(=C)CCC=C(C)C)C3(C)CCC(O)C(C)(C)C23)C(O)C(O)C1O
INCHIKEY: ZVTVWDXRNMHGNY-UHFFFAOYNA-N
Ontology: Triterpenoids
COLLISIONENERGY: 30
FORMULA: C42H70O12
RETENTIONTIME: 7.570883
IONMODE: Negative
Comment: registered in RIKEN PlaSMA
Num Peaks: 24
59.01073	228
73.02732	134
97.02705	69
101.02079	353
101.02719	99
102.02771	181
103.03929	112
103.04563	73
113.02406	147
127.04449	69
143.03099	86
145.04729	78
146.05252	69
161.04366	444
161.05463	233
460.1459	73
580.70331	73
619.41046	177
619.43005	220
619.46552	69
620.43402	241
620.74573	112
621.41949	95
765.47443	1000

NAME: Ginsenoside Rg6
PRECURSORMZ: 811.48493055183
PRECURSORTYPE: [M+FA-H]-
INSTRUMENTTYPE: LC-ESI-QTOF
SMILES: CC1OC(OC2C(O)C(O)C(CO)OC2OC2CC3(C)C(CC(O)C4C(CCC34C)C(=C)CCC=C(C)C)C3(C)CCC(O)C(C)(C)C23)C(O)C(O)C1O
INCHIKEY: ZVTVWDXRNMHGNY-UHFFFAOYNA-N
Ontology: Triterpenoids
COLLISIONENERGY: 30
FORMULA: C42H70O12
RETENTIONTIME: 7.570883
IONMODE: Negative
Comment: registered in RIKEN PlaSMA
Num Peaks: 23
71.01151	12
89.02293	15
101.02378	44
103.03815	9
113.02103	10
119.03475	15
143.03246	6
159.02995	7
161.04468	123
162.04816	9
163.06052	22
205.06952	20
601.4079	22
602.41217	9
603.41876	5
619.42163	148
620.42395	75
621.42609	14
765.47723	1000
766.48041	454
767.48761	117
768.4762	11
768.4989	11

NAME: Ginsenoside Rg3(S-FORM)
PRECURSORMZ: 783.49001594783
PRECURSORTYPE: [M-H]-
INSTRUMENTTYPE: LC-ESI-QTOF
SMILES: CC(C)=CCCC(C)(O)C1CCC2(C)C1C(O)CC1C3(C)CCC(OC4OC(CO)C(O)C(O)C4OC4OC(CO)C(O)C(O)C4O)C(C)(C)C3CCC21C
INCHIKEY: RWXIFXNRCLMQCD-UHFFFAOYNA-N
Ontology: Triterpene saponins
COLLISIONENERGY: 30
FORMULA: C42H72O13
RETENTIONTIME: 8.197184
IONMODE: Negative
Comment: registered in RIKEN PlaSMA
Num Peaks: 36
59.01284	24
71.01138	37
73.02836	97
87.00789	19
89.02169	20
89.02612	18
99.00814	18
101.02453	146
103.04165	21
113.01845	49
113.02625	58
119.03198	26
125.02566	16
143.03647	37
149.04291	33
159.02835	16
159.03607	22
161.04277	423
179.05182	16
436.87567	16
459.38895	58
459.4248	20
460.37979	17
552.84717	25
555.41254	19
621.41498	52
621.43994	61
621.46692	16
622.42883	51
622.4566	23
622.66748	17
622.84637	16
623.44257	33
624.03918	18
625.43341	20
783.49023	1000

NAME: Digitonin
PRECURSORMZ: 1227.56515054783
PRECURSORTYPE: [M-H]-
INSTRUMENTTYPE: LC-ESI-QTOF
SMILES: CC1C2C(OC11CCC(C)CO1)C(O)C1C3CCC4CC(OC5OC(CO)C(OC6OC(CO)C(O)C(OC7OCC(O)C(O)C7O)C6OC6OC(CO)C(O)C(OC7OC(CO)C(O)C(O)C7O)C6O)C(O)C5O)C(O)CC4(C)C3CCC21C
INCHIKEY: UVYVLBIGDKGWPX-UHFFFAOYNA-N
Ontology: Steroidal saponins
COLLISIONENERGY: 50
FORMULA: C56H92O29
RETENTIONTIME: 6.9815
IONMODE: Negative
Comment: registered in RIKEN PlaSMA
Num Peaks: 143
71.01375	10
87.00852	61
87.76777	12
89.02048	19
89.02343	54
90.02532	45
97.0243	24
101.02343	17
101.02793	20
106.39121	11
113.022	116
113.0303	46
114.0309	20
115.02728	20
115.03735	12
119.03367	35
125.02145	63
131.03346	32
133.02451	11
135.0426	15
139.6442	11
143.03569	134
144.03711	35
149.04889	12
161.02444	13
161.04488	151
163.04189	14
179.05797	76
180.06233	15
181.05426	24
190.71237	10
195.07053	11
203.06021	11
209.04721	13
214.03789	14
221.034	22
225.95482	12
245.06496	25
245.07307	20
282.78958	11
293.0838	12
293.09406	17
307.06891	11
322.97571	15
323.1073	56
390.29416	17
391.28516	15
395.10599	14
408.10873	10
416.88281	17
455.61578	11
456.93826	11
470.15182	13
485.14575	11
485.16965	11
497.01321	11
528.48834	15
557.58356	10
592.35834	15
609.31378	11
609.36407	707
609.40131	78
610.36493	257
610.40497	14
611.37286	12
611.39514	23
612.36359	15
612.38666	13
617.17096	12
627.43115	13
687.38751	11
688.41394	12
704.00592	10
717.38708	28
718.39929	12
719.40753	12
735.33118	22
735.95892	10
742.84283	16
758.5014	15
771.40802	292
771.43536	87
772.39276	50
772.43726	72
772.45648	22
772.48871	14
773.22223	17
773.36444	11
773.40643	38
773.427	37
777.24921	12
821.08502	11
845.19818	12
865.52747	10
866.82928	11
886.82654	11
900.16248	14
903.45764	1000
903.5246	40
904.46326	279
904.5116	42
905.44299	25
905.49017	94
906.43231	12
906.46619	11
915.44611	20
918.49609	18
923.10852	13
933.42279	10
933.46088	43
934.48077	20
935.44714	35
935.48285	11
936.51691	11
1017.13062	11
1047.46191	20
1047.51807	11
1047.56396	12
1048.46997	21
1049.48792	23
1065.48645	32
1066.52185	24
1067.66968	11
1068.5553	15
1095.44971	12
1095.49292	131
1095.53345	517
1096.47949	37
1096.5199	164
1096.55872	93
1096.69104	28
1097.47974	31
1097.526	37
1097.56189	58
1099.54028	10
1099.62195	10
1102.18579	16
1121.08179	10
1156.40881	11
1222.14014	12
1227.14978	10
1227.5542	288
1227.59827	160

NAME: Digitonin
PRECURSORMZ: 1273.57062985183
PRECURSORTYPE: [M+FA-H]-
INSTRUMENTTYPE: LC-ESI-QTOF
SMILES: CC1C2C(OC11CCC(C)CO1)C(O)C1C3CCC4CC(OC5OC(CO)C(OC6OC(CO)C(O)C(OC7OCC(O)C(O)C7O)C6OC6OC(CO)C(O)C(OC7OC(CO)C(O)C(O)C7O)C6O)C(O)C5O)C(O)CC4(C)C3CCC21C
INCHIKEY: UVYVLBIGDKGWPX-UHFFFAOYNA-N
Ontology: Steroidal saponins
COLLISIONENERGY: 50
FORMULA: C56H92O29
RETENTIONTIME: 6.9815
IONMODE: Negative
Comment: registered in RIKEN PlaSMA
Num Peaks: 155
87.01034	6
89.02482	23
90.02839	5
97.02786	6
101.02049	16
106.35843	5
106.96313	6
113.01642	10
113.02361	31
114.03295	6
115.03706	6
119.03501	6
125.02111	60
125.0307	9
131.03284	14
143.02556	10
143.03453	48
149.04628	12
161.04079	70
161.05318	19
169.03581	13
173.0511	6
179.05342	15
179.05914	19
180.05257	6
181.05019	7
182.04747	5
203.05612	13
207.06203	6
212.05215	7
223.0631	6
236.08499	7
241.06606	7
275.07455	17
323.09964	28
324.08673	10
343.66824	11
398.29861	5
416.36984	6
437.11865	10
452.69705	9
497.6329	6
521.60199	9
523.64661	6
533.32611	7
537.33685	5
538.18353	6
543.34595	9
548.80646	8
570.35376	6
571.49323	7
609.35431	147
609.37396	142
610.36798	96
611.36768	19
612.37854	7
614.37805	10
649.27515	8
660.22308	6
673.41278	8
686.68121	7
705.3667	10
705.3985	22
705.44849	5
717.37091	21
717.39337	21
718.39972	6
757.82501	9
766.255	10
771.42017	104
771.66229	5
772.35907	10
772.41418	37
773.42438	8
773.45032	7
774.39911	9
774.43103	6
774.89368	6
775.37292	6
777.2486	5
777.43646	7
778.18408	5
793.08368	8
805.15106	5
828.1358	5
865.73663	6
884.7912	8
889.7066	6
903.43481	158
903.45972	493
903.55499	10
904.46149	185
904.50671	15
905.43353	40
905.47137	75
906.46143	27
906.49945	7
907.45941	18
910.10822	6
915.47064	10
933.32916	13
933.466	10
934.46649	23
934.51239	5
935.4718	5
936.46674	7
984.48773	8
999.48169	5
1020.85931	6
1047.48206	12
1047.53064	10
1049.54736	6
1050.08496	5
1065.5144	28
1066.51672	21
1066.57288	5
1067.479	5
1078.88782	5
1095.49841	206
1095.52527	494
1095.62903	9
1095.67163	9
1096.50085	94
1096.54492	128
1096.5896	21
1097.52722	88
1097.61938	8
1098.55872	21
1098.63062	6
1099.51575	14
1100.80896	5
1101.89941	6
1102.22632	6
1102.54456	9
1139.55725	7
1155.18347	6
1164.08716	6
1185.31519	5
1227.15503	5
1227.27563	6
1227.56226	1000
1227.66846	20
1228.47522	5
1228.56396	408
1228.60815	128
1229.01074	6
1229.56787	203
1229.62634	34
1229.71265	5
1230.5481	10
1230.60034	30
1230.7926	5
1231.54736	10
1232.55933	5
1251.39392	6

NAME: Ginsenoside Rg6
PRECURSORMZ: 765.47945124783
PRECURSORTYPE: [M-H]-
INSTRUMENTTYPE: LC-ESI-QTOF
SMILES: CC1OC(OC2C(O)C(O)C(CO)OC2OC2CC3(C)C(CC(O)C4C(CCC34C)C(=C)CCC=C(C)C)C3(C)CCC(O)C(C)(C)C23)C(O)C(O)C1O
INCHIKEY: ZVTVWDXRNMHGNY-UHFFFAOYNA-N
Ontology: Triterpenoids
COLLISIONENERGY: 50
FORMULA: C42H70O12
RETENTIONTIME: 7.570883
IONMODE: Negative
Comment: registered in RIKEN PlaSMA
Num Peaks: 13
55.01694	123
59.01439	112
71.01275	207
85.02666	508
99.003	112
101.02499	1000
103.03286	112
103.03809	101
113.02218	201
113.02879	112
114.02	112
115.04393	162
373.02139	89

NAME: Ginsenoside Rg6
PRECURSORMZ: 811.48493055183
PRECURSORTYPE: [M+FA-H]-
INSTRUMENTTYPE: LC-ESI-QTOF
SMILES: CC1OC(OC2C(O)C(O)C(CO)OC2OC2CC3(C)C(CC(O)C4C(CCC34C)C(=C)CCC=C(C)C)C3(C)CCC(O)C(C)(C)C23)C(O)C(O)C1O
INCHIKEY: ZVTVWDXRNMHGNY-UHFFFAOYNA-N
Ontology: Triterpenoids
COLLISIONENERGY: 50
FORMULA: C42H70O12
RETENTIONTIME: 7.570883
IONMODE: Negative
Comment: registered in RIKEN PlaSMA
Num Peaks: 86
51.91192	9
57.03425	17
58.48943	7
59.0126	203
59.07403	8
60.01928	9
63.51756	9
71.0127	271
71.02061	7
71.31785	9
72.99358	8
73.02781	152
75.03006	9
81.03431	8
83.01126	42
83.01662	12
85.02869	227
86.03311	7
87.00587	23
87.01055	10
89.02224	221
90.02654	7
97.02198	7
97.02785	9
99.00557	44
99.01084	23
99.04784	8
100.01244	9
101.02314	1000
102.02736	29
103.02478	19
103.0394	225
104.03859	10
104.84864	7
109.03201	9
112.01035	19
112.02323	12
113.0233	560
113.04463	15
114.0248	57
114.03075	20
115.02831	8
115.03992	77
119.02458	11
119.03438	28
125.02037	49
125.02781	17
127.03835	7
129.0098	10
129.01564	36
129.03571	41
131.02835	25
131.03612	57
143.0332	238
144.03542	8
145.0529	27
145.62216	9
148.59169	7
158.80388	7
159.02997	85
160.0304	25
160.04517	10
161.04462	294
161.40407	7
162.04944	16
163.04933	9
205.06956	98
205.08614	8
206.06998	7
227.85497	7
273.35806	7
439.3562	7
456.33444	16
457.34818	22
457.37543	26
458.36295	7
458.38614	14
460.48108	8
487.8356	7
499.38068	7
500.39301	7
511.38135	8
528.38269	16
572.39874	8
619.4173	7
766.46973	16

NAME: Ginsenoside Rg3(S-FORM)
PRECURSORMZ: 783.49001594783
PRECURSORTYPE: [M-H]-
INSTRUMENTTYPE: LC-ESI-QTOF
SMILES: CC(C)=CCCC(C)(O)C1CCC2(C)C1C(O)CC1C3(C)CCC(OC4OC(CO)C(O)C(O)C4OC4OC(CO)C(O)C(O)C4O)C(C)(C)C3CCC21C
INCHIKEY: RWXIFXNRCLMQCD-UHFFFAOYNA-N
Ontology: Triterpene saponins
COLLISIONENERGY: 50
FORMULA: C42H72O13
RETENTIONTIME: 8.197184
IONMODE: Negative
Comment: registered in RIKEN PlaSMA
Num Peaks: 28
59.01738	59
71.01289	98
73.02541	62
83.01438	50
85.02531	47
85.03143	53
87.00851	77
95.01471	50
101.02215	427
102.02612	59
113.02158	1000
119.0348	56
125.02393	68
125.095	65
131.03688	65
154.82175	59
156.39197	47
161.03519	50
161.04486	356
329.24017	50
375.29129	228
376.28226	74
429.31586	71
459.37784	175
460.40079	68
588.40723	65
603.41266	47
621.44806	119

NAME: Ginsenoside Rg3(S-FORM)
PRECURSORMZ: 829.49549525183
PRECURSORTYPE: [M+FA-H]-
INSTRUMENTTYPE: LC-ESI-QTOF
SMILES: CC(C)=CCCC(C)(O)C1CCC2(C)C1C(O)CC1C3(C)CCC(OC4OC(CO)C(O)C(O)C4OC4OC(CO)C(O)C(O)C4O)C(C)(C)C3CCC21C
INCHIKEY: RWXIFXNRCLMQCD-UHFFFAOYNA-N
Ontology: Triterpene saponins
COLLISIONENERGY: 50
FORMULA: C42H72O13
RETENTIONTIME: 8.197184
IONMODE: Negative
Comment: registered in RIKEN PlaSMA
Num Peaks: 84
55.02131	9
59.0127	65
61.01527	5
71.01187	385
72.01378	8
72.99628	5
73.02866	153
74.02963	13
81.03503	7
83.01014	28
83.01479	30
85.02794	213
87.0089	15
87.04493	6
89.02277	228
95.01626	24
96.01595	9
97.02322	9
97.02855	34
99.00691	80
100.00938	5
100.01408	9
100.99507	7
101.0231	1000
102.02612	36
111.00539	6
112.01502	14
112.56177	10
113.02274	545
114.02634	40
119.03294	105
125.02308	73
125.09791	6
129.0172	26
129.02641	7
131.03572	35
132.03401	5
143.03452	123
144.03548	16
159.02831	129
161.04353	364
162.0471	8
179.04176	7
179.05769	9
221.06181	56
221.09171	5
296.72092	5
370.30667	20
375.26645	8
375.28973	33
375.32349	8
422.35513	6
423.37231	6
429.30951	9
441.38428	13
459.38269	193
459.39386	64
459.42108	7
460.37625	28
460.39456	46
461.35431	5
461.38849	6
461.40411	9
495.37885	5
496.35538	6
515.40948	6
519.33234	6
529.39801	5
537.3493	35
538.38568	7
556.40771	7
605.37164	6
605.4151	8
621.43909	105
622.44617	33
622.47015	6
623.45837	14
670.74646	7
783.47406	34
783.52374	11
784.47357	16
784.49976	12
785.49335	11
785.50989	19

NAME: Ginsenoside Rh2 (S-FORM)
PRECURSORMZ: 667.442671804
PRECURSORTYPE: [M+FA-H]-
INSTRUMENTTYPE: LC-ESI-QTOF
SMILES: CC(C)=CCCC(C)(O)C1CCC2(C)C1C(O)CC1C3(C)CCC(OC4OC(CO)C(O)C(O)C4O)C(C)(C)C3CCC21C
INCHIKEY: CKUVNOCSBYYHIS-UHFFFAOYNA-N
Ontology: Triterpene saponins
COLLISIONENERGY: 50
FORMULA: C36H62O8
RETENTIONTIME: 9.842167
IONMODE: Negative
Comment: registered in RIKEN PlaSMA
Num Peaks: 20
60.23502	17
73.02789	43
84.46354	30
87.00698	32
100.00855	22
101.02416	32
102.02671	17
117.92676	23
134.95238	15
161.04739	15
339.50717	21
355.26138	30
375.28864	33
376.05286	55
403.64938	24
605.38275	16
643.3819	15
657.42346	15
667.44678	1000
667.49811	79

NAME: Digitonin
PRECURSORMZ: 1227.56515054783
PRECURSORTYPE: [M-H]-
INSTRUMENTTYPE: LC-ESI-QTOF
SMILES: CC1C2C(OC11CCC(C)CO1)C(O)C1C3CCC4CC(OC5OC(CO)C(OC6OC(CO)C(O)C(OC7OCC(O)C(O)C7O)C6OC6OC(CO)C(O)C(OC7OC(CO)C(O)C(O)C7O)C6O)C(O)C5O)C(O)CC4(C)C3CCC21C
INCHIKEY: UVYVLBIGDKGWPX-UHFFFAOYNA-N
Ontology: Steroidal saponins
COLLISIONENERGY: 10
FORMULA: C56H92O29
RETENTIONTIME: 6.9815
IONMODE: Negative
Comment: registered in RIKEN PlaSMA
Num Peaks: 12
467.13879	7
526.70239	6
612.99286	6
615.56396	9
903.4256	6
903.47296	21
904.46539	16
928.25555	12
1065.51843	11
1095.5177	49
1096.49316	8
1227.56274	1000

NAME: Digitonin
PRECURSORMZ: 1273.57062985183
PRECURSORTYPE: [M+FA-H]-
INSTRUMENTTYPE: LC-ESI-QTOF
SMILES: CC1C2C(OC11CCC(C)CO1)C(O)C1C3CCC4CC(OC5OC(CO)C(OC6OC(CO)C(O)C(OC7OCC(O)C(O)C7O)C6OC6OC(CO)C(O)C(OC7OC(CO)C(O)C(O)C7O)C6O)C(O)C5O)C(O)CC4(C)C3CCC21C
INCHIKEY: UVYVLBIGDKGWPX-UHFFFAOYNA-N
Ontology: Steroidal saponins
COLLISIONENERGY: 10
FORMULA: C56H92O29
RETENTIONTIME: 6.9815
IONMODE: Negative
Comment: registered in RIKEN PlaSMA
Num Peaks: 11
609.3667	5
903.44611	9
1095.50684	8
1095.53406	8
1227.56677	1000
1227.66846	5
1228.56714	666
1229.56555	216
1230.57666	58
1231.57007	9
1273.55945	42

NAME: Ginsenoside Rg6
PRECURSORMZ: 765.47945124783
PRECURSORTYPE: [M-H]-
INSTRUMENTTYPE: LC-ESI-QTOF
SMILES: CC1OC(OC2C(O)C(O)C(CO)OC2OC2CC3(C)C(CC(O)C4C(CCC34C)C(=C)CCC=C(C)C)C3(C)CCC(O)C(C)(C)C23)C(O)C(O)C1O
INCHIKEY: ZVTVWDXRNMHGNY-UHFFFAOYNA-N
Ontology: Triterpenoids
COLLISIONENERGY: 10
FORMULA: C42H70O12
RETENTIONTIME: 7.570883
IONMODE: Negative
Comment: registered in RIKEN PlaSMA
Num Peaks: 16
73.02473	41
101.02728	54
113.02084	26
125.02431	34
128.87164	26
131.03612	36
143.04211	46
161.05058	28
208.06694	29
365.45306	33
595.66516	29
619.42059	28
620.41754	33
765.44781	185
765.48004	1000
765.52423	47

NAME: Ginsenoside Rg6
PRECURSORMZ: 811.48493055183
PRECURSORTYPE: [M+FA-H]-
INSTRUMENTTYPE: LC-ESI-QTOF
SMILES: CC1OC(OC2C(O)C(O)C(CO)OC2OC2CC3(C)C(CC(O)C4C(CCC34C)C(=C)CCC=C(C)C)C3(C)CCC(O)C(C)(C)C23)C(O)C(O)C1O
INCHIKEY: ZVTVWDXRNMHGNY-UHFFFAOYNA-N
Ontology: Triterpenoids
COLLISIONENERGY: 10
FORMULA: C42H70O12
RETENTIONTIME: 7.570883
IONMODE: Negative
Comment: registered in RIKEN PlaSMA
Num Peaks: 24
59.01252	6
71.01299	5
73.02721	6
89.02258	10
101.02285	34
103.03802	21
113.02314	14
119.03342	14
145.05009	5
159.02715	8
161.0394	12
161.04715	53
163.06458	9
205.07007	6
601.40314	6
619.4184	81
620.43445	25
621.43384	7
765.48199	1000
765.54504	7
766.48364	448
767.48938	108
768.4848	15
811.48688	314

NAME: Ginsenoside Rg3(S-FORM)
PRECURSORMZ: 783.49001594783
PRECURSORTYPE: [M-H]-
INSTRUMENTTYPE: LC-ESI-QTOF
SMILES: CC(C)=CCCC(C)(O)C1CCC2(C)C1C(O)CC1C3(C)CCC(OC4OC(CO)C(O)C(O)C4OC4OC(CO)C(O)C(O)C4O)C(C)(C)C3CCC21C
INCHIKEY: RWXIFXNRCLMQCD-UHFFFAOYNA-N
Ontology: Triterpene saponins
COLLISIONENERGY: 10
FORMULA: C42H72O13
RETENTIONTIME: 8.197184
IONMODE: Negative
Comment: registered in RIKEN PlaSMA
Num Peaks: 17
71.0135	13
97.03323	11
101.02702	10
159.024	10
161.02959	11
161.04883	23
347.23221	11
398.19724	10
429.32614	16
444.3634	16
459.37476	31
510.40814	13
605.41406	13
621.42426	38
621.45996	11
622.44092	10
783.48993	1000

NAME: Ginsenoside Rg3(S-FORM)
PRECURSORMZ: 829.49549525183
PRECURSORTYPE: [M+FA-H]-
INSTRUMENTTYPE: LC-ESI-QTOF
SMILES: CC(C)=CCCC(C)(O)C1CCC2(C)C1C(O)CC1C3(C)CCC(OC4OC(CO)C(O)C(O)C4OC4OC(CO)C(O)C(O)C4O)C(C)(C)C3CCC21C
INCHIKEY: RWXIFXNRCLMQCD-UHFFFAOYNA-N
Ontology: Triterpene saponins
COLLISIONENERGY: 10
FORMULA: C42H72O13
RETENTIONTIME: 8.197184
IONMODE: Negative
Comment: registered in RIKEN PlaSMA
Num Peaks: 13
101.02289	23
113.02291	14
119.03806	6
161.04517	50
459.38376	19
621.43555	51
622.44916	12
783.48999	1000
783.55194	6
784.49493	490
785.49493	142
786.50549	14
829.4953	237

NAME: Ginsenoside Rh2 (S-FORM)
PRECURSORMZ: 667.442671804
PRECURSORTYPE: [M+FA-H]-
INSTRUMENTTYPE: LC-ESI-QTOF
SMILES: CC(C)=CCCC(C)(O)C1CCC2(C)C1C(O)CC1C3(C)CCC(OC4OC(CO)C(O)C(O)C4O)C(C)(C)C3CCC21C
INCHIKEY: CKUVNOCSBYYHIS-UHFFFAOYNA-N
Ontology: Triterpene saponins
COLLISIONENERGY: 10
FORMULA: C36H62O8
RETENTIONTIME: 9.842167
IONMODE: Negative
Comment: registered in RIKEN PlaSMA
Num Peaks: 3
621.44885	6
622.45056	5
667.44177	1000

NAME: Digitonin
PRECURSORMZ: 1227.56515054783
PRECURSORTYPE: [M-H]-
INSTRUMENTTYPE: LC-ESI-QTOF
SMILES: CC1C2C(OC11CCC(C)CO1)C(O)C1C3CCC4CC(OC5OC(CO)C(OC6OC(CO)C(O)C(OC7OCC(O)C(O)C7O)C6OC6OC(CO)C(O)C(OC7OC(CO)C(O)C(O)C7O)C6O)C(O)C5O)C(O)CC4(C)C3CCC21C
INCHIKEY: UVYVLBIGDKGWPX-UHFFFAOYNA-N
Ontology: Steroidal saponins
COLLISIONENERGY: 10
FORMULA: C56H92O29
RETENTIONTIME: 6.9815
IONMODE: Negative
Comment: registered in RIKEN PlaSMA
Num Peaks: 9
333.98132	5
632.28906	5
749.13696	8
760.63849	8
894.09155	9
1085.57153	6
1227.56677	1000
1227.71204	8
1227.75293	6

NAME: Digitonin
PRECURSORMZ: 1273.57062985183
PRECURSORTYPE: [M+FA-H]-
INSTRUMENTTYPE: LC-ESI-QTOF
SMILES: CC1C2C(OC11CCC(C)CO1)C(O)C1C3CCC4CC(OC5OC(CO)C(OC6OC(CO)C(O)C(OC7OCC(O)C(O)C7O)C6OC6OC(CO)C(O)C(OC7OC(CO)C(O)C(O)C7O)C6O)C(O)C5O)C(O)CC4(C)C3CCC21C
INCHIKEY: UVYVLBIGDKGWPX-UHFFFAOYNA-N
Ontology: Steroidal saponins
COLLISIONENERGY: 10
FORMULA: C56H92O29
RETENTIONTIME: 6.9815
IONMODE: Negative
Comment: registered in RIKEN PlaSMA
Num Peaks: 16
671.04486	6
720.95325	9
761.32471	7
1226.31311	7
1226.56567	5
1227.5636	1000
1228.56934	612
1228.64624	11
1229.56396	260
1230.56018	54
1230.59131	20
1231.53503	8
1232.58533	6
1253.48108	6
1271.51379	6
1273.5675	446

NAME: Ginsenoside Rg6
PRECURSORMZ: 765.47945124783
PRECURSORTYPE: [M-H]-
INSTRUMENTTYPE: LC-ESI-QTOF
SMILES: CC1OC(OC2C(O)C(O)C(CO)OC2OC2CC3(C)C(CC(O)C4C(CCC34C)C(=C)CCC=C(C)C)C3(C)CCC(O)C(C)(C)C23)C(O)C(O)C1O
INCHIKEY: ZVTVWDXRNMHGNY-UHFFFAOYNA-N
Ontology: Triterpenoids
COLLISIONENERGY: 10
FORMULA: C42H70O12
RETENTIONTIME: 7.570883
IONMODE: Negative
Comment: registered in RIKEN PlaSMA
Num Peaks: 3
313.71487	20
599.42993	14
765.48517	1000

NAME: Ginsenoside Rg6
PRECURSORMZ: 811.48493055183
PRECURSORTYPE: [M+FA-H]-
INSTRUMENTTYPE: LC-ESI-QTOF
SMILES: CC1OC(OC2C(O)C(O)C(CO)OC2OC2CC3(C)C(CC(O)C4C(CCC34C)C(=C)CCC=C(C)C)C3(C)CCC(O)C(C)(C)C23)C(O)C(O)C1O
INCHIKEY: ZVTVWDXRNMHGNY-UHFFFAOYNA-N
Ontology: Triterpenoids
COLLISIONENERGY: 10
FORMULA: C42H70O12
RETENTIONTIME: 7.570883
IONMODE: Negative
Comment: registered in RIKEN PlaSMA
Num Peaks: 6
765.47894	410
766.48083	202
767.46167	16
767.49139	35
811.48682	1000
811.55304	5

NAME: Ginsenoside Rg3(S-FORM)
PRECURSORMZ: 783.49001594783
PRECURSORTYPE: [M-H]-
INSTRUMENTTYPE: LC-ESI-QTOF
SMILES: CC(C)=CCCC(C)(O)C1CCC2(C)C1C(O)CC1C3(C)CCC(OC4OC(CO)C(O)C(O)C4OC4OC(CO)C(O)C(O)C4O)C(C)(C)C3CCC21C
INCHIKEY: RWXIFXNRCLMQCD-UHFFFAOYNA-N
Ontology: Triterpene saponins
COLLISIONENERGY: 10
FORMULA: C42H72O13
RETENTIONTIME: 8.197184
IONMODE: Negative
Comment: registered in RIKEN PlaSMA
Num Peaks: 4
159.89056	7
654.49011	7
752.76093	10
783.48883	1000

NAME: Ginsenoside Rg3(S-FORM)
PRECURSORMZ: 829.49549525183
PRECURSORTYPE: [M+FA-H]-
INSTRUMENTTYPE: LC-ESI-QTOF
SMILES: CC(C)=CCCC(C)(O)C1CCC2(C)C1C(O)CC1C3(C)CCC(OC4OC(CO)C(O)C(O)C4OC4OC(CO)C(O)C(O)C4O)C(C)(C)C3CCC21C
INCHIKEY: RWXIFXNRCLMQCD-UHFFFAOYNA-N
Ontology: Triterpene saponins
COLLISIONENERGY: 10
FORMULA: C42H72O13
RETENTIONTIME: 8.197184
IONMODE: Negative
Comment: registered in RIKEN PlaSMA
Num Peaks: 6
783.4903	539
784.49194	220
785.49982	69
786.4978	8
829.49615	1000
829.55426	5

NAME: Digitonin
PRECURSORMZ: 1227.56515054783
PRECURSORTYPE: [M-H]-
INSTRUMENTTYPE: LC-ESI-QTOF
SMILES: CC1C2C(OC11CCC(C)CO1)C(O)C1C3CCC4CC(OC5OC(CO)C(OC6OC(CO)C(O)C(OC7OCC(O)C(O)C7O)C6OC6OC(CO)C(O)C(OC7OC(CO)C(O)C(O)C7O)C6O)C(O)C5O)C(O)CC4(C)C3CCC21C
INCHIKEY: UVYVLBIGDKGWPX-UHFFFAOYNA-N
Ontology: Steroidal saponins
COLLISIONENERGY: 30
FORMULA: C56H92O29
RETENTIONTIME: 6.9815
IONMODE: Negative
Comment: registered in RIKEN PlaSMA
Num Peaks: 11
512.0965	6
572.10413	6
594.93097	5
872.59131	6
903.43091	8
903.4588	21
921.15314	5
1095.46057	6
1095.54602	16
1227.28516	6
1227.56653	1000

NAME: Digitonin
PRECURSORMZ: 1273.57062985183
PRECURSORTYPE: [M+FA-H]-
INSTRUMENTTYPE: LC-ESI-QTOF
SMILES: CC1C2C(OC11CCC(C)CO1)C(O)C1C3CCC4CC(OC5OC(CO)C(OC6OC(CO)C(O)C(OC7OCC(O)C(O)C7O)C6OC6OC(CO)C(O)C(OC7OC(CO)C(O)C(O)C7O)C6O)C(O)C5O)C(O)CC4(C)C3CCC21C
INCHIKEY: UVYVLBIGDKGWPX-UHFFFAOYNA-N
Ontology: Steroidal saponins
COLLISIONENERGY: 30
FORMULA: C56H92O29
RETENTIONTIME: 6.9815
IONMODE: Negative
Comment: registered in RIKEN PlaSMA
Num Peaks: 7
1227.56348	1000
1228.56702	601
1229.56946	217
1230.52283	9
1230.57959	51
1231.578	13
1232.59485	9

NAME: Ginsenoside Rg6
PRECURSORMZ: 765.47945124783
PRECURSORTYPE: [M-H]-
INSTRUMENTTYPE: LC-ESI-QTOF
SMILES: CC1OC(OC2C(O)C(O)C(CO)OC2OC2CC3(C)C(CC(O)C4C(CCC34C)C(=C)CCC=C(C)C)C3(C)CCC(O)C(C)(C)C23)C(O)C(O)C1O
INCHIKEY: ZVTVWDXRNMHGNY-UHFFFAOYNA-N
Ontology: Triterpenoids
COLLISIONENERGY: 30
FORMULA: C42H70O12
RETENTIONTIME: 7.570883
IONMODE: Negative
Comment: registered in RIKEN PlaSMA
Num Peaks: 24
59.01371	115
59.01668	63
69.03844	75
89.02362	63
89.02999	71
94.09171	63
101.0278	632
103.04737	71
119.0274	111
127.03784	79
143.03096	138
161.04568	431
163.05713	63
393.92667	95
457.37607	103
546.05286	63
601.40973	67
612.68115	115
619.40527	217
619.43237	273
620.414	154
620.44061	103
621.01263	87
765.47687	1000

NAME: Ginsenoside Rg6
PRECURSORMZ: 811.48493055183
PRECURSORTYPE: [M+FA-H]-
INSTRUMENTTYPE: LC-ESI-QTOF
SMILES: CC1OC(OC2C(O)C(O)C(CO)OC2OC2CC3(C)C(CC(O)C4C(CCC34C)C(=C)CCC=C(C)C)C3(C)CCC(O)C(C)(C)C23)C(O)C(O)C1O
INCHIKEY: ZVTVWDXRNMHGNY-UHFFFAOYNA-N
Ontology: Triterpenoids
COLLISIONENERGY: 30
FORMULA: C42H70O12
RETENTIONTIME: 7.570883
IONMODE: Negative
Comment: registered in RIKEN PlaSMA
Num Peaks: 29
59.01283	9
71.0127	11
89.02401	19
101.02336	39
103.04044	19
113.02428	17
119.03458	11
143.03389	20
145.05122	10
159.03023	9
161.04398	90
162.05064	8
163.05772	32
163.06551	7
205.07001	12
601.42181	15
602.4057	6
619.42065	174
620.42676	61
621.41602	6
621.43848	9
765.47894	1000
765.53522	6
766.48187	498
766.55432	6
767.48212	128
768.48956	21
768.51959	5
769.48907	5

NAME: Ginsenoside Rg3(S-FORM)
PRECURSORMZ: 783.49001594783
PRECURSORTYPE: [M-H]-
INSTRUMENTTYPE: LC-ESI-QTOF
SMILES: CC(C)=CCCC(C)(O)C1CCC2(C)C1C(O)CC1C3(C)CCC(OC4OC(CO)C(O)C(O)C4OC4OC(CO)C(O)C(O)C4O)C(C)(C)C3CCC21C
INCHIKEY: RWXIFXNRCLMQCD-UHFFFAOYNA-N
Ontology: Triterpene saponins
COLLISIONENERGY: 30
FORMULA: C42H72O13
RETENTIONTIME: 8.197184
IONMODE: Negative
Comment: registered in RIKEN PlaSMA
Num Peaks: 31
60.19315	12
67.26437	20
71.01026	15
85.03015	12
89.02167	33
101.02319	129
101.03149	16
113.01999	41
113.02646	15
119.03172	14
119.03848	13
143.03093	16
149.03593	15
149.04579	14
159.02618	28
159.0343	30
161.035	27
161.04587	118
162.04875	13
179.05568	29
221.06757	19
221.07643	14
317.53113	13
317.92938	27
459.38272	58
460.37943	19
620.47388	26
621.43945	112
622.43707	40
623.43848	12
783.49463	1000

NAME: Ginsenoside Rg3(S-FORM)
PRECURSORMZ: 829.49549525183
PRECURSORTYPE: [M+FA-H]-
INSTRUMENTTYPE: LC-ESI-QTOF
SMILES: CC(C)=CCCC(C)(O)C1CCC2(C)C1C(O)CC1C3(C)CCC(OC4OC(CO)C(O)C(O)C4OC4OC(CO)C(O)C(O)C4O)C(C)(C)C3CCC21C
INCHIKEY: RWXIFXNRCLMQCD-UHFFFAOYNA-N
Ontology: Triterpene saponins
COLLISIONENERGY: 30
FORMULA: C42H72O13
RETENTIONTIME: 8.197184
IONMODE: Negative
Comment: registered in RIKEN PlaSMA
Num Peaks: 17
71.01481	6
101.02364	16
113.0228	18
119.03403	5
159.03259	6
161.04532	38
179.05345	8
459.38284	8
460.3898	5
621.43506	55
622.43964	20
783.4917	1000
783.55811	6
784.49554	483
784.56219	7
785.49548	122
786.49573	23

NAME: Ginsenoside Rh2 (S-FORM)
PRECURSORMZ: 667.442671804
PRECURSORTYPE: [M+FA-H]-
INSTRUMENTTYPE: LC-ESI-QTOF
SMILES: CC(C)=CCCC(C)(O)C1CCC2(C)C1C(O)CC1C3(C)CCC(OC4OC(CO)C(O)C(O)C4O)C(C)(C)C3CCC21C
INCHIKEY: CKUVNOCSBYYHIS-UHFFFAOYNA-N
Ontology: Triterpene saponins
COLLISIONENERGY: 30
FORMULA: C36H62O8
RETENTIONTIME: 9.842167
IONMODE: Negative
Comment: registered in RIKEN PlaSMA
Num Peaks: 27
69.40817	53
71.01132	158
91.88345	56
101.02575	317
113.01768	56
113.02428	56
131.03484	66
143.03662	89
159.03079	69
160.02739	271
161.0443	1000
161.05122	277
163.04945	109
375.29288	53
459.35626	116
459.37827	56
459.39432	119
460.40369	185
461.39984	53
561.40021	73
621.42517	152
621.45044	343
622.42365	119
623.42889	56
639.24976	89
667.44775	56
667.48303	69

NAME: Digitonin
PRECURSORMZ: 1227.56515054783
PRECURSORTYPE: [M-H]-
INSTRUMENTTYPE: LC-ESI-QTOF
SMILES: CC1C2C(OC11CCC(C)CO1)C(O)C1C3CCC4CC(OC5OC(CO)C(OC6OC(CO)C(O)C(OC7OCC(O)C(O)C7O)C6OC6OC(CO)C(O)C(OC7OC(CO)C(O)C(O)C7O)C6O)C(O)C5O)C(O)CC4(C)C3CCC21C
INCHIKEY: UVYVLBIGDKGWPX-UHFFFAOYNA-N
Ontology: Steroidal saponins
COLLISIONENERGY: 50
FORMULA: C56H92O29
RETENTIONTIME: 6.9815
IONMODE: Negative
Comment: registered in RIKEN PlaSMA
Num Peaks: 144
59.01189	19
59.01765	16
71.01575	13
87.00759	68
89.02325	50
90.02679	12
97.03214	17
99.00287	14
101.01984	28
101.02943	18
113.02363	150
114.02448	18
125.02033	45
127.04272	21
131.0376	16
137.0594	40
139.04251	12
143.02673	57
143.03636	102
149.0394	15
151.05144	15
157.05116	15
157.12619	23
161.04266	177
162.04465	18
162.0524	12
179.03078	40
179.04706	18
179.05891	37
180.0602	12
181.06204	12
183.06557	29
197.04124	15
203.06168	33
225.06702	12
235.07996	25
235.08821	34
245.07341	35
251.1759	16
257.06769	50
264.05902	17
269.05646	15
291.77234	19
310.78256	12
323.09641	35
323.12305	21
332.50143	13
383.13034	13
437.12671	31
456.15652	23
467.1239	12
477.01657	15
485.13058	20
491.2572	22
607.14838	17
607.87061	18
609.34991	450
609.37573	313
609.95477	15
610.362	285
612.39368	12
612.76379	18
617.17798	16
617.19836	12
632.93005	18
706.34027	14
706.41644	33
707.36536	18
707.39594	19
717.37024	17
727.64972	12
746.96039	12
759.34979	12
759.64752	21
771.39691	138
771.42389	79
771.44153	48
772.42938	147
773.38989	12
773.44788	68
774.42175	17
774.75769	13
778.70807	13
809.62384	13
811.64154	12
813.4021	15
839.44305	13
840.44769	18
880.4845	15
891.68579	13
901.4422	14
903.36987	25
903.46033	1000
904.04095	13
904.40759	51
904.45801	394
904.4975	94
905.41205	18
905.45068	135
905.47693	79
905.52625	14
906.49438	15
908.92566	13
909.26624	17
911.03125	24
915.44916	18
933.45746	38
933.47894	37
933.50073	34
934.29565	15
934.46753	28
934.50867	28
935.48413	14
940.96942	18
956.17627	20
981.92389	20
994.02551	13
1008.68054	12
1047.50232	52
1048.50183	51
1065.53699	30
1065.58447	13
1066.50085	13
1066.52747	12
1066.70142	21
1067.4978	18
1069.50012	12
1095.49304	147
1095.53394	578
1095.59436	30
1096.44653	28
1096.51831	443
1096.57239	35
1096.61267	18
1097.50464	45
1097.53589	45
1097.57617	34
1097.62463	14
1098.55957	15
1103.05151	12
1107.08337	12
1211.58972	12
1227.51904	64
1227.56958	470

NAME: Ginsenoside Rg6
PRECURSORMZ: 765.47945124783
PRECURSORTYPE: [M-H]-
INSTRUMENTTYPE: LC-ESI-QTOF
SMILES: CC1OC(OC2C(O)C(O)C(CO)OC2OC2CC3(C)C(CC(O)C4C(CCC34C)C(=C)CCC=C(C)C)C3(C)CCC(O)C(C)(C)C23)C(O)C(O)C1O
INCHIKEY: ZVTVWDXRNMHGNY-UHFFFAOYNA-N
Ontology: Triterpenoids
COLLISIONENERGY: 50
FORMULA: C42H70O12
RETENTIONTIME: 7.570883
IONMODE: Negative
Comment: registered in RIKEN PlaSMA
Num Peaks: 12
55.01389	203
59.01247	1000
85.02779	633
88.01291	203
89.02038	443
95.00894	266
103.0387	608
113.02419	430
125.01965	203
129.01459	278
205.07181	215
457.36502	203

NAME: Ginsenoside Rg6
PRECURSORMZ: 811.48493055183
PRECURSORTYPE: [M+FA-H]-
INSTRUMENTTYPE: LC-ESI-QTOF
SMILES: CC1OC(OC2C(O)C(O)C(CO)OC2OC2CC3(C)C(CC(O)C4C(CCC34C)C(=C)CCC=C(C)C)C3(C)CCC(O)C(C)(C)C23)C(O)C(O)C1O
INCHIKEY: ZVTVWDXRNMHGNY-UHFFFAOYNA-N
Ontology: Triterpenoids
COLLISIONENERGY: 50
FORMULA: C42H70O12
RETENTIONTIME: 7.570883
IONMODE: Negative
Comment: registered in RIKEN PlaSMA
Num Peaks: 75
57.03229	15
59.00996	38
59.0133	116
60.01869	15
67.91178	8
70.02918	9
71.01254	251
71.02071	21
73.02804	214
74.02995	9
76.31197	7
83.01119	53
83.01765	28
85.02859	176
86.00196	18
87.00681	9
88.01265	11
89.02473	244
94.47928	11
95.01091	7
95.01662	26
97.00996	7
97.02656	28
97.03316	33
98.02944	7
99.00803	78
99.04206	13
100.01896	8
101.02366	1000
102.02622	18
103.0366	89
103.04317	58
104.04147	31
111.00712	18
112.01571	20
112.40534	7
113.02342	358
114.02469	47
114.03014	13
115.03676	24
115.0418	35
119.03207	52
125.02418	83
127.03753	17
129.01331	16
129.02089	8
131.03371	91
131.04253	17
133.05556	8
143.03679	173
144.03307	11
144.03952	15
144.59467	11
145.05138	16
159.01616	13
159.02789	102
159.03357	45
161.04399	234
162.04996	27
163.06306	17
204.06262	9
205.07397	74
233.0735	8
439.34335	10
457.34586	28
457.36807	34
458.35095	14
458.36902	18
459.36481	15
467.38046	8
498.37567	9
528.40045	10
601.42352	8
619.39911	12
766.46161	8

NAME: Ginsenoside Rg3(S-FORM)
PRECURSORMZ: 783.49001594783
PRECURSORTYPE: [M-H]-
INSTRUMENTTYPE: LC-ESI-QTOF
SMILES: CC(C)=CCCC(C)(O)C1CCC2(C)C1C(O)CC1C3(C)CCC(OC4OC(CO)C(O)C(O)C4OC4OC(CO)C(O)C(O)C4O)C(C)(C)C3CCC21C
INCHIKEY: RWXIFXNRCLMQCD-UHFFFAOYNA-N
Ontology: Triterpene saponins
COLLISIONENERGY: 50
FORMULA: C42H72O13
RETENTIONTIME: 8.197184
IONMODE: Negative
Comment: registered in RIKEN PlaSMA
Num Peaks: 26
55.01831	68
71.00757	81
71.01283	241
72.0151	54
73.02705	203
81.03332	75
95.01293	64
97.02424	58
99.00341	71
101.02258	1000
101.06056	88
113.02071	373
114.02545	61
119.03413	149
129.02545	231
131.035	186
143.03694	58
161.04237	54
375.29526	173
376.29822	92
429.31461	122
459.36478	58
459.40216	136
460.3746	54
461.37753	58
605.40125	68

NAME: Ginsenoside Rg3(S-FORM)
PRECURSORMZ: 829.49549525183
PRECURSORTYPE: [M+FA-H]-
INSTRUMENTTYPE: LC-ESI-QTOF
SMILES: CC(C)=CCCC(C)(O)C1CCC2(C)C1C(O)CC1C3(C)CCC(OC4OC(CO)C(O)C(O)C4OC4OC(CO)C(O)C(O)C4O)C(C)(C)C3CCC21C
INCHIKEY: RWXIFXNRCLMQCD-UHFFFAOYNA-N
Ontology: Triterpene saponins
COLLISIONENERGY: 50
FORMULA: C42H72O13
RETENTIONTIME: 8.197184
IONMODE: Negative
Comment: registered in RIKEN PlaSMA
Num Peaks: 101
55.01639	9
59.0124	70
68.20621	6
69.03121	6
71.01306	283
72.01688	5
72.76193	5
72.80994	7
73.03004	110
74.03333	6
75.00929	22
81.03439	12
83.01438	42
83.17524	8
85.02895	176
88.00919	10
89.02328	187
89.51617	6
90.03053	9
95.01273	34
97.0294	41
97.0359	9
99.00792	66
101.02302	1000
101.07479	8
101.47047	10
102.02712	67
102.53158	5
103.02888	5
103.03857	5
103.04417	10
113.02363	538
114.02253	12
114.0291	34
115.0436	16
119.03343	145
125.02444	39
129.01326	11
129.01785	31
130.01819	5
131.03275	34
131.04283	5
141.02051	6
143.03606	70
147.17163	6
149.0443	9
159.02596	83
159.0327	51
160.03204	16
161.045	343
161.15378	6
162.04466	24
162.69278	6
163.04765	7
170.45926	16
179.05695	9
180.05693	11
192.18236	5
221.06209	58
221.07214	12
222.47775	6
296.66333	5
362.4288	5
373.3064	12
373.32318	6
375.27295	7
375.29727	46
376.29782	15
388.19046	6
429.30478	6
429.31903	7
441.3674	10
441.3815	10
442.37411	14
443.15097	9
443.35431	11
459.3801	217
459.39908	53
459.93048	6
460.36932	23
460.39175	130
483.39725	5
499.38196	6
501.38168	9
501.40967	5
513.39795	16
529.39001	9
537.34003	57
555.3985	9
603.40417	6
603.43579	18
604.45294	11
605.4035	5
606.42688	9
621.43585	112
621.4895	17
622.44562	96
623.45593	26
783.50281	22
784.48022	23
784.50922	9

NAME: Ginsenoside Rh2 (S-FORM)
PRECURSORMZ: 667.442671804
PRECURSORTYPE: [M+FA-H]-
INSTRUMENTTYPE: LC-ESI-QTOF
SMILES: CC(C)=CCCC(C)(O)C1CCC2(C)C1C(O)CC1C3(C)CCC(OC4OC(CO)C(O)C(O)C4O)C(C)(C)C3CCC21C
INCHIKEY: CKUVNOCSBYYHIS-UHFFFAOYNA-N
Ontology: Triterpene saponins
COLLISIONENERGY: 50
FORMULA: C36H62O8
RETENTIONTIME: 9.842167
IONMODE: Negative
Comment: registered in RIKEN PlaSMA
Num Peaks: 14
71.01372	64
85.033	18
99.00656	22
101.01914	18
114.93093	22
159.03178	37
338.27151	22
373.31735	40
375.27823	19
396.13333	40
545.35345	24
667.43073	432
667.44696	1000
667.51001	25

NAME: Digitonin
PRECURSORMZ: 1227.56515054783
PRECURSORTYPE: [M-H]-
INSTRUMENTTYPE: LC-ESI-QTOF
SMILES: CC1C2C(OC11CCC(C)CO1)C(O)C1C3CCC4CC(OC5OC(CO)C(OC6OC(CO)C(O)C(OC7OCC(O)C(O)C7O)C6OC6OC(CO)C(O)C(OC7OC(CO)C(O)C(O)C7O)C6O)C(O)C5O)C(O)CC4(C)C3CCC21C
INCHIKEY: UVYVLBIGDKGWPX-UHFFFAOYNA-N
Ontology: Steroidal saponins
COLLISIONENERGY: 10
FORMULA: C56H92O29
RETENTIONTIME: 6.9815
IONMODE: Negative
Comment: registered in RIKEN PlaSMA
Num Peaks: 19
115.28168	5
447.44476	7
583.29303	7
588.61188	6
609.36157	10
609.79785	5
649.19849	6
722.14899	8
771.43475	7
903.4563	31
904.47888	9
928.54327	5
1047.50525	7
1095.4917	20
1095.55078	15
1096.49097	11
1096.53052	7
1166.87476	6
1227.56384	1000

NAME: Digitonin
PRECURSORMZ: 1273.57062985183
PRECURSORTYPE: [M+FA-H]-
INSTRUMENTTYPE: LC-ESI-QTOF
SMILES: CC1C2C(OC11CCC(C)CO1)C(O)C1C3CCC4CC(OC5OC(CO)C(OC6OC(CO)C(O)C(OC7OCC(O)C(O)C7O)C6OC6OC(CO)C(O)C(OC7OC(CO)C(O)C(O)C7O)C6O)C(O)C5O)C(O)CC4(C)C3CCC21C
INCHIKEY: UVYVLBIGDKGWPX-UHFFFAOYNA-N
Ontology: Steroidal saponins
COLLISIONENERGY: 10
FORMULA: C56H92O29
RETENTIONTIME: 6.9815
IONMODE: Negative
Comment: registered in RIKEN PlaSMA
Num Peaks: 13
704.914	10
903.461	7
904.45776	6
1095.5481	15
1227.56555	1000
1227.66882	7
1228.57129	604
1229.57397	249
1230.56323	28
1230.59521	24
1231.53992	11
1231.58984	7
1273.58411	32

NAME: Ginsenoside Rg6
PRECURSORMZ: 765.47945124783
PRECURSORTYPE: [M-H]-
INSTRUMENTTYPE: LC-ESI-QTOF
SMILES: CC1OC(OC2C(O)C(O)C(CO)OC2OC2CC3(C)C(CC(O)C4C(CCC34C)C(=C)CCC=C(C)C)C3(C)CCC(O)C(C)(C)C23)C(O)C(O)C1O
INCHIKEY: ZVTVWDXRNMHGNY-UHFFFAOYNA-N
Ontology: Triterpenoids
COLLISIONENERGY: 10
FORMULA: C42H70O12
RETENTIONTIME: 7.570883
IONMODE: Negative
Comment: registered in RIKEN PlaSMA
Num Peaks: 15
59.01237	25
73.298	39
87.04673	30
89.02618	31
101.02266	112
143.04305	24
161.04384	50
161.05545	19
482.58496	27
619.39923	19
619.44806	43
620.42566	53
630.39777	20
765.4032	19
765.48059	1000

NAME: Ginsenoside Rg6
PRECURSORMZ: 811.48493055183
PRECURSORTYPE: [M+FA-H]-
INSTRUMENTTYPE: LC-ESI-QTOF
SMILES: CC1OC(OC2C(O)C(O)C(CO)OC2OC2CC3(C)C(CC(O)C4C(CCC34C)C(=C)CCC=C(C)C)C3(C)CCC(O)C(C)(C)C23)C(O)C(O)C1O
INCHIKEY: ZVTVWDXRNMHGNY-UHFFFAOYNA-N
Ontology: Triterpenoids
COLLISIONENERGY: 10
FORMULA: C42H70O12
RETENTIONTIME: 7.570883
IONMODE: Negative
Comment: registered in RIKEN PlaSMA
Num Peaks: 21
101.02184	21
103.03811	15
113.02489	20
119.03324	5
143.03539	11
159.02808	13
161.04515	42
163.05959	13
205.07275	14
601.41345	5
619.41565	31
619.435	40
620.43091	19
621.42096	5
765.4823	1000
765.53625	6
766.48486	482
767.48804	128
768.47833	11
768.5127	8
811.48401	335

NAME: Ginsenoside Rg3(S-FORM)
PRECURSORMZ: 783.49001594783
PRECURSORTYPE: [M-H]-
INSTRUMENTTYPE: LC-ESI-QTOF
SMILES: CC(C)=CCCC(C)(O)C1CCC2(C)C1C(O)CC1C3(C)CCC(OC4OC(CO)C(O)C(O)C4OC4OC(CO)C(O)C(O)C4O)C(C)(C)C3CCC21C
INCHIKEY: RWXIFXNRCLMQCD-UHFFFAOYNA-N
Ontology: Triterpene saponins
COLLISIONENERGY: 10
FORMULA: C42H72O13
RETENTIONTIME: 8.197184
IONMODE: Negative
Comment: registered in RIKEN PlaSMA
Num Peaks: 16
85.03123	10
101.01862	7
101.02496	29
105.47881	9
113.02324	38
119.02916	11
131.03337	8
161.04051	20
161.04912	27
195.75449	11
459.37219	7
492.56134	7
507.0264	9
621.42395	8
621.46637	8
783.48816	1000

NAME: Ginsenoside Rh2 (S-FORM)
PRECURSORMZ: 667.442671804
PRECURSORTYPE: [M+FA-H]-
INSTRUMENTTYPE: LC-ESI-QTOF
SMILES: CC(C)=CCCC(C)(O)C1CCC2(C)C1C(O)CC1C3(C)CCC(OC4OC(CO)C(O)C(O)C4O)C(C)(C)C3CCC21C
INCHIKEY: CKUVNOCSBYYHIS-UHFFFAOYNA-N
Ontology: Triterpene saponins
COLLISIONENERGY: 10
FORMULA: C36H62O8
RETENTIONTIME: 9.842167
IONMODE: Negative
Comment: registered in RIKEN PlaSMA
Num Peaks: 2
621.43768	13
667.44183	1000

NAME: Digitonin
PRECURSORMZ: 1227.56515054783
PRECURSORTYPE: [M-H]-
INSTRUMENTTYPE: LC-ESI-QTOF
SMILES: CC1C2C(OC11CCC(C)CO1)C(O)C1C3CCC4CC(OC5OC(CO)C(OC6OC(CO)C(O)C(OC7OCC(O)C(O)C7O)C6OC6OC(CO)C(O)C(OC7OC(CO)C(O)C(O)C7O)C6O)C(O)C5O)C(O)CC4(C)C3CCC21C
INCHIKEY: UVYVLBIGDKGWPX-UHFFFAOYNA-N
Ontology: Steroidal saponins
COLLISIONENERGY: 10
FORMULA: C56H92O29
RETENTIONTIME: 6.9815
IONMODE: Negative
Comment: registered in RIKEN PlaSMA
Num Peaks: 10
271.57153	5
278.9321	7
592.48541	11
742.22833	8
748.83356	6
804.33533	13
890.91699	5
1048.44006	5
1121.51074	6
1227.56689	1000

NAME: Digitonin
PRECURSORMZ: 1273.57062985183
PRECURSORTYPE: [M+FA-H]-
INSTRUMENTTYPE: LC-ESI-QTOF
SMILES: CC1C2C(OC11CCC(C)CO1)C(O)C1C3CCC4CC(OC5OC(CO)C(OC6OC(CO)C(O)C(OC7OCC(O)C(O)C7O)C6OC6OC(CO)C(O)C(OC7OC(CO)C(O)C(O)C7O)C6O)C(O)C5O)C(O)CC4(C)C3CCC21C
INCHIKEY: UVYVLBIGDKGWPX-UHFFFAOYNA-N
Ontology: Steroidal saponins
COLLISIONENERGY: 10
FORMULA: C56H92O29
RETENTIONTIME: 6.9815
IONMODE: Negative
Comment: registered in RIKEN PlaSMA
Num Peaks: 13
577.26691	11
884.96307	5
1120.2373	6
1142.55579	5
1210.80432	6
1227.56299	1000
1228.5647	618
1229.57788	217
1230.55261	19
1230.58752	27
1231.58032	7
1273.56982	317
1273.67004	7

NAME: Ginsenoside Rg6
PRECURSORMZ: 765.47945124783
PRECURSORTYPE: [M-H]-
INSTRUMENTTYPE: LC-ESI-QTOF
SMILES: CC1OC(OC2C(O)C(O)C(CO)OC2OC2CC3(C)C(CC(O)C4C(CCC34C)C(=C)CCC=C(C)C)C3(C)CCC(O)C(C)(C)C23)C(O)C(O)C1O
INCHIKEY: ZVTVWDXRNMHGNY-UHFFFAOYNA-N
Ontology: Triterpenoids
COLLISIONENERGY: 10
FORMULA: C42H70O12
RETENTIONTIME: 7.570883
IONMODE: Negative
Comment: registered in RIKEN PlaSMA
Num Peaks: 5
340.5679	18
764.47333	14
765.48267	1000
765.52039	70
765.6557	13

NAME: Ginsenoside Rg6
PRECURSORMZ: 811.48493055183
PRECURSORTYPE: [M+FA-H]-
INSTRUMENTTYPE: LC-ESI-QTOF
SMILES: CC1OC(OC2C(O)C(O)C(CO)OC2OC2CC3(C)C(CC(O)C4C(CCC34C)C(=C)CCC=C(C)C)C3(C)CCC(O)C(C)(C)C23)C(O)C(O)C1O
INCHIKEY: ZVTVWDXRNMHGNY-UHFFFAOYNA-N
Ontology: Triterpenoids
COLLISIONENERGY: 10
FORMULA: C42H70O12
RETENTIONTIME: 7.570883
IONMODE: Negative
Comment: registered in RIKEN PlaSMA
Num Peaks: 4
765.47876	356
766.48645	184
767.48077	41
811.48468	1000

NAME: Ginsenoside Rg3(S-FORM)
PRECURSORMZ: 783.49001594783
PRECURSORTYPE: [M-H]-
INSTRUMENTTYPE: LC-ESI-QTOF
SMILES: CC(C)=CCCC(C)(O)C1CCC2(C)C1C(O)CC1C3(C)CCC(OC4OC(CO)C(O)C(O)C4OC4OC(CO)C(O)C(O)C4O)C(C)(C)C3CCC21C
INCHIKEY: RWXIFXNRCLMQCD-UHFFFAOYNA-N
Ontology: Triterpene saponins
COLLISIONENERGY: 10
FORMULA: C42H72O13
RETENTIONTIME: 8.197184
IONMODE: Negative
Comment: registered in RIKEN PlaSMA
Num Peaks: 9
87.00697	6
354.18033	10
389.58142	5
453.64212	5
476.78629	6
530.41302	8
600.2572	7
783.43988	19
783.48688	1000

NAME: Ginsenoside Rg3(S-FORM)
PRECURSORMZ: 829.49549525183
PRECURSORTYPE: [M+FA-H]-
INSTRUMENTTYPE: LC-ESI-QTOF
SMILES: CC(C)=CCCC(C)(O)C1CCC2(C)C1C(O)CC1C3(C)CCC(OC4OC(CO)C(O)C(O)C4OC4OC(CO)C(O)C(O)C4O)C(C)(C)C3CCC21C
INCHIKEY: RWXIFXNRCLMQCD-UHFFFAOYNA-N
Ontology: Triterpene saponins
COLLISIONENERGY: 10
FORMULA: C42H72O13
RETENTIONTIME: 8.197184
IONMODE: Negative
Comment: registered in RIKEN PlaSMA
Num Peaks: 7
783.48932	547
784.49536	256
785.49805	91
786.48578	7
829.43628	6
829.49493	1000
829.57471	9

NAME: Ginsenoside Rh2 (S-FORM)
PRECURSORMZ: 667.442671804
PRECURSORTYPE: [M+FA-H]-
INSTRUMENTTYPE: LC-ESI-QTOF
SMILES: CC(C)=CCCC(C)(O)C1CCC2(C)C1C(O)CC1C3(C)CCC(OC4OC(CO)C(O)C(O)C4O)C(C)(C)C3CCC21C
INCHIKEY: CKUVNOCSBYYHIS-UHFFFAOYNA-N
Ontology: Triterpene saponins
COLLISIONENERGY: 10
FORMULA: C36H62O8
RETENTIONTIME: 9.842167
IONMODE: Negative
Comment: registered in RIKEN PlaSMA
Num Peaks: 2
667.44159	1000
667.50568	5

NAME: Digitonin
PRECURSORMZ: 1227.56515054783
PRECURSORTYPE: [M-H]-
INSTRUMENTTYPE: LC-ESI-QTOF
SMILES: CC1C2C(OC11CCC(C)CO1)C(O)C1C3CCC4CC(OC5OC(CO)C(OC6OC(CO)C(O)C(OC7OCC(O)C(O)C7O)C6OC6OC(CO)C(O)C(OC7OC(CO)C(O)C(O)C7O)C6O)C(O)C5O)C(O)CC4(C)C3CCC21C
INCHIKEY: UVYVLBIGDKGWPX-UHFFFAOYNA-N
Ontology: Steroidal saponins
COLLISIONENERGY: 30
FORMULA: C56H92O29
RETENTIONTIME: 6.9815
IONMODE: Negative
Comment: registered in RIKEN PlaSMA
Num Peaks: 7
673.90308	6
904.47729	8
1065.54724	6
1095.53528	12
1096.52966	6
1227.56812	1000
1227.66443	15

NAME: Digitonin
PRECURSORMZ: 1273.57062985183
PRECURSORTYPE: [M+FA-H]-
INSTRUMENTTYPE: LC-ESI-QTOF
SMILES: CC1C2C(OC11CCC(C)CO1)C(O)C1C3CCC4CC(OC5OC(CO)C(OC6OC(CO)C(O)C(OC7OCC(O)C(O)C7O)C6OC6OC(CO)C(O)C(OC7OC(CO)C(O)C(O)C7O)C6O)C(O)C5O)C(O)CC4(C)C3CCC21C
INCHIKEY: UVYVLBIGDKGWPX-UHFFFAOYNA-N
Ontology: Steroidal saponins
COLLISIONENERGY: 30
FORMULA: C56H92O29
RETENTIONTIME: 6.9815
IONMODE: Negative
Comment: registered in RIKEN PlaSMA
Num Peaks: 7
1227.56531	1000
1228.57141	606
1229.56201	140
1229.59875	78
1230.55457	31
1230.58704	46
1231.55212	17

NAME: Ginsenoside Rg6
PRECURSORMZ: 765.47945124783
PRECURSORTYPE: [M-H]-
INSTRUMENTTYPE: LC-ESI-QTOF
SMILES: CC1OC(OC2C(O)C(O)C(CO)OC2OC2CC3(C)C(CC(O)C4C(CCC34C)C(=C)CCC=C(C)C)C3(C)CCC(O)C(C)(C)C23)C(O)C(O)C1O
INCHIKEY: ZVTVWDXRNMHGNY-UHFFFAOYNA-N
Ontology: Triterpenoids
COLLISIONENERGY: 30
FORMULA: C42H70O12
RETENTIONTIME: 7.570883
IONMODE: Negative
Comment: registered in RIKEN PlaSMA
Num Peaks: 29
61.01485	80
68.99714	68
71.01121	68
71.01633	76
85.02772	307
87.04807	102
101.02163	962
103.0389	68
113.01548	98
113.02203	91
119.03618	144
127.04004	61
143.04089	80
159.02145	186
161.04437	697
163.06407	386
205.06664	186
358.39853	91
458.39243	80
553.38214	140
618.43182	64
619.42285	178
619.44067	125
619.47003	80
620.40973	121
620.4353	61
621.43073	83
765.43719	76
765.474	1000

NAME: Ginsenoside Rg6
PRECURSORMZ: 811.48493055183
PRECURSORTYPE: [M+FA-H]-
INSTRUMENTTYPE: LC-ESI-QTOF
SMILES: CC1OC(OC2C(O)C(O)C(CO)OC2OC2CC3(C)C(CC(O)C4C(CCC34C)C(=C)CCC=C(C)C)C3(C)CCC(O)C(C)(C)C23)C(O)C(O)C1O
INCHIKEY: ZVTVWDXRNMHGNY-UHFFFAOYNA-N
Ontology: Triterpenoids
COLLISIONENERGY: 30
FORMULA: C42H70O12
RETENTIONTIME: 7.570883
IONMODE: Negative
Comment: registered in RIKEN PlaSMA
Num Peaks: 24
71.01161	6
89.02446	15
101.02387	44
103.03938	17
113.02308	22
119.0343	16
127.03767	6
143.0354	20
159.02718	7
161.04594	94
163.06006	35
205.06967	8
205.07756	6
601.4021	12
601.4201	12
619.42285	147
620.42499	76
621.42523	19
765.47931	1000
765.54871	6
766.48376	457
767.48401	111
768.4895	34
811.48431	53

NAME: Ginsenoside Rg3(S-FORM)
PRECURSORMZ: 783.49001594783
PRECURSORTYPE: [M-H]-
INSTRUMENTTYPE: LC-ESI-QTOF
SMILES: CC(C)=CCCC(C)(O)C1CCC2(C)C1C(O)CC1C3(C)CCC(OC4OC(CO)C(O)C(O)C4OC4OC(CO)C(O)C(O)C4O)C(C)(C)C3CCC21C
INCHIKEY: RWXIFXNRCLMQCD-UHFFFAOYNA-N
Ontology: Triterpene saponins
COLLISIONENERGY: 30
FORMULA: C42H72O13
RETENTIONTIME: 8.197184
IONMODE: Negative
Comment: registered in RIKEN PlaSMA
Num Peaks: 37
59.01343	29
71.01978	23
73.02766	19
83.0099	42
85.03201	20
87.00468	35
89.01794	23
89.02393	46
101.01809	55
101.02427	77
113.02507	82
119.03238	29
131.02794	18
143.03656	22
144.04221	23
149.04092	18
159.02563	66
159.03604	85
161.04303	136
161.04945	66
162.0463	18
179.05925	19
295.34903	19
396.85779	19
459.34927	21
459.39493	61
620.76172	17
621.42615	151
621.44366	88
621.4729	56
622.44299	107
623.45929	17
634.15332	17
663.44147	33
783.48322	1000
783.50726	378
783.54785	17

NAME: Ginsenoside Rg3(S-FORM)
PRECURSORMZ: 829.49549525183
PRECURSORTYPE: [M+FA-H]-
INSTRUMENTTYPE: LC-ESI-QTOF
SMILES: CC(C)=CCCC(C)(O)C1CCC2(C)C1C(O)CC1C3(C)CCC(OC4OC(CO)C(O)C(O)C4OC4OC(CO)C(O)C(O)C4O)C(C)(C)C3CCC21C
INCHIKEY: RWXIFXNRCLMQCD-UHFFFAOYNA-N
Ontology: Triterpene saponins
COLLISIONENERGY: 30
FORMULA: C42H72O13
RETENTIONTIME: 8.197184
IONMODE: Negative
Comment: registered in RIKEN PlaSMA
Num Peaks: 12
101.0251	20
113.02239	14
159.02827	7
161.04433	42
179.05208	5
621.43604	55
621.45428	17
622.44067	19
783.49152	1000
784.49536	467
785.49695	124
786.50336	17

NAME: Digitonin
PRECURSORMZ: 1227.56515054783
PRECURSORTYPE: [M-H]-
INSTRUMENTTYPE: LC-ESI-QTOF
SMILES: CC1C2C(OC11CCC(C)CO1)C(O)C1C3CCC4CC(OC5OC(CO)C(OC6OC(CO)C(O)C(OC7OCC(O)C(O)C7O)C6OC6OC(CO)C(O)C(OC7OC(CO)C(O)C(O)C7O)C6O)C(O)C5O)C(O)CC4(C)C3CCC21C
INCHIKEY: UVYVLBIGDKGWPX-UHFFFAOYNA-N
Ontology: Steroidal saponins
COLLISIONENERGY: 50
FORMULA: C56H92O29
RETENTIONTIME: 6.9815
IONMODE: Negative
Comment: registered in RIKEN PlaSMA
Num Peaks: 169
57.2949	11
71.01257	21
72.96072	11
81.03038	13
81.76733	11
87.0072	23
87.01671	12
89.02394	14
91.66499	12
97.02845	15
101.02151	12
101.02685	27
109.1655	17
112.00828	13
113.02226	209
121.02263	14
125.02431	102
129.98016	20
131.03503	49
139.03563	32
143.02971	82
143.03549	164
149.04356	54
151.07375	17
153.05254	17
155.02988	13
157.28989	15
159.03223	11
161.04306	341
161.05597	35
162.04868	47
177.04977	11
179.05383	157
179.07266	11
180.07143	18
209.04291	12
220.52721	15
222.06837	15
229.63499	16
235.07999	13
245.07474	12
247.07643	23
251.05469	14
251.07205	13
251.27341	12
263.06848	12
263.08197	12
265.08911	12
275.07581	25
293.08191	39
293.09875	16
295.08533	14
305.08865	38
323.03891	13
323.09052	13
325.11514	23
335.62106	18
355.12854	24
380.7919	14
386.89093	13
395.07547	11
404.68872	12
405.07205	11
447.31598	12
471.28265	13
479.20889	11
499.07596	23
517.31635	11
520.62457	17
543.33368	23
591.39081	11
592.37769	11
599.99969	11
609.26184	14
609.36346	885
609.38916	147
610.33325	31
610.36108	211
610.38641	78
610.4104	11
610.56622	13
611.36298	51
611.39075	43
615.55762	16
617.17548	31
617.21826	17
623.90387	16
655.84119	11
701.99902	17
705.35919	11
705.40192	39
706.4422	13
707.39526	11
717.36292	43
725.62579	16
730.09247	13
730.35663	18
738.0047	16
753.3924	11
762.25085	12
771.41089	322
771.44916	45
772.42529	160
772.48145	11
773.43182	55
774.51514	16
786.3891	11
821.91998	13
824.95721	11
825.92242	12
841.198	12
891.6532	28
903.35455	12
903.45673	1000
903.60693	12
904.05817	13
904.43433	118
904.47656	243
904.54315	11
905.44025	20
905.48944	88
905.52295	15
906.30566	11
906.47638	44
907.47766	11
907.67542	11
908.54565	24
910.0896	12
915.47742	17
933.3349	24
933.39301	20
933.4809	108
934.20526	12
934.47034	25
934.53082	11
934.64813	13
935.46411	12
936.45746	14
936.48529	11
947.44293	16
1033.98999	23
1041.18298	25
1047.53088	17
1049.53003	18
1065.45422	16
1065.51501	26
1066.52478	53
1067.55688	13
1077.58545	16
1078.52576	11
1095.43433	16
1095.50842	358
1095.54675	278
1096.50391	228
1096.552	150
1096.64233	37
1097.51587	123
1097.5564	59
1097.77881	23
1098.7196	11
1103.8866	25
1131.04663	15
1141.6095	14
1165.76868	14
1215.12549	17
1226.7854	11
1227.52124	89
1227.56091	367
1227.62183	68

NAME: Digitonin
PRECURSORMZ: 1273.57062985183
PRECURSORTYPE: [M+FA-H]-
INSTRUMENTTYPE: LC-ESI-QTOF
SMILES: CC1C2C(OC11CCC(C)CO1)C(O)C1C3CCC4CC(OC5OC(CO)C(OC6OC(CO)C(O)C(OC7OCC(O)C(O)C7O)C6OC6OC(CO)C(O)C(OC7OC(CO)C(O)C(O)C7O)C6O)C(O)C5O)C(O)CC4(C)C3CCC21C
INCHIKEY: UVYVLBIGDKGWPX-UHFFFAOYNA-N
Ontology: Steroidal saponins
COLLISIONENERGY: 50
FORMULA: C56H92O29
RETENTIONTIME: 6.9815
IONMODE: Negative
Comment: registered in RIKEN PlaSMA
Num Peaks: 209
71.01105	12
85.03144	9
87.00886	57
89.02053	22
95.01123	5
97.0366	9
100.01304	8
101.02512	19
107.03992	7
113.02251	89
114.03049	12
115.04021	6
119.03105	30
125.02576	68
126.02309	7
137.02246	10
137.05772	7
139.07433	9
143.02766	16
143.03751	63
149.04097	27
159.02959	10
161.02356	7
161.04599	85
162.03065	8
162.0455	11
178.05991	5
179.05321	35
191.03476	7
195.06303	7
196.06134	7
203.05638	16
209.03918	8
223.05156	11
225.06779	6
247.0731	6
247.08841	6
252.05882	6
265.08905	13
275.06406	12
275.07288	8
279.08264	6
293.08643	6
305.08655	6
323.09052	7
323.10974	11
356.68765	7
383.1196	6
384.11859	6
408.12308	6
434.19324	6
436.24304	9
446.74347	6
467.14044	12
468.13043	7
468.14865	7
492.11862	6
505.44901	6
512.76031	5
525.16327	5
526.83557	5
561.04242	6
566.33716	5
574.27618	9
580.34729	7
580.99121	8
591.35406	12
592.34772	6
603.93304	7
604.74536	6
609.26721	5
609.35974	241
609.37708	108
609.41406	11
610.31183	7
610.35406	79
610.3833	29
610.43066	11
611.35608	6
611.38202	40
617.12024	10
617.21429	6
618.21552	9
631.21234	5
651.35846	5
653.17908	5
664.02112	7
672.34174	6
685.41724	5
700.38062	6
700.44452	6
701.20905	5
705.38629	27
706.41541	12
709.76062	8
717.39612	23
718.40118	26
718.78339	5
719.37671	6
728.29877	6
740.34314	7
746.70508	10
753.36981	5
771.39203	29
771.42261	140
771.45709	33
772.39484	51
772.42218	42
773.39832	12
773.66888	7
774.40454	7
775.83527	7
776.2511	10
777.41943	5
802.17194	6
809.19952	6
852.0976	8
854.75586	6
891.45618	5
902.46179	5
903.33124	12
903.45465	829
903.58234	5
904.38312	6
904.42218	24
904.47827	186
905.44189	43
905.47821	58
906.45831	32
907.46912	12
908.20593	8
909.66357	6
911.3941	6
913.75183	6
915.35626	5
915.4707	22
916.43372	8
933.43793	22
933.46674	32
933.49701	33
933.64966	6
934.48468	19
935.46661	12
953.71906	6
982.39233	16
988.33441	5
995.85712	5
1033.23596	6
1041.55005	7
1047.45886	5
1047.49341	27
1051.56799	7
1052.11768	5
1053.55261	14
1065.07068	10
1065.49011	39
1066.48425	13
1066.54797	7
1067.51562	40
1067.58838	5
1078.49829	5
1095.52429	537
1095.5918	35
1095.64575	8
1096.52563	489
1096.60107	25
1096.64941	8
1096.86035	5
1097.45203	7
1097.52332	102
1097.57935	20
1098.45837	7
1098.51318	27
1098.5791	7
1099.50403	8
1101.61841	6
1101.7019	6
1101.79761	6
1102.2262	6
1102.74231	7
1102.88416	6
1103.87891	6
1105.93494	8
1112.03345	6
1152.30347	5
1167.37866	6
1171.052	7
1219.32605	7
1226.42676	15
1226.51306	5
1226.85156	6
1227.51514	121
1227.56812	1000
1227.64441	34
1227.68933	14
1227.76062	5
1228.35657	6
1228.51794	72
1228.58093	630
1229.15063	7
1229.56445	297
1229.90076	5
1230.53955	34
1230.59949	62
1231.54224	20
1232.60852	12
1238.14331	7
1240.24438	7
1259.68958	10

NAME: Ginsenoside Rg6
PRECURSORMZ: 765.47945124783
PRECURSORTYPE: [M-H]-
INSTRUMENTTYPE: LC-ESI-QTOF
SMILES: CC1OC(OC2C(O)C(O)C(CO)OC2OC2CC3(C)C(CC(O)C4C(CCC34C)C(=C)CCC=C(C)C)C3(C)CCC(O)C(C)(C)C23)C(O)C(O)C1O
INCHIKEY: ZVTVWDXRNMHGNY-UHFFFAOYNA-N
Ontology: Triterpenoids
COLLISIONENERGY: 50
FORMULA: C42H70O12
RETENTIONTIME: 7.570883
IONMODE: Negative
Comment: registered in RIKEN PlaSMA
Num Peaks: 17
59.01194	126
71.01333	120
75.8334	102
89.02162	108
97.03043	102
100.69234	96
101.0246	120
102.02602	126
105.04665	96
113.02425	1000
119.03323	240
143.03224	150
144.03627	126
145.04817	96
161.0479	156
457.34854	102
527.39587	168

NAME: Ginsenoside Rg6
PRECURSORMZ: 811.48493055183
PRECURSORTYPE: [M+FA-H]-
INSTRUMENTTYPE: LC-ESI-QTOF
SMILES: CC1OC(OC2C(O)C(O)C(CO)OC2OC2CC3(C)C(CC(O)C4C(CCC34C)C(=C)CCC=C(C)C)C3(C)CCC(O)C(C)(C)C23)C(O)C(O)C1O
INCHIKEY: ZVTVWDXRNMHGNY-UHFFFAOYNA-N
Ontology: Triterpenoids
COLLISIONENERGY: 50
FORMULA: C42H70O12
RETENTIONTIME: 7.570883
IONMODE: Negative
Comment: registered in RIKEN PlaSMA
Num Peaks: 87
57.03381	35
59.01251	218
60.01576	7
69.03098	8
69.03793	6
71.01276	341
71.11946	8
72.99406	10
73.02782	138
75.00613	7
83.01295	12
83.19842	7
85.02837	159
86.03188	7
87.00985	15
87.04356	6
87.04833	9
88.04851	7
89.02391	123
90.02618	9
95.0133	31
97.02991	22
99.00847	116
99.04283	21
101.02366	1000
101.03546	10
101.28976	16
102.01884	25
102.02759	36
102.46774	6
103.02844	9
103.04099	112
104.04137	11
109.03378	7
111.00847	14
112.011	15
112.57529	6
112.90787	7
113.02313	424
113.05388	8
114.03369	7
115.04079	72
116.04438	9
119.03056	29
119.03806	18
125.01772	8
125.02464	19
126.02521	8
127.04839	9
129.04845	7
131.03418	90
132.03893	7
137.6407	6
143.03398	221
144.0434	10
145.0343	7
145.05206	24
153.23064	7
154.02289	7
156.28262	15
159.02957	119
159.14377	7
160.03201	7
161.00127	6
161.04556	193
162.04997	37
163.05905	41
179.05714	9
205.07352	66
265.1821	7
322.6937	7
455.3674	46
456.34177	6
456.35583	9
457.36096	50
457.37589	31
458.36545	13
469.37384	15
489.45047	6
527.36218	6
554.3996	13
571.38495	7
601.40442	12
619.43121	6
620.43909	9
621.02283	6
765.44604	12

NAME: Ginsenoside Rg3(S-FORM)
PRECURSORMZ: 783.49001594783
PRECURSORTYPE: [M-H]-
INSTRUMENTTYPE: LC-ESI-QTOF
SMILES: CC(C)=CCCC(C)(O)C1CCC2(C)C1C(O)CC1C3(C)CCC(OC4OC(CO)C(O)C(O)C4OC4OC(CO)C(O)C(O)C4O)C(C)(C)C3CCC21C
INCHIKEY: RWXIFXNRCLMQCD-UHFFFAOYNA-N
Ontology: Triterpene saponins
COLLISIONENERGY: 50
FORMULA: C42H72O13
RETENTIONTIME: 8.197184
IONMODE: Negative
Comment: registered in RIKEN PlaSMA
Num Peaks: 25
59.01221	169
71.01027	136
73.0296	196
85.02589	47
89.02334	172
90.0232	47
101.02349	1000
113.02187	148
125.01785	56
125.02821	59
125.09798	89
143.03442	53
159.02704	136
161.03775	119
161.04355	246
178.9165	56
335.27597	59
375.29013	199
439.34512	62
459.39401	249
461.39606	68
498.38437	86
538.33215	50
540.354	77
621.44196	47

NAME: Ginsenoside Rg3(S-FORM)
PRECURSORMZ: 829.49549525183
PRECURSORTYPE: [M+FA-H]-
INSTRUMENTTYPE: LC-ESI-QTOF
SMILES: CC(C)=CCCC(C)(O)C1CCC2(C)C1C(O)CC1C3(C)CCC(OC4OC(CO)C(O)C(O)C4OC4OC(CO)C(O)C(O)C4O)C(C)(C)C3CCC21C
INCHIKEY: RWXIFXNRCLMQCD-UHFFFAOYNA-N
Ontology: Triterpene saponins
COLLISIONENERGY: 50
FORMULA: C42H72O13
RETENTIONTIME: 8.197184
IONMODE: Negative
Comment: registered in RIKEN PlaSMA
Num Peaks: 88
52.93953	7
57.03438	29
59.01178	78
59.0179	6
70.73829	6
70.80191	5
70.99007	6
71.01208	312
71.0462	5
72.01687	17
73.02736	136
74.47095	6
81.03526	23
83.01347	79
85.02728	91
85.0323	48
86.00196	6
86.02798	7
87.00845	27
87.03542	6
87.04742	8
89.02304	266
90.02563	11
95.01104	42
97.02935	29
99.00813	101
99.04453	11
101.0234	1000
102.02258	10
102.02876	23
103.02721	11
106.98053	5
111.00939	6
112.99509	5
113.0229	734
114.02538	31
115.02277	7
115.03965	10
119.03471	103
125.02438	45
125.0912	6
129.01862	53
130.02092	15
131.03421	53
141.01715	8
143.03363	108
144.0343	6
149.03934	8
159.02939	158
161.04555	297
162.04338	22
162.05307	10
221.06328	50
322.07449	7
357.285	7
375.28546	41
375.30368	14
375.31754	5
391.30215	5
421.34106	7
441.36765	33
443.35989	13
443.37866	9
459.38217	402
460.38589	93
460.4017	31
461.39133	29
487.40005	5
501.32718	7
514.41284	7
529.40161	5
532.08301	8
537.33441	30
537.36493	11
585.40356	5
603.43091	10
606.4071	14
606.42578	7
611.6463	6
621.40295	11
621.43945	159
622.43964	34
622.47174	6
623.44061	14
623.81879	6
783.45953	10
783.49011	56
785.52258	6

NAME: Ginsenoside Rh2 (S-FORM)
PRECURSORMZ: 667.442671804
PRECURSORTYPE: [M+FA-H]-
INSTRUMENTTYPE: LC-ESI-QTOF
SMILES: CC(C)=CCCC(C)(O)C1CCC2(C)C1C(O)CC1C3(C)CCC(OC4OC(CO)C(O)C(O)C4O)C(C)(C)C3CCC21C
INCHIKEY: CKUVNOCSBYYHIS-UHFFFAOYNA-N
Ontology: Triterpene saponins
COLLISIONENERGY: 50
FORMULA: C36H62O8
RETENTIONTIME: 9.842167
IONMODE: Negative
Comment: registered in RIKEN PlaSMA
Num Peaks: 7
71.01101	1000
85.02769	239
86.46146	239
92.54365	225
101.02113	423
375.29343	268
459.38858	549

NAME: Ginsenoside Rg3(R-FORM)
PRECURSORMZ: 783.49001594783
PRECURSORTYPE: [M-H]-
INSTRUMENTTYPE: LC-ESI-QTOF
SMILES: CC(C)=CCCC(C)(O)C1CCC2(C)C1C(O)CC1C3(C)CCC(OC4OC(CO)C(O)C(O)C4OC4OC(CO)C(O)C(O)C4O)C(C)(C)C3CCC21C
INCHIKEY: RWXIFXNRCLMQCD-UHFFFAOYNA-N
Ontology: Triterpene saponins
COLLISIONENERGY: 10
FORMULA: C42H72O13
RETENTIONTIME: 8.305883
IONMODE: Negative
Comment: registered in RIKEN PlaSMA
Num Peaks: 19
85.02704	10
101.02294	90
102.0275	12
113.03389	13
114.93974	13
119.03861	22
156.19788	23
161.04369	42
460.40143	27
514.39233	13
537.36078	10
621.41461	12
621.43945	15
621.45563	16
622.44159	10
623.42969	20
651.41595	17
783.38757	14
783.49231	1000

NAME: Ginsenoside Rg3(R-FORM)
PRECURSORMZ: 829.49549525183
PRECURSORTYPE: [M+FA-H]-
INSTRUMENTTYPE: LC-ESI-QTOF
SMILES: CC(C)=CCCC(C)(O)C1CCC2(C)C1C(O)CC1C3(C)CCC(OC4OC(CO)C(O)C(O)C4OC4OC(CO)C(O)C(O)C4O)C(C)(C)C3CCC21C
INCHIKEY: RWXIFXNRCLMQCD-UHFFFAOYNA-N
Ontology: Triterpene saponins
COLLISIONENERGY: 10
FORMULA: C42H72O13
RETENTIONTIME: 8.305883
IONMODE: Negative
Comment: registered in RIKEN PlaSMA
Num Peaks: 17
101.02193	17
113.02319	12
119.03378	8
143.03438	9
159.02594	8
161.04562	42
221.07283	5
459.38135	16
621.43939	45
622.44092	24
623.43195	7
783.49054	1000
784.49347	418
785.49725	131
786.48352	6
786.50861	20
829.49579	230

NAME: Ginsenoside Rg5
PRECURSORMZ: 765.47945124783
PRECURSORTYPE: [M-H]-
INSTRUMENTTYPE: LC-ESI-QTOF
SMILES: CC(C)=CCC=C(C)C1CCC2(C)C1C(O)CC1C3(C)CCC(OC4OC(CO)C(O)C(O)C4OC4OC(CO)C(O)C(O)C4O)C(C)(C)C3CCC21C
INCHIKEY: NJUXRKMKOFXMRX-UHFFFAOYNA-N
Ontology: Triterpene saponins
COLLISIONENERGY: 10
FORMULA: C42H70O12
RETENTIONTIME: 9.627267
IONMODE: Negative
Comment: registered in RIKEN PlaSMA
Num Peaks: 26
61.28988	8
71.83565	7
71.84495	13
71.96059	8
101.0239	42
113.02042	7
113.02922	7
119.04517	12
125.02616	7
127.02554	9
143.03177	8
143.03912	17
159.02559	8
161.04453	58
221.06042	8
221.07774	7
286.10709	7
426.36661	7
489.8916	7
603.37329	7
603.43445	23
604.84839	7
681.42578	9
765.32532	9
765.48016	1000
765.52521	17

NAME: Ginsenoside Rg5
PRECURSORMZ: 811.48493055183
PRECURSORTYPE: [M+FA-H]-
INSTRUMENTTYPE: LC-ESI-QTOF
SMILES: CC(C)=CCC=C(C)C1CCC2(C)C1C(O)CC1C3(C)CCC(OC4OC(CO)C(O)C(O)C4OC4OC(CO)C(O)C(O)C4O)C(C)(C)C3CCC21C
INCHIKEY: NJUXRKMKOFXMRX-UHFFFAOYNA-N
Ontology: Triterpene saponins
COLLISIONENERGY: 10
FORMULA: C42H70O12
RETENTIONTIME: 9.627267
IONMODE: Negative
Comment: registered in RIKEN PlaSMA
Num Peaks: 13
101.02262	27
113.02069	18
143.036	6
159.03011	11
161.04568	56
603.42249	25
604.43121	7
765.47876	1000
766.48041	433
767.48596	125
768.4715	11
768.49896	10
811.48383	192

NAME: Ginsenoside Rg3(R-FORM)
PRECURSORMZ: 783.49001594783
PRECURSORTYPE: [M-H]-
INSTRUMENTTYPE: LC-ESI-QTOF
SMILES: CC(C)=CCCC(C)(O)C1CCC2(C)C1C(O)CC1C3(C)CCC(OC4OC(CO)C(O)C(O)C4OC4OC(CO)C(O)C(O)C4O)C(C)(C)C3CCC21C
INCHIKEY: RWXIFXNRCLMQCD-UHFFFAOYNA-N
Ontology: Triterpene saponins
COLLISIONENERGY: 10
FORMULA: C42H72O13
RETENTIONTIME: 8.305883
IONMODE: Negative
Comment: registered in RIKEN PlaSMA
Num Peaks: 6
321.49316	11
420.74796	10
443.15405	9
490.43033	11
783.49213	1000
783.67273	8

NAME: Ginsenoside compound K
PRECURSORMZ: 667.442671804
PRECURSORTYPE: [M+FA-H]-
INSTRUMENTTYPE: LC-ESI-QTOF
SMILES: CC(C)=CCCC(C)(OC1OC(CO)C(O)C(O)C1O)C1CCC2(C)C1C(O)CC1C3(C)CCC(O)C(C)(C)C3CCC21C
INCHIKEY: FVIZARNDLVOMSU-UHFFFAOYNA-N
Ontology: Triterpene saponins
COLLISIONENERGY: 10
FORMULA: C36H62O8
RETENTIONTIME: 9.509533
IONMODE: Negative
Comment: registered in RIKEN PlaSMA
Num Peaks: 3
621.43768	31
622.43756	13
667.4422	1000

NAME: Ginsenoside Rg5
PRECURSORMZ: 765.47945124783
PRECURSORTYPE: [M-H]-
INSTRUMENTTYPE: LC-ESI-QTOF
SMILES: CC(C)=CCC=C(C)C1CCC2(C)C1C(O)CC1C3(C)CCC(OC4OC(CO)C(O)C(O)C4OC4OC(CO)C(O)C(O)C4O)C(C)(C)C3CCC21C
INCHIKEY: NJUXRKMKOFXMRX-UHFFFAOYNA-N
Ontology: Triterpene saponins
COLLISIONENERGY: 10
FORMULA: C42H70O12
RETENTIONTIME: 9.627267
IONMODE: Negative
Comment: registered in RIKEN PlaSMA
Num Peaks: 11
65.14278	7
101.97865	7
122.58804	6
224.53404	8
376.94925	6
422.38559	6
428.26907	6
516.86401	6
562.02692	6
765.47534	1000
765.64209	8

NAME: Ginsenoside Rg5
PRECURSORMZ: 811.48493055183
PRECURSORTYPE: [M+FA-H]-
INSTRUMENTTYPE: LC-ESI-QTOF
SMILES: CC(C)=CCC=C(C)C1CCC2(C)C1C(O)CC1C3(C)CCC(OC4OC(CO)C(O)C(O)C4OC4OC(CO)C(O)C(O)C4O)C(C)(C)C3CCC21C
INCHIKEY: NJUXRKMKOFXMRX-UHFFFAOYNA-N
Ontology: Triterpene saponins
COLLISIONENERGY: 10
FORMULA: C42H70O12
RETENTIONTIME: 9.627267
IONMODE: Negative
Comment: registered in RIKEN PlaSMA
Num Peaks: 6
765.47675	876
765.5368	7
766.48102	445
767.47943	92
768.48041	10
811.48218	1000

NAME: Ginsenoside Rg3(R-FORM)
PRECURSORMZ: 783.49001594783
PRECURSORTYPE: [M-H]-
INSTRUMENTTYPE: LC-ESI-QTOF
SMILES: CC(C)=CCCC(C)(O)C1CCC2(C)C1C(O)CC1C3(C)CCC(OC4OC(CO)C(O)C(O)C4OC4OC(CO)C(O)C(O)C4O)C(C)(C)C3CCC21C
INCHIKEY: RWXIFXNRCLMQCD-UHFFFAOYNA-N
Ontology: Triterpene saponins
COLLISIONENERGY: 30
FORMULA: C42H72O13
RETENTIONTIME: 8.305883
IONMODE: Negative
Comment: registered in RIKEN PlaSMA
Num Peaks: 35
71.01203	53
73.02747	16
85.03028	21
89.02422	88
101.02641	81
109.02673	22
113.01973	43
113.02441	36
113.03055	20
125.02122	31
143.03322	23
159.03542	16
161.04224	298
161.47537	15
162.05113	22
163.04597	32
179.03946	33
179.05551	27
200.90602	18
222.06708	15
308.66501	16
459.39893	21
459.42966	15
460.37799	15
460.39139	21
460.41342	28
621.42615	117
621.45203	63
622.42407	21
622.43842	68
622.49121	17
623.43726	15
783.37573	23
783.48749	1000
783.5542	21

NAME: Ginsenoside Rg5
PRECURSORMZ: 765.47945124783
PRECURSORTYPE: [M-H]-
INSTRUMENTTYPE: LC-ESI-QTOF
SMILES: CC(C)=CCC=C(C)C1CCC2(C)C1C(O)CC1C3(C)CCC(OC4OC(CO)C(O)C(O)C4OC4OC(CO)C(O)C(O)C4O)C(C)(C)C3CCC21C
INCHIKEY: NJUXRKMKOFXMRX-UHFFFAOYNA-N
Ontology: Triterpene saponins
COLLISIONENERGY: 30
FORMULA: C42H70O12
RETENTIONTIME: 9.627267
IONMODE: Negative
Comment: registered in RIKEN PlaSMA
Num Peaks: 41
55.01892	14
71.00909	44
71.01307	43
73.02914	31
85.0281	58
87.00581	13
89.01689	20
89.02277	31
90.02766	14
97.02711	15
97.03468	56
99.00591	23
99.01057	18
101.02011	91
101.02759	60
102.02728	20
113.0235	125
119.02499	14
119.03439	34
120.03844	17
143.03349	33
159.02795	65
159.03658	13
161.04414	293
179.06265	14
221.06088	56
221.07469	34
240.40034	34
567.39893	19
585.57678	22
603.39606	14
603.4187	88
603.44916	59
604.40186	16
604.43378	33
605.40417	14
605.43481	21
606.42273	13
752.94177	41
765.47815	1000
765.60858	15

NAME: Ginsenoside Rg5
PRECURSORMZ: 811.48493055183
PRECURSORTYPE: [M+FA-H]-
INSTRUMENTTYPE: LC-ESI-QTOF
SMILES: CC(C)=CCC=C(C)C1CCC2(C)C1C(O)CC1C3(C)CCC(OC4OC(CO)C(O)C(O)C4OC4OC(CO)C(O)C(O)C4O)C(C)(C)C3CCC21C
INCHIKEY: NJUXRKMKOFXMRX-UHFFFAOYNA-N
Ontology: Triterpene saponins
COLLISIONENERGY: 30
FORMULA: C42H70O12
RETENTIONTIME: 9.627267
IONMODE: Negative
Comment: registered in RIKEN PlaSMA
Num Peaks: 14
71.01366	8
89.02391	7
101.02352	64
113.02409	26
119.03443	8
159.02544	15
161.04407	72
603.42804	66
604.42285	22
765.47845	1000
766.48358	484
767.48657	152
768.4834	10
768.50385	8

NAME: Ginsenoside Rg3(R-FORM)
PRECURSORMZ: 783.49001594783
PRECURSORTYPE: [M-H]-
INSTRUMENTTYPE: LC-ESI-QTOF
SMILES: CC(C)=CCCC(C)(O)C1CCC2(C)C1C(O)CC1C3(C)CCC(OC4OC(CO)C(O)C(O)C4OC4OC(CO)C(O)C(O)C4O)C(C)(C)C3CCC21C
INCHIKEY: RWXIFXNRCLMQCD-UHFFFAOYNA-N
Ontology: Triterpene saponins
COLLISIONENERGY: 50
FORMULA: C42H72O13
RETENTIONTIME: 8.305883
IONMODE: Negative
Comment: registered in RIKEN PlaSMA
Num Peaks: 23
71.01244	403
73.02557	86
83.01124	48
85.02773	273
89.02382	137
99.01025	38
101.02213	1000
113.02541	194
114.02773	41
119.03815	79
125.02256	48
125.09768	91
151.07944	60
161.04607	91
375.29651	82
376.30383	41
459.37631	201
529.38843	38
537.33258	43
538.32861	82
538.34503	48
607.40985	38
623.44659	38

NAME: Ginsenoside Rg3(R-FORM)
PRECURSORMZ: 829.49549525183
PRECURSORTYPE: [M+FA-H]-
INSTRUMENTTYPE: LC-ESI-QTOF
SMILES: CC(C)=CCCC(C)(O)C1CCC2(C)C1C(O)CC1C3(C)CCC(OC4OC(CO)C(O)C(O)C4OC4OC(CO)C(O)C(O)C4O)C(C)(C)C3CCC21C
INCHIKEY: RWXIFXNRCLMQCD-UHFFFAOYNA-N
Ontology: Triterpene saponins
COLLISIONENERGY: 50
FORMULA: C42H72O13
RETENTIONTIME: 8.305883
IONMODE: Negative
Comment: registered in RIKEN PlaSMA
Num Peaks: 113
55.01863	21
59.00964	17
59.01282	48
71.01247	229
72.01392	7
72.04743	8
73.01393	33
73.02648	81
73.03095	77
74.0349	12
75.03291	7
83.01331	64
84.01993	16
85.0293	147
86.02817	6
87.00745	6
87.04384	9
87.46561	7
89.02303	227
89.03296	6
95.01161	17
97.03074	8
98.03208	7
99.00729	37
99.04475	6
101.02297	1000
102.02621	47
102.35825	5
113.02338	569
114.02345	16
114.0295	32
115.02011	5
115.03445	5
119.03399	231
125.01499	8
125.02505	31
125.09506	10
126.03208	14
129.0143	12
129.01932	25
131.03185	53
132.03865	32
134.32402	6
137.03279	6
143.03401	143
144.03407	20
149.04173	7
159.02843	151
160.0244	6
160.03848	15
161.04417	359
161.06018	6
161.22282	6
162.04764	20
179.0583	21
192.28236	5
221.06494	110
222.07004	8
227.25822	9
245.31865	9
284.93771	11
331.26245	7
364.47849	5
373.26703	5
375.26447	8
375.28497	66
375.29773	31
375.32343	6
375.3486	12
376.30093	31
376.42249	6
376.45319	10
429.30188	17
432.58182	6
443.33652	11
444.3569	7
459.38214	381
460.3862	226
461.36285	6
461.39468	34
462.40155	7
471.37082	6
475.29449	6
477.33353	6
494.76337	6
513.39771	11
513.44025	8
517.39374	7
529.34631	5
537.2981	10
537.33661	36
537.35498	30
537.38788	6
538.34265	28
539.32733	7
539.34253	12
555.39752	17
567.41187	7
603.42065	15
621.36169	6
621.41339	30
621.4353	133
621.46869	17
621.50494	10
621.86951	7
621.90442	8
622.42517	37
622.4635	27
623.46259	26
783.4715	35
783.51276	18
786.45148	6
786.51068	5

NAME: Ginsenoside compound K
PRECURSORMZ: 621.4371925
PRECURSORTYPE: [M-H]-
INSTRUMENTTYPE: LC-ESI-QTOF
SMILES: CC(C)=CCCC(C)(OC1OC(CO)C(O)C(O)C1O)C1CCC2(C)C1C(O)CC1C3(C)CCC(O)C(C)(C)C3CCC21C
INCHIKEY: FVIZARNDLVOMSU-UHFFFAOYNA-N
Ontology: Triterpene saponins
COLLISIONENERGY: 50
FORMULA: C36H62O8
RETENTIONTIME: 9.509533
IONMODE: Negative
Comment: registered in RIKEN PlaSMA
Num Peaks: 2
71.01654	581
101.02371	1000

NAME: Ginsenoside Rg5
PRECURSORMZ: 765.47945124783
PRECURSORTYPE: [M-H]-
INSTRUMENTTYPE: LC-ESI-QTOF
SMILES: CC(C)=CCC=C(C)C1CCC2(C)C1C(O)CC1C3(C)CCC(OC4OC(CO)C(O)C(O)C4OC4OC(CO)C(O)C(O)C4O)C(C)(C)C3CCC21C
INCHIKEY: NJUXRKMKOFXMRX-UHFFFAOYNA-N
Ontology: Triterpene saponins
COLLISIONENERGY: 50
FORMULA: C42H70O12
RETENTIONTIME: 9.627267
IONMODE: Negative
Comment: registered in RIKEN PlaSMA
Num Peaks: 25
59.01307	72
71.01218	449
71.02649	35
73.02733	64
75.00813	35
83.01273	48
85.02871	166
86.03314	70
87.01078	37
89.01788	87
89.02133	35
97.0327	54
99.01018	68
99.78811	56
101.0232	1000
102.02682	35
113.02261	627
114.02057	62
119.02901	35
141.23154	66
159.02495	41
161.04514	211
219.04272	33
221.06996	41
221.79585	43

NAME: Ginsenoside Rg5
PRECURSORMZ: 811.48493055183
PRECURSORTYPE: [M+FA-H]-
INSTRUMENTTYPE: LC-ESI-QTOF
SMILES: CC(C)=CCC=C(C)C1CCC2(C)C1C(O)CC1C3(C)CCC(OC4OC(CO)C(O)C(O)C4OC4OC(CO)C(O)C(O)C4O)C(C)(C)C3CCC21C
INCHIKEY: NJUXRKMKOFXMRX-UHFFFAOYNA-N
Ontology: Triterpene saponins
COLLISIONENERGY: 50
FORMULA: C42H70O12
RETENTIONTIME: 9.627267
IONMODE: Negative
Comment: registered in RIKEN PlaSMA
Num Peaks: 72
55.01984	9
55.02319	5
57.0342	11
59.0123	62
69.03809	5
70.96473	6
71.012	312
72.01373	6
73.02733	190
73.96507	5
74.03376	8
81.03096	21
83.01191	89
84.01419	7
85.02796	274
85.79458	5
85.99847	24
86.02917	8
86.03749	5
87.0048	12
88.01091	6
89.02296	208
90.02136	8
95.01495	59
95.0216	11
97.02708	36
99.0087	49
99.28606	8
101.02344	1000
102.02605	57
107.02966	5
109.02653	5
111.00413	13
112.01783	6
113.02254	677
113.04745	6
113.42481	5
114.02709	36
119.03265	85
119.04028	7
120.03561	11
121.33298	5
125.02123	32
125.02737	38
125.11897	8
129.01807	56
131.03369	109
132.03755	19
134.04396	6
143.03482	81
145.03691	6
150.05005	7
159.01309	6
159.02721	111
161.04416	282
161.05928	17
162.03853	15
162.04463	5
179.04811	5
179.05914	5
186.80223	5
221.05728	7
221.06804	25
483.38904	5
585.41992	5
603.39484	6
603.43353	11
605.43719	7
765.4624	5
765.49927	6
766.46021	5
766.48853	6

NAME: Ginsenoside Rg3(R-FORM)
PRECURSORMZ: 783.49001594783
PRECURSORTYPE: [M-H]-
INSTRUMENTTYPE: LC-ESI-QTOF
SMILES: CC(C)=CCCC(C)(O)C1CCC2(C)C1C(O)CC1C3(C)CCC(OC4OC(CO)C(O)C(O)C4OC4OC(CO)C(O)C(O)C4O)C(C)(C)C3CCC21C
INCHIKEY: RWXIFXNRCLMQCD-UHFFFAOYNA-N
Ontology: Triterpene saponins
COLLISIONENERGY: 10
FORMULA: C42H72O13
RETENTIONTIME: 8.305883
IONMODE: Negative
Comment: registered in RIKEN PlaSMA
Num Peaks: 19
71.01017	18
85.02871	28
89.02901	11
97.02804	19
101.02263	59
113.02659	10
149.04248	10
159.02396	9
161.01392	16
161.04768	12
328.08047	9
364.25922	12
375.27896	12
459.38968	14
621.43958	12
621.46649	10
622.42615	30
622.46625	12
783.48505	1000

NAME: Ginsenoside Rg3(R-FORM)
PRECURSORMZ: 829.49549525183
PRECURSORTYPE: [M+FA-H]-
INSTRUMENTTYPE: LC-ESI-QTOF
SMILES: CC(C)=CCCC(C)(O)C1CCC2(C)C1C(O)CC1C3(C)CCC(OC4OC(CO)C(O)C(O)C4OC4OC(CO)C(O)C(O)C4O)C(C)(C)C3CCC21C
INCHIKEY: RWXIFXNRCLMQCD-UHFFFAOYNA-N
Ontology: Triterpene saponins
COLLISIONENERGY: 10
FORMULA: C42H72O13
RETENTIONTIME: 8.305883
IONMODE: Negative
Comment: registered in RIKEN PlaSMA
Num Peaks: 17
101.02439	26
113.02567	7
119.03403	10
143.03456	7
161.0443	51
459.37344	6
459.38925	9
621.43555	55
622.45081	13
783.48889	1000
783.56415	7
784.49292	488
784.55151	6
785.49573	120
786.49359	22
787.51636	5
829.49506	240

NAME: Ginsenoside compound K
PRECURSORMZ: 667.442671804
PRECURSORTYPE: [M+FA-H]-
INSTRUMENTTYPE: LC-ESI-QTOF
SMILES: CC(C)=CCCC(C)(OC1OC(CO)C(O)C(O)C1O)C1CCC2(C)C1C(O)CC1C3(C)CCC(O)C(C)(C)C3CCC21C
INCHIKEY: FVIZARNDLVOMSU-UHFFFAOYNA-N
Ontology: Triterpene saponins
COLLISIONENERGY: 10
FORMULA: C36H62O8
RETENTIONTIME: 9.509533
IONMODE: Negative
Comment: registered in RIKEN PlaSMA
Num Peaks: 14
101.02441	15
113.02307	13
119.03149	5
143.03499	5
161.04471	55
179.05334	6
459.37399	11
459.39398	10
460.38913	5
621.43817	129
622.43939	39
622.45551	14
623.45239	6
667.44312	1000

NAME: Ginsenoside Rg5
PRECURSORMZ: 765.47945124783
PRECURSORTYPE: [M-H]-
INSTRUMENTTYPE: LC-ESI-QTOF
SMILES: CC(C)=CCC=C(C)C1CCC2(C)C1C(O)CC1C3(C)CCC(OC4OC(CO)C(O)C(O)C4OC4OC(CO)C(O)C(O)C4O)C(C)(C)C3CCC21C
INCHIKEY: NJUXRKMKOFXMRX-UHFFFAOYNA-N
Ontology: Triterpene saponins
COLLISIONENERGY: 10
FORMULA: C42H70O12
RETENTIONTIME: 9.627267
IONMODE: Negative
Comment: registered in RIKEN PlaSMA
Num Peaks: 18
71.00986	10
73.02811	7
89.02412	20
97.03633	18
101.02282	8
113.02274	15
129.02005	7
143.03438	11
159.02643	10
160.03542	10
161.03212	8
161.03792	10
161.0544	14
179.05824	14
345.51849	11
603.43188	21
604.42529	17
765.48126	1000

NAME: Ginsenoside Rg5
PRECURSORMZ: 811.48493055183
PRECURSORTYPE: [M+FA-H]-
INSTRUMENTTYPE: LC-ESI-QTOF
SMILES: CC(C)=CCC=C(C)C1CCC2(C)C1C(O)CC1C3(C)CCC(OC4OC(CO)C(O)C(O)C4OC4OC(CO)C(O)C(O)C4O)C(C)(C)C3CCC21C
INCHIKEY: NJUXRKMKOFXMRX-UHFFFAOYNA-N
Ontology: Triterpene saponins
COLLISIONENERGY: 10
FORMULA: C42H70O12
RETENTIONTIME: 9.627267
IONMODE: Negative
Comment: registered in RIKEN PlaSMA
Num Peaks: 13
101.0233	30
113.02225	15
143.03435	7
159.03059	15
161.04527	58
603.41589	8
603.4339	23
765.4787	1000
766.48035	446
767.48499	141
768.48242	33
769.49408	7
811.48169	204

NAME: Ginsenoside Rg3(R-FORM)
PRECURSORMZ: 783.49001594783
PRECURSORTYPE: [M-H]-
INSTRUMENTTYPE: LC-ESI-QTOF
SMILES: CC(C)=CCCC(C)(O)C1CCC2(C)C1C(O)CC1C3(C)CCC(OC4OC(CO)C(O)C(O)C4OC4OC(CO)C(O)C(O)C4O)C(C)(C)C3CCC21C
INCHIKEY: RWXIFXNRCLMQCD-UHFFFAOYNA-N
Ontology: Triterpene saponins
COLLISIONENERGY: 10
FORMULA: C42H72O13
RETENTIONTIME: 8.305883
IONMODE: Negative
Comment: registered in RIKEN PlaSMA
Num Peaks: 5
261.48749	12
324.62622	12
394.05304	8
585.64996	10
783.48706	1000

NAME: Ginsenoside Rg3(R-FORM)
PRECURSORMZ: 829.49549525183
PRECURSORTYPE: [M+FA-H]-
INSTRUMENTTYPE: LC-ESI-QTOF
SMILES: CC(C)=CCCC(C)(O)C1CCC2(C)C1C(O)CC1C3(C)CCC(OC4OC(CO)C(O)C(O)C4OC4OC(CO)C(O)C(O)C4O)C(C)(C)C3CCC21C
INCHIKEY: RWXIFXNRCLMQCD-UHFFFAOYNA-N
Ontology: Triterpene saponins
COLLISIONENERGY: 10
FORMULA: C42H72O13
RETENTIONTIME: 8.305883
IONMODE: Negative
Comment: registered in RIKEN PlaSMA
Num Peaks: 7
783.4895	469
784.49457	196
785.49341	45
785.5213	13
786.47119	6
786.51038	9
829.49591	1000

NAME: Ginsenoside compound K
PRECURSORMZ: 667.442671804
PRECURSORTYPE: [M+FA-H]-
INSTRUMENTTYPE: LC-ESI-QTOF
SMILES: CC(C)=CCCC(C)(OC1OC(CO)C(O)C(O)C1O)C1CCC2(C)C1C(O)CC1C3(C)CCC(O)C(C)(C)C3CCC21C
INCHIKEY: FVIZARNDLVOMSU-UHFFFAOYNA-N
Ontology: Triterpene saponins
COLLISIONENERGY: 10
FORMULA: C36H62O8
RETENTIONTIME: 9.509533
IONMODE: Negative
Comment: registered in RIKEN PlaSMA
Num Peaks: 4
621.4231	10
621.43982	32
622.43848	17
667.44312	1000

NAME: Ginsenoside Rg5
PRECURSORMZ: 765.47945124783
PRECURSORTYPE: [M-H]-
INSTRUMENTTYPE: LC-ESI-QTOF
SMILES: CC(C)=CCC=C(C)C1CCC2(C)C1C(O)CC1C3(C)CCC(OC4OC(CO)C(O)C(O)C4OC4OC(CO)C(O)C(O)C4O)C(C)(C)C3CCC21C
INCHIKEY: NJUXRKMKOFXMRX-UHFFFAOYNA-N
Ontology: Triterpene saponins
COLLISIONENERGY: 10
FORMULA: C42H70O12
RETENTIONTIME: 9.627267
IONMODE: Negative
Comment: registered in RIKEN PlaSMA
Num Peaks: 6
71.928	10
577.30188	15
603.41138	7
652.68799	9
762.06622	6
765.47821	1000

NAME: Ginsenoside Rg5
PRECURSORMZ: 811.48493055183
PRECURSORTYPE: [M+FA-H]-
INSTRUMENTTYPE: LC-ESI-QTOF
SMILES: CC(C)=CCC=C(C)C1CCC2(C)C1C(O)CC1C3(C)CCC(OC4OC(CO)C(O)C(O)C4OC4OC(CO)C(O)C(O)C4O)C(C)(C)C3CCC21C
INCHIKEY: NJUXRKMKOFXMRX-UHFFFAOYNA-N
Ontology: Triterpene saponins
COLLISIONENERGY: 10
FORMULA: C42H70O12
RETENTIONTIME: 9.627267
IONMODE: Negative
Comment: registered in RIKEN PlaSMA
Num Peaks: 7
765.42261	6
765.48029	897
765.53821	6
766.48364	409
767.48413	86
768.50323	18
811.48505	1000

NAME: Ginsenoside Rg3(R-FORM)
PRECURSORMZ: 783.49001594783
PRECURSORTYPE: [M-H]-
INSTRUMENTTYPE: LC-ESI-QTOF
SMILES: CC(C)=CCCC(C)(O)C1CCC2(C)C1C(O)CC1C3(C)CCC(OC4OC(CO)C(O)C(O)C4OC4OC(CO)C(O)C(O)C4O)C(C)(C)C3CCC21C
INCHIKEY: RWXIFXNRCLMQCD-UHFFFAOYNA-N
Ontology: Triterpene saponins
COLLISIONENERGY: 30
FORMULA: C42H72O13
RETENTIONTIME: 8.305883
IONMODE: Negative
Comment: registered in RIKEN PlaSMA
Num Peaks: 37
59.12051	14
71.01608	20
84.37014	14
85.02815	42
89.02345	15
101.01413	24
101.02415	224
101.70251	15
113.02145	48
119.03546	68
143.03149	78
143.04309	14
159.02275	15
159.02933	23
161.0428	251
162.04349	14
162.0537	22
163.04645	14
165.83588	14
179.05257	41
431.18961	39
459.36435	44
459.38617	60
485.75876	19
517.38623	18
539.33893	16
603.41949	14
621.38422	20
621.43689	283
621.48102	21
622.42572	45
622.44983	70
623.448	46
781.12891	14
783.21014	16
783.39178	20
783.49353	1000

NAME: Ginsenoside Rg3(R-FORM)
PRECURSORMZ: 829.49549525183
PRECURSORTYPE: [M+FA-H]-
INSTRUMENTTYPE: LC-ESI-QTOF
SMILES: CC(C)=CCCC(C)(O)C1CCC2(C)C1C(O)CC1C3(C)CCC(OC4OC(CO)C(O)C(O)C4OC4OC(CO)C(O)C(O)C4O)C(C)(C)C3CCC21C
INCHIKEY: RWXIFXNRCLMQCD-UHFFFAOYNA-N
Ontology: Triterpene saponins
COLLISIONENERGY: 30
FORMULA: C42H72O13
RETENTIONTIME: 8.305883
IONMODE: Negative
Comment: registered in RIKEN PlaSMA
Num Peaks: 17
71.01282	6
89.02435	7
101.02394	19
113.02399	11
119.03423	9
143.03122	6
143.03769	5
159.02905	7
161.04442	43
179.05533	9
621.43964	71
622.4411	26
783.49017	1000
783.55511	5
784.49347	500
785.49469	105
786.49896	22

NAME: Ginsenoside compound K
PRECURSORMZ: 621.4371925
PRECURSORTYPE: [M-H]-
INSTRUMENTTYPE: LC-ESI-QTOF
SMILES: CC(C)=CCCC(C)(OC1OC(CO)C(O)C(O)C1O)C1CCC2(C)C1C(O)CC1C3(C)CCC(O)C(C)(C)C3CCC21C
INCHIKEY: FVIZARNDLVOMSU-UHFFFAOYNA-N
Ontology: Triterpene saponins
COLLISIONENERGY: 30
FORMULA: C36H62O8
RETENTIONTIME: 9.509533
IONMODE: Negative
Comment: registered in RIKEN PlaSMA
Num Peaks: 3
89.02108	955
89.02544	1000
101.02412	864

NAME: Ginsenoside Rg5
PRECURSORMZ: 765.47945124783
PRECURSORTYPE: [M-H]-
INSTRUMENTTYPE: LC-ESI-QTOF
SMILES: CC(C)=CCC=C(C)C1CCC2(C)C1C(O)CC1C3(C)CCC(OC4OC(CO)C(O)C(O)C4OC4OC(CO)C(O)C(O)C4O)C(C)(C)C3CCC21C
INCHIKEY: NJUXRKMKOFXMRX-UHFFFAOYNA-N
Ontology: Triterpene saponins
COLLISIONENERGY: 30
FORMULA: C42H70O12
RETENTIONTIME: 9.627267
IONMODE: Negative
Comment: registered in RIKEN PlaSMA
Num Peaks: 32
71.0125	130
83.01524	13
85.02956	52
87.00952	14
89.02493	64
94.35001	11
101.02497	169
113.02141	99
119.03372	48
120.0416	11
131.02956	28
143.03401	42
159.01736	11
159.02235	28
159.033	38
161.04431	222
161.06041	13
162.04889	25
179.05133	19
179.05969	13
221.0672	11
245.05661	11
250.40834	11
313.02435	11
323.09558	18
413.03604	12
427.10559	13
603.42334	132
604.42426	42
605.42645	26
606.47205	11
765.4826	1000

NAME: Ginsenoside Rg3(R-FORM)
PRECURSORMZ: 783.49001594783
PRECURSORTYPE: [M-H]-
INSTRUMENTTYPE: LC-ESI-QTOF
SMILES: CC(C)=CCCC(C)(O)C1CCC2(C)C1C(O)CC1C3(C)CCC(OC4OC(CO)C(O)C(O)C4OC4OC(CO)C(O)C(O)C4O)C(C)(C)C3CCC21C
INCHIKEY: RWXIFXNRCLMQCD-UHFFFAOYNA-N
Ontology: Triterpene saponins
COLLISIONENERGY: 50
FORMULA: C42H72O13
RETENTIONTIME: 8.305883
IONMODE: Negative
Comment: registered in RIKEN PlaSMA
Num Peaks: 33
59.00875	48
59.01343	37
71.01267	193
83.01063	78
83.01424	167
85.02062	48
85.0299	176
89.02445	98
95.02072	76
97.03111	35
101.02389	1000
101.09219	37
103.02654	39
103.47674	43
113.02143	485
119.03266	143
119.04068	72
125.01395	157
129.02162	61
161.0455	78
367.2673	46
375.27957	59
375.29413	143
376.2753	57
376.30948	109
385.31042	35
430.31512	37
441.37363	35
459.38016	107
460.38394	52
460.39944	43
461.40845	35
537.34729	35

NAME: Ginsenoside Rg3(R-FORM)
PRECURSORMZ: 829.49549525183
PRECURSORTYPE: [M+FA-H]-
INSTRUMENTTYPE: LC-ESI-QTOF
SMILES: CC(C)=CCCC(C)(O)C1CCC2(C)C1C(O)CC1C3(C)CCC(OC4OC(CO)C(O)C(O)C4OC4OC(CO)C(O)C(O)C4O)C(C)(C)C3CCC21C
INCHIKEY: RWXIFXNRCLMQCD-UHFFFAOYNA-N
Ontology: Triterpene saponins
COLLISIONENERGY: 50
FORMULA: C42H72O13
RETENTIONTIME: 8.305883
IONMODE: Negative
Comment: registered in RIKEN PlaSMA
Num Peaks: 83
51.06016	6
55.01739	10
57.03231	5
57.03877	6
59.0123	72
69.03284	11
71.0126	311
72.01759	6
73.02766	148
73.98479	5
75.00666	5
79.67867	5
83.01304	68
83.06441	7
85.02786	189
86.03411	19
87.00687	8
89.02293	179
90.02467	25
95.01419	84
97.02608	18
99.00748	107
99.04067	8
100.01318	7
101.02324	1000
102.02412	20
102.03143	12
103.17293	11
113.02327	609
113.09787	6
114.02735	34
115.04315	10
119.03461	94
120.03828	10
125.02375	39
125.0917	17
127.03963	6
129.01904	26
131.03421	71
143.03409	120
149.0423	9
159.0291	134
160.03775	7
161.02269	6
161.04503	311
162.04585	14
163.93488	8
179.05624	21
202.29961	5
221.06223	37
246.46349	5
280.05167	8
375.27267	32
375.2887	80
375.31812	11
376.2933	34
377.28738	6
429.29318	12
439.36664	5
440.34985	7
441.36099	13
442.39929	12
458.35562	6
459.38312	337
460.38971	121
461.38159	18
513.39441	24
530.39813	6
537.32831	5
537.35095	27
538.35095	27
543.37323	6
561.4173	10
567.45856	6
605.40479	9
619.22241	6
621.43701	207
622.05444	13
622.40973	13
622.44403	41
624.44696	6
783.48541	40
784.47327	15

NAME: Ginsenoside Rg5
PRECURSORMZ: 765.47945124783
PRECURSORTYPE: [M-H]-
INSTRUMENTTYPE: LC-ESI-QTOF
SMILES: CC(C)=CCC=C(C)C1CCC2(C)C1C(O)CC1C3(C)CCC(OC4OC(CO)C(O)C(O)C4OC4OC(CO)C(O)C(O)C4O)C(C)(C)C3CCC21C
INCHIKEY: NJUXRKMKOFXMRX-UHFFFAOYNA-N
Ontology: Triterpene saponins
COLLISIONENERGY: 50
FORMULA: C42H70O12
RETENTIONTIME: 9.627267
IONMODE: Negative
Comment: registered in RIKEN PlaSMA
Num Peaks: 21
71.01319	232
71.94404	92
73.02945	305
83.01545	63
84.02078	79
85.02934	105
86.03568	89
89.02422	247
97.02823	137
101.02237	1000
102.02303	50
106.90135	47
113.02155	355
114.02537	47
119.03279	126
125.01794	47
139.90015	45
159.03822	79
161.04393	53
200.92648	53
221.07295	121

NAME: Ginsenoside Rg5
PRECURSORMZ: 811.48493055183
PRECURSORTYPE: [M+FA-H]-
INSTRUMENTTYPE: LC-ESI-QTOF
SMILES: CC(C)=CCC=C(C)C1CCC2(C)C1C(O)CC1C3(C)CCC(OC4OC(CO)C(O)C(O)C4OC4OC(CO)C(O)C(O)C4O)C(C)(C)C3CCC21C
INCHIKEY: NJUXRKMKOFXMRX-UHFFFAOYNA-N
Ontology: Triterpene saponins
COLLISIONENERGY: 50
FORMULA: C42H70O12
RETENTIONTIME: 9.627267
IONMODE: Negative
Comment: registered in RIKEN PlaSMA
Num Peaks: 57
59.01183	83
69.03136	10
71.01299	300
72.0164	26
73.02776	126
74.03096	6
74.25988	7
81.03307	13
81.036	5
83.01273	41
85.02935	178
85.26071	6
87.00709	15
89.02354	280
95.01382	31
95.02189	7
97.0264	34
99.00782	76
101.02349	1000
102.02348	26
103.02987	6
103.03501	6
104.96758	5
111.0068	10
112.01622	20
113.02355	603
114.02908	27
115.04092	5
119.0332	64
119.03949	41
122.04291	5
125.02335	68
126.02386	6
129.01749	56
131.03252	12
141.01457	5
143.03032	6
144.04469	7
149.04333	5
159.02644	80
159.03307	61
159.17525	6
161.01733	13
161.04443	280
162.04243	18
179.05513	6
182.52393	6
221.06606	16
439.3786	5
511.35251	6
537.40912	11
603.41364	20
603.43701	9
604.42175	7
605.44458	5
606.42786	8
765.4718	21

NAME: Ginsenoside Rg3(R-FORM)
PRECURSORMZ: 783.49001594783
PRECURSORTYPE: [M-H]-
INSTRUMENTTYPE: LC-ESI-QTOF
SMILES: CC(C)=CCCC(C)(O)C1CCC2(C)C1C(O)CC1C3(C)CCC(OC4OC(CO)C(O)C(O)C4OC4OC(CO)C(O)C(O)C4O)C(C)(C)C3CCC21C
INCHIKEY: RWXIFXNRCLMQCD-UHFFFAOYNA-N
Ontology: Triterpene saponins
COLLISIONENERGY: 10
FORMULA: C42H72O13
RETENTIONTIME: 8.305883
IONMODE: Negative
Comment: registered in RIKEN PlaSMA
Num Peaks: 17
71.01001	10
84.70222	8
85.02547	9
89.02276	17
99.00706	8
101.02288	53
120.03806	8
161.04274	25
163.0463	10
459.39273	37
460.38834	14
621.43103	33
621.45453	8
621.49524	8
622.43378	9
783.48248	1000
783.53271	56

NAME: Ginsenoside Rg3(R-FORM)
PRECURSORMZ: 829.49549525183
PRECURSORTYPE: [M+FA-H]-
INSTRUMENTTYPE: LC-ESI-QTOF
SMILES: CC(C)=CCCC(C)(O)C1CCC2(C)C1C(O)CC1C3(C)CCC(OC4OC(CO)C(O)C(O)C4OC4OC(CO)C(O)C(O)C4O)C(C)(C)C3CCC21C
INCHIKEY: RWXIFXNRCLMQCD-UHFFFAOYNA-N
Ontology: Triterpene saponins
COLLISIONENERGY: 10
FORMULA: C42H72O13
RETENTIONTIME: 8.305883
IONMODE: Negative
Comment: registered in RIKEN PlaSMA
Num Peaks: 19
101.02183	31
113.0229	17
119.03094	6
159.02673	5
161.04445	40
459.38443	20
459.39667	6
460.38242	5
621.41541	9
621.43719	37
622.43726	17
783.4892	1000
784.49207	464
785.49548	119
785.5426	6
786.47504	7
786.49652	10
786.51715	14
829.49457	273

NAME: Ginsenoside compound K
PRECURSORMZ: 667.442671804
PRECURSORTYPE: [M+FA-H]-
INSTRUMENTTYPE: LC-ESI-QTOF
SMILES: CC(C)=CCCC(C)(OC1OC(CO)C(O)C(O)C1O)C1CCC2(C)C1C(O)CC1C3(C)CCC(O)C(C)(C)C3CCC21C
INCHIKEY: FVIZARNDLVOMSU-UHFFFAOYNA-N
Ontology: Triterpene saponins
COLLISIONENERGY: 10
FORMULA: C36H62O8
RETENTIONTIME: 9.509533
IONMODE: Negative
Comment: registered in RIKEN PlaSMA
Num Peaks: 13
71.01307	7
101.02265	17
119.03431	7
143.03426	7
161.0442	58
162.04613	8
179.0546	11
459.38159	22
460.38843	6
621.4386	150
622.44336	61
623.453	5
667.44269	1000

NAME: Ginsenoside Rg5
PRECURSORMZ: 765.47945124783
PRECURSORTYPE: [M-H]-
INSTRUMENTTYPE: LC-ESI-QTOF
SMILES: CC(C)=CCC=C(C)C1CCC2(C)C1C(O)CC1C3(C)CCC(OC4OC(CO)C(O)C(O)C4OC4OC(CO)C(O)C(O)C4O)C(C)(C)C3CCC21C
INCHIKEY: NJUXRKMKOFXMRX-UHFFFAOYNA-N
Ontology: Triterpene saponins
COLLISIONENERGY: 10
FORMULA: C42H70O12
RETENTIONTIME: 9.627267
IONMODE: Negative
Comment: registered in RIKEN PlaSMA
Num Peaks: 16
71.0134	17
89.0233	13
101.02418	18
113.01416	9
113.0268	21
125.02631	7
129.01668	12
160.03284	7
161.04352	83
324.71298	8
370.60345	7
603.41412	16
603.43427	7
604.17542	8
604.41357	17
765.47766	1000

NAME: Ginsenoside Rg5
PRECURSORMZ: 811.48493055183
PRECURSORTYPE: [M+FA-H]-
INSTRUMENTTYPE: LC-ESI-QTOF
SMILES: CC(C)=CCC=C(C)C1CCC2(C)C1C(O)CC1C3(C)CCC(OC4OC(CO)C(O)C(O)C4OC4OC(CO)C(O)C(O)C4O)C(C)(C)C3CCC21C
INCHIKEY: NJUXRKMKOFXMRX-UHFFFAOYNA-N
Ontology: Triterpene saponins
COLLISIONENERGY: 10
FORMULA: C42H70O12
RETENTIONTIME: 9.627267
IONMODE: Negative
Comment: registered in RIKEN PlaSMA
Num Peaks: 15
71.01221	10
101.02296	21
113.02288	11
119.03448	11
159.02805	9
161.04442	43
221.06664	5
603.42444	22
604.43988	8
765.48029	1000
766.4826	435
767.48358	131
768.47925	15
769.50592	7
811.48682	229

NAME: Ginsenoside Rg3(R-FORM)
PRECURSORMZ: 783.49001594783
PRECURSORTYPE: [M-H]-
INSTRUMENTTYPE: LC-ESI-QTOF
SMILES: CC(C)=CCCC(C)(O)C1CCC2(C)C1C(O)CC1C3(C)CCC(OC4OC(CO)C(O)C(O)C4OC4OC(CO)C(O)C(O)C4O)C(C)(C)C3CCC21C
INCHIKEY: RWXIFXNRCLMQCD-UHFFFAOYNA-N
Ontology: Triterpene saponins
COLLISIONENERGY: 10
FORMULA: C42H72O13
RETENTIONTIME: 8.305883
IONMODE: Negative
Comment: registered in RIKEN PlaSMA
Num Peaks: 2
309.36478	7
783.48877	1000

NAME: Ginsenoside Rg3(R-FORM)
PRECURSORMZ: 829.49549525183
PRECURSORTYPE: [M+FA-H]-
INSTRUMENTTYPE: LC-ESI-QTOF
SMILES: CC(C)=CCCC(C)(O)C1CCC2(C)C1C(O)CC1C3(C)CCC(OC4OC(CO)C(O)C(O)C4OC4OC(CO)C(O)C(O)C4O)C(C)(C)C3CCC21C
INCHIKEY: RWXIFXNRCLMQCD-UHFFFAOYNA-N
Ontology: Triterpene saponins
COLLISIONENERGY: 10
FORMULA: C42H72O13
RETENTIONTIME: 8.305883
IONMODE: Negative
Comment: registered in RIKEN PlaSMA
Num Peaks: 8
783.48676	562
784.48962	239
784.54279	7
785.47083	17
785.49072	46
786.4917	10
829.49084	1000
829.55408	8

NAME: Ginsenoside Rg5
PRECURSORMZ: 765.47945124783
PRECURSORTYPE: [M-H]-
INSTRUMENTTYPE: LC-ESI-QTOF
SMILES: CC(C)=CCC=C(C)C1CCC2(C)C1C(O)CC1C3(C)CCC(OC4OC(CO)C(O)C(O)C4OC4OC(CO)C(O)C(O)C4O)C(C)(C)C3CCC21C
INCHIKEY: NJUXRKMKOFXMRX-UHFFFAOYNA-N
Ontology: Triterpene saponins
COLLISIONENERGY: 10
FORMULA: C42H70O12
RETENTIONTIME: 9.627267
IONMODE: Negative
Comment: registered in RIKEN PlaSMA
Num Peaks: 7
59.38298	5
121.55617	6
162.02507	5
374.75476	6
403.03305	6
410.4321	5
765.48083	1000

NAME: Ginsenoside Rg5
PRECURSORMZ: 811.48493055183
PRECURSORTYPE: [M+FA-H]-
INSTRUMENTTYPE: LC-ESI-QTOF
SMILES: CC(C)=CCC=C(C)C1CCC2(C)C1C(O)CC1C3(C)CCC(OC4OC(CO)C(O)C(O)C4OC4OC(CO)C(O)C(O)C4O)C(C)(C)C3CCC21C
INCHIKEY: NJUXRKMKOFXMRX-UHFFFAOYNA-N
Ontology: Triterpene saponins
COLLISIONENERGY: 10
FORMULA: C42H70O12
RETENTIONTIME: 9.627267
IONMODE: Negative
Comment: registered in RIKEN PlaSMA
Num Peaks: 7
765.47797	905
766.47961	376
767.46179	28
767.48828	87
768.4975	15
811.48358	1000
811.56177	9

NAME: Ginsenoside Rg3(R-FORM)
PRECURSORMZ: 783.49001594783
PRECURSORTYPE: [M-H]-
INSTRUMENTTYPE: LC-ESI-QTOF
SMILES: CC(C)=CCCC(C)(O)C1CCC2(C)C1C(O)CC1C3(C)CCC(OC4OC(CO)C(O)C(O)C4OC4OC(CO)C(O)C(O)C4O)C(C)(C)C3CCC21C
INCHIKEY: RWXIFXNRCLMQCD-UHFFFAOYNA-N
Ontology: Triterpene saponins
COLLISIONENERGY: 30
FORMULA: C42H72O13
RETENTIONTIME: 8.305883
IONMODE: Negative
Comment: registered in RIKEN PlaSMA
Num Peaks: 40
59.01384	21
71.01195	56
73.02922	16
85.02996	36
89.02248	20
89.03008	31
99.01031	17
101.02403	172
113.02187	142
119.03821	13
119.06378	17
125.02052	14
143.03104	48
143.03928	15
144.03438	13
159.02596	54
161.04271	147
161.05092	41
179.05852	46
221.06998	34
275.91614	17
377.30975	13
391.63998	13
399.63654	15
459.37805	121
460.36044	15
460.38931	17
461.36646	15
593.51703	14
595.17474	13
605.38867	15
621.42999	242
621.47913	18
622.42126	94
622.45703	76
782.60541	13
783.34106	17
783.48676	1000
783.6189	28
783.68591	17

NAME: Ginsenoside Rg3(R-FORM)
PRECURSORMZ: 829.49549525183
PRECURSORTYPE: [M+FA-H]-
INSTRUMENTTYPE: LC-ESI-QTOF
SMILES: CC(C)=CCCC(C)(O)C1CCC2(C)C1C(O)CC1C3(C)CCC(OC4OC(CO)C(O)C(O)C4OC4OC(CO)C(O)C(O)C4O)C(C)(C)C3CCC21C
INCHIKEY: RWXIFXNRCLMQCD-UHFFFAOYNA-N
Ontology: Triterpene saponins
COLLISIONENERGY: 30
FORMULA: C42H72O13
RETENTIONTIME: 8.305883
IONMODE: Negative
Comment: registered in RIKEN PlaSMA
Num Peaks: 14
89.02394	6
101.02347	17
113.02517	17
143.0336	7
159.03145	8
161.04492	46
459.37778	7
621.43518	57
622.43927	19
783.4906	1000
784.49292	484
785.49713	120
786.48639	19
786.50629	9

NAME: Ginsenoside compound K
PRECURSORMZ: 667.442671804
PRECURSORTYPE: [M+FA-H]-
INSTRUMENTTYPE: LC-ESI-QTOF
SMILES: CC(C)=CCCC(C)(OC1OC(CO)C(O)C(O)C1O)C1CCC2(C)C1C(O)CC1C3(C)CCC(O)C(C)(C)C3CCC21C
INCHIKEY: FVIZARNDLVOMSU-UHFFFAOYNA-N
Ontology: Triterpene saponins
COLLISIONENERGY: 30
FORMULA: C36H62O8
RETENTIONTIME: 9.509533
IONMODE: Negative
Comment: registered in RIKEN PlaSMA
Num Peaks: 74
52.66847	13
59.01171	22
59.01601	39
71.00988	100
71.01626	58
73.02641	21
73.03188	23
75.00459	8
78.77261	8
79.27708	8
82.38654	10
83.00962	8
83.04509	12
84.01438	21
85.02232	15
85.02818	88
87.00459	10
87.00944	8
87.89698	12
88.71642	8
89.02324	287
89.03207	16
97.03078	8
99.00793	66
100.93333	12
101.02329	450
102.02904	10
103.50761	8
108.81522	10
113.02465	294
114.02193	10
115.0396	12
118.42648	8
119.03436	172
120.04173	26
125.02333	37
128.71194	8
129.01401	13
131.03128	35
132.03764	8
134.71556	8
143.03189	89
143.03999	35
143.0575	8
144.04726	10
145.03882	8
149.04144	38
159.02731	150
160.03217	23
161.04414	1000
161.33472	8
162.04901	153
162.11946	9
163.04872	8
179.05676	176
180.06142	17
328.6785	8
372.03644	8
375.31531	12
452.29175	8
459.37888	277
459.43625	17
460.38007	80
460.39905	55
461.38937	24
461.4118	10
621.39783	8
621.44153	222
621.47241	20
622.41962	16
622.44659	39
623.43329	16
623.45111	24
624.11713	9

NAME: Ginsenoside Rg5
PRECURSORMZ: 765.47945124783
PRECURSORTYPE: [M-H]-
INSTRUMENTTYPE: LC-ESI-QTOF
SMILES: CC(C)=CCC=C(C)C1CCC2(C)C1C(O)CC1C3(C)CCC(OC4OC(CO)C(O)C(O)C4OC4OC(CO)C(O)C(O)C4O)C(C)(C)C3CCC21C
INCHIKEY: NJUXRKMKOFXMRX-UHFFFAOYNA-N
Ontology: Triterpene saponins
COLLISIONENERGY: 30
FORMULA: C42H70O12
RETENTIONTIME: 9.627267
IONMODE: Negative
Comment: registered in RIKEN PlaSMA
Num Peaks: 43
71.01447	14
71.81762	15
71.93575	14
73.02475	18
73.42477	19
75.21236	15
85.02065	21
85.02939	51
89.02425	18
89.05804	14
98.02902	23
99.00615	14
101.02451	335
113.01197	38
113.02129	143
114.02777	14
119.03215	48
125.01818	19
126.0471	16
139.50024	15
143.03056	15
149.04604	16
158.45592	18
159.02243	14
159.03331	78
161.04366	337
162.04575	29
179.05714	20
221.06966	18
309.96371	18
322.13577	16
385.41382	15
421.58005	14
425.3949	15
429.4068	22
465.38831	18
603.4209	113
604.41113	29
604.43121	36
604.68213	17
764.30042	16
765.47729	1000
765.58185	18

NAME: Ginsenoside Rg5
PRECURSORMZ: 811.48493055183
PRECURSORTYPE: [M+FA-H]-
INSTRUMENTTYPE: LC-ESI-QTOF
SMILES: CC(C)=CCC=C(C)C1CCC2(C)C1C(O)CC1C3(C)CCC(OC4OC(CO)C(O)C(O)C4OC4OC(CO)C(O)C(O)C4O)C(C)(C)C3CCC21C
INCHIKEY: NJUXRKMKOFXMRX-UHFFFAOYNA-N
Ontology: Triterpene saponins
COLLISIONENERGY: 30
FORMULA: C42H70O12
RETENTIONTIME: 9.627267
IONMODE: Negative
Comment: registered in RIKEN PlaSMA
Num Peaks: 18
71.01236	5
89.02151	10
101.02415	34
113.02517	19
119.03158	6
119.03822	6
159.02757	7
161.04489	73
179.05647	9
603.40302	14
603.42242	52
604.43024	30
605.43726	8
765.47864	1000
765.5318	5
766.48187	468
767.48193	118
768.48364	26

NAME: Ginsenoside Rg3(R-FORM)
PRECURSORMZ: 783.49001594783
PRECURSORTYPE: [M-H]-
INSTRUMENTTYPE: LC-ESI-QTOF
SMILES: CC(C)=CCCC(C)(O)C1CCC2(C)C1C(O)CC1C3(C)CCC(OC4OC(CO)C(O)C(O)C4OC4OC(CO)C(O)C(O)C4O)C(C)(C)C3CCC21C
INCHIKEY: RWXIFXNRCLMQCD-UHFFFAOYNA-N
Ontology: Triterpene saponins
COLLISIONENERGY: 50
FORMULA: C42H72O13
RETENTIONTIME: 8.305883
IONMODE: Negative
Comment: registered in RIKEN PlaSMA
Num Peaks: 22
71.01138	238
73.03666	83
83.01376	90
85.02431	65
85.03207	112
89.01633	58
89.0221	76
89.03078	72
92.78128	61
99.00803	126
101.02364	1000
113.02178	220
120.03616	65
143.03772	72
161.05266	72
375.28125	267
376.28668	58
377.28961	166
423.3175	61
459.36691	72
459.38718	134
537.33417	65

NAME: Ginsenoside Rg5
PRECURSORMZ: 765.47945124783
PRECURSORTYPE: [M-H]-
INSTRUMENTTYPE: LC-ESI-QTOF
SMILES: CC(C)=CCC=C(C)C1CCC2(C)C1C(O)CC1C3(C)CCC(OC4OC(CO)C(O)C(O)C4OC4OC(CO)C(O)C(O)C4O)C(C)(C)C3CCC21C
INCHIKEY: NJUXRKMKOFXMRX-UHFFFAOYNA-N
Ontology: Triterpene saponins
COLLISIONENERGY: 50
FORMULA: C42H70O12
RETENTIONTIME: 9.627267
IONMODE: Negative
Comment: registered in RIKEN PlaSMA
Num Peaks: 25
59.0027	53
59.00852	65
71.01194	109
71.01633	101
73.02966	58
85.02792	145
85.99834	56
87.00725	80
89.02467	261
98.99847	39
99.00863	48
101.02331	1000
112.01209	41
113.02257	213
113.02895	39
114.0306	56
115.02797	39
119.03638	111
120.03769	39
125.01894	41
143.03145	99
159.02924	87
161.04703	41
221.06834	39
295.41379	56

